<?xml version="1.0"?>
<VTKFile type="UnstructuredGrid" version="0.1">
<UnstructuredGrid>
<Piece NumberOfPoints="      1156" NumberOfCells="      1024">
<Points>
<DataArray type="Float64"                                    Name="coordinates"                                                      NumberOfComponents=" 3" format="ascii">
              0.133000000               0.000000000               0.000000000               0.155937500               0.000000000               0.000000000               0.178875000               0.000000000               0.000000000               0.201812500               0.000000000               0.000000000               0.224750000               0.000000000               0.000000000               0.247687500               0.000000000               0.000000000               0.270625000               0.000000000               0.000000000               0.293562500               0.000000000               0.000000000               0.316500000               0.000000000               0.000000000               0.339437500               0.000000000               0.000000000               0.362375000               0.000000000               0.000000000               0.385312500               0.000000000               0.000000000               0.408250000               0.000000000               0.000000000               0.431187500               0.000000000               0.000000000               0.454125000               0.000000000               0.000000000               0.477062500               0.000000000               0.000000000               0.500000000               0.000000000               0.000000000               0.132359569               0.013036280               0.000000000               0.155337096               0.016127762               0.000000000               0.178314623               0.019219245               0.000000000               0.201292150               0.022310727               0.000000000               0.224269676               0.025402210               0.000000000               0.247247203               0.028493692               0.000000000               0.270224730               0.031585175               0.000000000               0.293202257               0.034676657               0.000000000               0.316179784               0.037768140               0.000000000               0.339157311               0.040859622               0.000000000               0.362134838               0.043951105               0.000000000               0.385112365               0.047042587               0.000000000               0.408089892               0.050134070               0.000000000               0.431067419               0.053225552               0.000000000               0.454044946               0.056317035               0.000000000               0.477022473               0.059408517               0.000000000               0.500000000               0.062500000               0.000000000               0.130444442               0.025947013               0.000000000               0.153541665               0.032137825               0.000000000               0.176638887               0.038328636               0.000000000               0.199736109               0.044519448               0.000000000               0.222833332               0.050710260               0.000000000               0.245930554               0.056901071               0.000000000               0.269027776               0.063091883               0.000000000               0.292124999               0.069282695               0.000000000               0.315222221               0.075473506               0.000000000               0.338319444               0.081664318               0.000000000               0.361416666               0.087855130               0.000000000               0.384513888               0.094045942               0.000000000               0.407611111               0.100236753               0.000000000               0.430708333               0.106427565               0.000000000               0.453805555               0.112618377               0.000000000               0.476902778               0.118809188               0.000000000               0.500000000               0.125000000               0.000000000               0.127273065               0.038607862               0.000000000               0.150568498               0.047913621               0.000000000               0.173863932               0.057219379               0.000000000               0.197159365               0.066525138               0.000000000               0.220454798               0.075830897               0.000000000               0.243750232               0.085136655               0.000000000               0.267045665               0.094442414               0.000000000               0.290341099               0.103748172               0.000000000               0.313636532               0.113053931               0.000000000               0.336931966               0.122359690               0.000000000               0.360227399               0.131665448               0.000000000               0.383522833               0.140971207               0.000000000               0.406818266               0.150276966               0.000000000               0.430113700               0.159582724               0.000000000               0.453409133               0.168888483               0.000000000               0.476704567               0.178194241               0.000000000               0.500000000               0.187500000               0.000000000               0.122875978               0.050896897               0.000000000               0.146446229               0.063340840               0.000000000               0.170016481               0.075784784               0.000000000               0.193586732               0.088228728               0.000000000               0.217156983               0.100672672               0.000000000               0.240727235               0.113116616               0.000000000               0.264297486               0.125560560               0.000000000               0.287867738               0.138004504               0.000000000               0.311437989               0.150448448               0.000000000               0.335008240               0.162892392               0.000000000               0.358578492               0.175336336               0.000000000               0.382148743               0.187780280               0.000000000               0.405718994               0.200224224               0.000000000               0.429289246               0.212668168               0.000000000               0.452859497               0.225112112               0.000000000               0.476429749               0.237556056               0.000000000               0.500000000               0.250000000               0.000000000               0.117295528               0.062695766               0.000000000               0.141214558               0.078308531               0.000000000               0.165133587               0.093921295               0.000000000               0.189052617               0.109534060               0.000000000               0.212971646               0.125146824               0.000000000               0.236890676               0.140759589               0.000000000               0.260809705               0.156372354               0.000000000               0.284728735               0.171985118               0.000000000               0.308647764               0.187597883               0.000000000               0.332566794               0.203210648               0.000000000               0.356485823               0.218823412               0.000000000               0.380404853               0.234436177               0.000000000               0.404323882               0.250048941               0.000000000               0.428242912               0.265661706               0.000000000               0.452161941               0.281274471               0.000000000               0.476080971               0.296887235               0.000000000               0.500000000               0.312500000               0.000000000               0.110585458               0.073890841               0.000000000               0.134923867               0.092710163               0.000000000               0.159262276               0.111529486               0.000000000               0.183600685               0.130348808               0.000000000               0.207939094               0.149168131               0.000000000               0.232277503               0.167987453               0.000000000               0.256615912               0.186806776               0.000000000               0.280954320               0.205626098               0.000000000               0.305292729               0.224445420               0.000000000               0.329631138               0.243264743               0.000000000               0.353969547               0.262084065               0.000000000               0.378307956               0.280903388               0.000000000               0.402646365               0.299722710               0.000000000               0.426984773               0.318542033               0.000000000               0.451323182               0.337361355               0.000000000               0.475661591               0.356180678               0.000000000               0.500000000               0.375000000               0.000000000               0.102810390               0.084374307               0.000000000               0.127634741               0.106444663               0.000000000               0.152459092               0.128515018               0.000000000               0.177283442               0.150585374               0.000000000               0.202107793               0.172655730               0.000000000               0.226932143               0.194726086               0.000000000               0.251756494               0.216796442               0.000000000               0.276580845               0.238866798               0.000000000               0.301405195               0.260937153               0.000000000               0.326229546               0.283007509               0.000000000               0.351053896               0.305077865               0.000000000               0.375878247               0.327148221               0.000000000               0.400702598               0.349218577               0.000000000               0.425526948               0.371288933               0.000000000               0.450351299               0.393359288               0.000000000               0.475175649               0.415429644               0.000000000               0.500000000               0.437500000               0.000000000               0.094045202               0.094045202               0.000000000               0.119417377               0.119417377               0.000000000               0.144789552               0.144789552               0.000000000               0.170161727               0.170161727               0.000000000               0.195533901               0.195533901               0.000000000               0.220906076               0.220906076               0.000000000               0.246278251               0.246278251               0.000000000               0.271650426               0.271650426               0.000000000               0.297022601               0.297022601               0.000000000               0.322394776               0.322394776               0.000000000               0.347766951               0.347766951               0.000000000               0.373139126               0.373139126               0.000000000               0.398511300               0.398511300               0.000000000               0.423883475               0.423883475               0.000000000               0.449255650               0.449255650               0.000000000               0.474627825               0.474627825               0.000000000               0.500000000               0.500000000               0.000000000               0.084374307               0.102810390               0.000000000               0.106444663               0.127634741               0.000000000               0.128515018               0.152459092               0.000000000               0.150585374               0.177283442               0.000000000               0.172655730               0.202107793               0.000000000               0.194726086               0.226932143               0.000000000               0.216796442               0.251756494               0.000000000               0.238866798               0.276580845               0.000000000               0.260937153               0.301405195               0.000000000               0.283007509               0.326229546               0.000000000               0.305077865               0.351053896               0.000000000               0.327148221               0.375878247               0.000000000               0.349218577               0.400702598               0.000000000               0.371288933               0.425526948               0.000000000               0.393359288               0.450351299               0.000000000               0.415429644               0.475175649               0.000000000               0.437500000               0.500000000               0.000000000               0.073890841               0.110585458               0.000000000               0.092710163               0.134923867               0.000000000               0.111529486               0.159262276               0.000000000               0.130348808               0.183600685               0.000000000               0.149168131               0.207939094               0.000000000               0.167987453               0.232277503               0.000000000               0.186806776               0.256615912               0.000000000               0.205626098               0.280954320               0.000000000               0.224445420               0.305292729               0.000000000               0.243264743               0.329631138               0.000000000               0.262084065               0.353969547               0.000000000               0.280903388               0.378307956               0.000000000               0.299722710               0.402646365               0.000000000               0.318542033               0.426984773               0.000000000               0.337361355               0.451323182               0.000000000               0.356180678               0.475661591               0.000000000               0.375000000               0.500000000               0.000000000               0.062695766               0.117295528               0.000000000               0.078308531               0.141214558               0.000000000               0.093921295               0.165133587               0.000000000               0.109534060               0.189052617               0.000000000               0.125146824               0.212971646               0.000000000               0.140759589               0.236890676               0.000000000               0.156372354               0.260809705               0.000000000               0.171985118               0.284728735               0.000000000               0.187597883               0.308647764               0.000000000               0.203210648               0.332566794               0.000000000               0.218823412               0.356485823               0.000000000               0.234436177               0.380404853               0.000000000               0.250048941               0.404323882               0.000000000               0.265661706               0.428242912               0.000000000               0.281274471               0.452161941               0.000000000               0.296887235               0.476080971               0.000000000               0.312500000               0.500000000               0.000000000               0.050896897               0.122875978               0.000000000               0.063340840               0.146446229               0.000000000               0.075784784               0.170016481               0.000000000               0.088228728               0.193586732               0.000000000               0.100672672               0.217156983               0.000000000               0.113116616               0.240727235               0.000000000               0.125560560               0.264297486               0.000000000               0.138004504               0.287867738               0.000000000               0.150448448               0.311437989               0.000000000               0.162892392               0.335008240               0.000000000               0.175336336               0.358578492               0.000000000               0.187780280               0.382148743               0.000000000               0.200224224               0.405718994               0.000000000               0.212668168               0.429289246               0.000000000               0.225112112               0.452859497               0.000000000               0.237556056               0.476429749               0.000000000               0.250000000               0.500000000               0.000000000               0.038607862               0.127273065               0.000000000               0.047913621               0.150568498               0.000000000               0.057219379               0.173863932               0.000000000               0.066525138               0.197159365               0.000000000               0.075830897               0.220454798               0.000000000               0.085136655               0.243750232               0.000000000               0.094442414               0.267045665               0.000000000               0.103748172               0.290341099               0.000000000               0.113053931               0.313636532               0.000000000               0.122359690               0.336931966               0.000000000               0.131665448               0.360227399               0.000000000               0.140971207               0.383522833               0.000000000               0.150276966               0.406818266               0.000000000               0.159582724               0.430113700               0.000000000               0.168888483               0.453409133               0.000000000               0.178194241               0.476704567               0.000000000               0.187500000               0.500000000               0.000000000               0.025947013               0.130444442               0.000000000               0.032137825               0.153541665               0.000000000               0.038328636               0.176638887               0.000000000               0.044519448               0.199736109               0.000000000               0.050710260               0.222833332               0.000000000               0.056901071               0.245930554               0.000000000               0.063091883               0.269027776               0.000000000               0.069282695               0.292124999               0.000000000               0.075473506               0.315222221               0.000000000               0.081664318               0.338319444               0.000000000               0.087855130               0.361416666               0.000000000               0.094045942               0.384513888               0.000000000               0.100236753               0.407611111               0.000000000               0.106427565               0.430708333               0.000000000               0.112618377               0.453805555               0.000000000               0.118809188               0.476902778               0.000000000               0.125000000               0.500000000               0.000000000               0.013036280               0.132359569               0.000000000               0.016127762               0.155337096               0.000000000               0.019219245               0.178314623               0.000000000               0.022310727               0.201292150               0.000000000               0.025402210               0.224269676               0.000000000               0.028493692               0.247247203               0.000000000               0.031585175               0.270224730               0.000000000               0.034676657               0.293202257               0.000000000               0.037768140               0.316179784               0.000000000               0.040859622               0.339157311               0.000000000               0.043951105               0.362134838               0.000000000               0.047042587               0.385112365               0.000000000               0.050134070               0.408089892               0.000000000               0.053225552               0.431067419               0.000000000               0.056317035               0.454044946               0.000000000               0.059408517               0.477022473               0.000000000               0.062500000               0.500000000               0.000000000               0.000000000               0.133000000               0.000000000               0.000000000               0.155937500               0.000000000               0.000000000               0.178875000               0.000000000               0.000000000               0.201812500               0.000000000               0.000000000               0.224750000               0.000000000               0.000000000               0.247687500               0.000000000               0.000000000               0.270625000               0.000000000               0.000000000               0.293562500               0.000000000               0.000000000               0.316500000               0.000000000               0.000000000               0.339437500               0.000000000               0.000000000               0.362375000               0.000000000               0.000000000               0.385312500               0.000000000               0.000000000               0.408250000               0.000000000               0.000000000               0.431187500               0.000000000               0.000000000               0.454125000               0.000000000               0.000000000               0.477062500               0.000000000               0.000000000               0.500000000               0.000000000               0.133000000               0.000000000               0.000000000               0.155937500               0.000000000               0.000000000               0.178875000               0.000000000               0.000000000               0.201812500               0.000000000               0.000000000               0.224750000               0.000000000               0.000000000               0.247687500               0.000000000               0.000000000               0.270625000               0.000000000               0.000000000               0.293562500               0.000000000               0.000000000               0.316500000               0.000000000               0.000000000               0.339437500               0.000000000               0.000000000               0.362375000               0.000000000               0.000000000               0.385312500               0.000000000               0.000000000               0.408250000               0.000000000               0.000000000               0.431187500               0.000000000               0.000000000               0.454125000               0.000000000               0.000000000               0.477062500               0.000000000               0.000000000               0.500000000               0.000000000               0.000000000               0.132359569              -0.013036280               0.000000000               0.155337096              -0.016127762               0.000000000               0.178314623              -0.019219245               0.000000000               0.201292150              -0.022310727               0.000000000               0.224269676              -0.025402210               0.000000000               0.247247203              -0.028493692               0.000000000               0.270224730              -0.031585175               0.000000000               0.293202257              -0.034676657               0.000000000               0.316179784              -0.037768140               0.000000000               0.339157311              -0.040859622               0.000000000               0.362134838              -0.043951105               0.000000000               0.385112365              -0.047042587               0.000000000               0.408089892              -0.050134070               0.000000000               0.431067419              -0.053225552               0.000000000               0.454044946              -0.056317035               0.000000000               0.477022473              -0.059408517               0.000000000               0.500000000              -0.062500000               0.000000000               0.130444442              -0.025947013               0.000000000               0.153541665              -0.032137825               0.000000000               0.176638887              -0.038328636               0.000000000               0.199736109              -0.044519448               0.000000000               0.222833332              -0.050710260               0.000000000               0.245930554              -0.056901071               0.000000000               0.269027776              -0.063091883               0.000000000               0.292124999              -0.069282695               0.000000000               0.315222221              -0.075473506               0.000000000               0.338319444              -0.081664318               0.000000000               0.361416666              -0.087855130               0.000000000               0.384513888              -0.094045942               0.000000000               0.407611111              -0.100236753               0.000000000               0.430708333              -0.106427565               0.000000000               0.453805555              -0.112618377               0.000000000               0.476902778              -0.118809188               0.000000000               0.500000000              -0.125000000               0.000000000               0.127273065              -0.038607862               0.000000000               0.150568498              -0.047913621               0.000000000               0.173863932              -0.057219379               0.000000000               0.197159365              -0.066525138               0.000000000               0.220454798              -0.075830897               0.000000000               0.243750232              -0.085136655               0.000000000               0.267045665              -0.094442414               0.000000000               0.290341099              -0.103748172               0.000000000               0.313636532              -0.113053931               0.000000000               0.336931966              -0.122359690               0.000000000               0.360227399              -0.131665448               0.000000000               0.383522833              -0.140971207               0.000000000               0.406818266              -0.150276966               0.000000000               0.430113700              -0.159582724               0.000000000               0.453409133              -0.168888483               0.000000000               0.476704567              -0.178194241               0.000000000               0.500000000              -0.187500000               0.000000000               0.122875978              -0.050896897               0.000000000               0.146446229              -0.063340840               0.000000000               0.170016481              -0.075784784               0.000000000               0.193586732              -0.088228728               0.000000000               0.217156983              -0.100672672               0.000000000               0.240727235              -0.113116616               0.000000000               0.264297486              -0.125560560               0.000000000               0.287867738              -0.138004504               0.000000000               0.311437989              -0.150448448               0.000000000               0.335008240              -0.162892392               0.000000000               0.358578492              -0.175336336               0.000000000               0.382148743              -0.187780280               0.000000000               0.405718994              -0.200224224               0.000000000               0.429289246              -0.212668168               0.000000000               0.452859497              -0.225112112               0.000000000               0.476429749              -0.237556056               0.000000000               0.500000000              -0.250000000               0.000000000               0.117295528              -0.062695766               0.000000000               0.141214558              -0.078308531               0.000000000               0.165133587              -0.093921295               0.000000000               0.189052617              -0.109534060               0.000000000               0.212971646              -0.125146824               0.000000000               0.236890676              -0.140759589               0.000000000               0.260809705              -0.156372354               0.000000000               0.284728735              -0.171985118               0.000000000               0.308647764              -0.187597883               0.000000000               0.332566794              -0.203210648               0.000000000               0.356485823              -0.218823412               0.000000000               0.380404853              -0.234436177               0.000000000               0.404323882              -0.250048941               0.000000000               0.428242912              -0.265661706               0.000000000               0.452161941              -0.281274471               0.000000000               0.476080971              -0.296887235               0.000000000               0.500000000              -0.312500000               0.000000000               0.110585458              -0.073890841               0.000000000               0.134923867              -0.092710163               0.000000000               0.159262276              -0.111529486               0.000000000               0.183600685              -0.130348808               0.000000000               0.207939094              -0.149168131               0.000000000               0.232277503              -0.167987453               0.000000000               0.256615912              -0.186806776               0.000000000               0.280954320              -0.205626098               0.000000000               0.305292729              -0.224445420               0.000000000               0.329631138              -0.243264743               0.000000000               0.353969547              -0.262084065               0.000000000               0.378307956              -0.280903388               0.000000000               0.402646365              -0.299722710               0.000000000               0.426984773              -0.318542033               0.000000000               0.451323182              -0.337361355               0.000000000               0.475661591              -0.356180678               0.000000000               0.500000000              -0.375000000               0.000000000               0.102810390              -0.084374307               0.000000000               0.127634741              -0.106444663               0.000000000               0.152459092              -0.128515018               0.000000000               0.177283442              -0.150585374               0.000000000               0.202107793              -0.172655730               0.000000000               0.226932143              -0.194726086               0.000000000               0.251756494              -0.216796442               0.000000000               0.276580845              -0.238866798               0.000000000               0.301405195              -0.260937153               0.000000000               0.326229546              -0.283007509               0.000000000               0.351053896              -0.305077865               0.000000000               0.375878247              -0.327148221               0.000000000               0.400702598              -0.349218577               0.000000000               0.425526948              -0.371288933               0.000000000               0.450351299              -0.393359288               0.000000000               0.475175649              -0.415429644               0.000000000               0.500000000              -0.437500000               0.000000000               0.094045202              -0.094045202               0.000000000               0.119417377              -0.119417377               0.000000000               0.144789552              -0.144789552               0.000000000               0.170161727              -0.170161727               0.000000000               0.195533901              -0.195533901               0.000000000               0.220906076              -0.220906076               0.000000000               0.246278251              -0.246278251               0.000000000               0.271650426              -0.271650426               0.000000000               0.297022601              -0.297022601               0.000000000               0.322394776              -0.322394776               0.000000000               0.347766951              -0.347766951               0.000000000               0.373139126              -0.373139126               0.000000000               0.398511300              -0.398511300               0.000000000               0.423883475              -0.423883475               0.000000000               0.449255650              -0.449255650               0.000000000               0.474627825              -0.474627825               0.000000000               0.500000000              -0.500000000               0.000000000               0.084374307              -0.102810390               0.000000000               0.106444663              -0.127634741               0.000000000               0.128515018              -0.152459092               0.000000000               0.150585374              -0.177283442               0.000000000               0.172655730              -0.202107793               0.000000000               0.194726086              -0.226932143               0.000000000               0.216796442              -0.251756494               0.000000000               0.238866798              -0.276580845               0.000000000               0.260937153              -0.301405195               0.000000000               0.283007509              -0.326229546               0.000000000               0.305077865              -0.351053896               0.000000000               0.327148221              -0.375878247               0.000000000               0.349218577              -0.400702598               0.000000000               0.371288933              -0.425526948               0.000000000               0.393359288              -0.450351299               0.000000000               0.415429644              -0.475175649               0.000000000               0.437500000              -0.500000000               0.000000000               0.073890841              -0.110585458               0.000000000               0.092710163              -0.134923867               0.000000000               0.111529486              -0.159262276               0.000000000               0.130348808              -0.183600685               0.000000000               0.149168131              -0.207939094               0.000000000               0.167987453              -0.232277503               0.000000000               0.186806776              -0.256615912               0.000000000               0.205626098              -0.280954320               0.000000000               0.224445420              -0.305292729               0.000000000               0.243264743              -0.329631138               0.000000000               0.262084065              -0.353969547               0.000000000               0.280903388              -0.378307956               0.000000000               0.299722710              -0.402646365               0.000000000               0.318542033              -0.426984773               0.000000000               0.337361355              -0.451323182               0.000000000               0.356180678              -0.475661591               0.000000000               0.375000000              -0.500000000               0.000000000               0.062695766              -0.117295528               0.000000000               0.078308531              -0.141214558               0.000000000               0.093921295              -0.165133587               0.000000000               0.109534060              -0.189052617               0.000000000               0.125146824              -0.212971646               0.000000000               0.140759589              -0.236890676               0.000000000               0.156372354              -0.260809705               0.000000000               0.171985118              -0.284728735               0.000000000               0.187597883              -0.308647764               0.000000000               0.203210648              -0.332566794               0.000000000               0.218823412              -0.356485823               0.000000000               0.234436177              -0.380404853               0.000000000               0.250048941              -0.404323882               0.000000000               0.265661706              -0.428242912               0.000000000               0.281274471              -0.452161941               0.000000000               0.296887235              -0.476080971               0.000000000               0.312500000              -0.500000000               0.000000000               0.050896897              -0.122875978               0.000000000               0.063340840              -0.146446229               0.000000000               0.075784784              -0.170016481               0.000000000               0.088228728              -0.193586732               0.000000000               0.100672672              -0.217156983               0.000000000               0.113116616              -0.240727235               0.000000000               0.125560560              -0.264297486               0.000000000               0.138004504              -0.287867738               0.000000000               0.150448448              -0.311437989               0.000000000               0.162892392              -0.335008240               0.000000000               0.175336336              -0.358578492               0.000000000               0.187780280              -0.382148743               0.000000000               0.200224224              -0.405718994               0.000000000               0.212668168              -0.429289246               0.000000000               0.225112112              -0.452859497               0.000000000               0.237556056              -0.476429749               0.000000000               0.250000000              -0.500000000               0.000000000               0.038607862              -0.127273065               0.000000000               0.047913621              -0.150568498               0.000000000               0.057219379              -0.173863932               0.000000000               0.066525138              -0.197159365               0.000000000               0.075830897              -0.220454798               0.000000000               0.085136655              -0.243750232               0.000000000               0.094442414              -0.267045665               0.000000000               0.103748172              -0.290341099               0.000000000               0.113053931              -0.313636532               0.000000000               0.122359690              -0.336931966               0.000000000               0.131665448              -0.360227399               0.000000000               0.140971207              -0.383522833               0.000000000               0.150276966              -0.406818266               0.000000000               0.159582724              -0.430113700               0.000000000               0.168888483              -0.453409133               0.000000000               0.178194241              -0.476704567               0.000000000               0.187500000              -0.500000000               0.000000000               0.025947013              -0.130444442               0.000000000               0.032137825              -0.153541665               0.000000000               0.038328636              -0.176638887               0.000000000               0.044519448              -0.199736109               0.000000000               0.050710260              -0.222833332               0.000000000               0.056901071              -0.245930554               0.000000000               0.063091883              -0.269027776               0.000000000               0.069282695              -0.292124999               0.000000000               0.075473506              -0.315222221               0.000000000               0.081664318              -0.338319444               0.000000000               0.087855130              -0.361416666               0.000000000               0.094045942              -0.384513888               0.000000000               0.100236753              -0.407611111               0.000000000               0.106427565              -0.430708333               0.000000000               0.112618377              -0.453805555               0.000000000               0.118809188              -0.476902778               0.000000000               0.125000000              -0.500000000               0.000000000               0.013036280              -0.132359569               0.000000000               0.016127762              -0.155337096               0.000000000               0.019219245              -0.178314623               0.000000000               0.022310727              -0.201292150               0.000000000               0.025402210              -0.224269676               0.000000000               0.028493692              -0.247247203               0.000000000               0.031585175              -0.270224730               0.000000000               0.034676657              -0.293202257               0.000000000               0.037768140              -0.316179784               0.000000000               0.040859622              -0.339157311               0.000000000               0.043951105              -0.362134838               0.000000000               0.047042587              -0.385112365               0.000000000               0.050134070              -0.408089892               0.000000000               0.053225552              -0.431067419               0.000000000               0.056317035              -0.454044946               0.000000000               0.059408517              -0.477022473               0.000000000               0.062500000              -0.500000000               0.000000000               0.000000000              -0.133000000               0.000000000               0.000000000              -0.155937500               0.000000000               0.000000000              -0.178875000               0.000000000               0.000000000              -0.201812500               0.000000000               0.000000000              -0.224750000               0.000000000               0.000000000              -0.247687500               0.000000000               0.000000000              -0.270625000               0.000000000               0.000000000              -0.293562500               0.000000000               0.000000000              -0.316500000               0.000000000               0.000000000              -0.339437500               0.000000000               0.000000000              -0.362375000               0.000000000               0.000000000              -0.385312500               0.000000000               0.000000000              -0.408250000               0.000000000               0.000000000              -0.431187500               0.000000000               0.000000000              -0.454125000               0.000000000               0.000000000              -0.477062500               0.000000000               0.000000000              -0.500000000               0.000000000              -0.133000000               0.000000000               0.000000000              -0.155937500               0.000000000               0.000000000              -0.178875000               0.000000000               0.000000000              -0.201812500               0.000000000               0.000000000              -0.224750000               0.000000000               0.000000000              -0.247687500               0.000000000               0.000000000              -0.270625000               0.000000000               0.000000000              -0.293562500               0.000000000               0.000000000              -0.316500000               0.000000000               0.000000000              -0.339437500               0.000000000               0.000000000              -0.362375000               0.000000000               0.000000000              -0.385312500               0.000000000               0.000000000              -0.408250000               0.000000000               0.000000000              -0.431187500               0.000000000               0.000000000              -0.454125000               0.000000000               0.000000000              -0.477062500               0.000000000               0.000000000              -0.500000000               0.000000000               0.000000000              -0.132359569              -0.013036280               0.000000000              -0.155337096              -0.016127762               0.000000000              -0.178314623              -0.019219245               0.000000000              -0.201292150              -0.022310727               0.000000000              -0.224269676              -0.025402210               0.000000000              -0.247247203              -0.028493692               0.000000000              -0.270224730              -0.031585175               0.000000000              -0.293202257              -0.034676657               0.000000000              -0.316179784              -0.037768140               0.000000000              -0.339157311              -0.040859622               0.000000000              -0.362134838              -0.043951105               0.000000000              -0.385112365              -0.047042587               0.000000000              -0.408089892              -0.050134070               0.000000000              -0.431067419              -0.053225552               0.000000000              -0.454044946              -0.056317035               0.000000000              -0.477022473              -0.059408517               0.000000000              -0.500000000              -0.062500000               0.000000000              -0.130444442              -0.025947013               0.000000000              -0.153541665              -0.032137825               0.000000000              -0.176638887              -0.038328636               0.000000000              -0.199736109              -0.044519448               0.000000000              -0.222833332              -0.050710260               0.000000000              -0.245930554              -0.056901071               0.000000000              -0.269027776              -0.063091883               0.000000000              -0.292124999              -0.069282695               0.000000000              -0.315222221              -0.075473506               0.000000000              -0.338319444              -0.081664318               0.000000000              -0.361416666              -0.087855130               0.000000000              -0.384513888              -0.094045942               0.000000000              -0.407611111              -0.100236753               0.000000000              -0.430708333              -0.106427565               0.000000000              -0.453805555              -0.112618377               0.000000000              -0.476902778              -0.118809188               0.000000000              -0.500000000              -0.125000000               0.000000000              -0.127273065              -0.038607862               0.000000000              -0.150568498              -0.047913621               0.000000000              -0.173863932              -0.057219379               0.000000000              -0.197159365              -0.066525138               0.000000000              -0.220454798              -0.075830897               0.000000000              -0.243750232              -0.085136655               0.000000000              -0.267045665              -0.094442414               0.000000000              -0.290341099              -0.103748172               0.000000000              -0.313636532              -0.113053931               0.000000000              -0.336931966              -0.122359690               0.000000000              -0.360227399              -0.131665448               0.000000000              -0.383522833              -0.140971207               0.000000000              -0.406818266              -0.150276966               0.000000000              -0.430113700              -0.159582724               0.000000000              -0.453409133              -0.168888483               0.000000000              -0.476704567              -0.178194241               0.000000000              -0.500000000              -0.187500000               0.000000000              -0.122875978              -0.050896897               0.000000000              -0.146446229              -0.063340840               0.000000000              -0.170016481              -0.075784784               0.000000000              -0.193586732              -0.088228728               0.000000000              -0.217156983              -0.100672672               0.000000000              -0.240727235              -0.113116616               0.000000000              -0.264297486              -0.125560560               0.000000000              -0.287867738              -0.138004504               0.000000000              -0.311437989              -0.150448448               0.000000000              -0.335008240              -0.162892392               0.000000000              -0.358578492              -0.175336336               0.000000000              -0.382148743              -0.187780280               0.000000000              -0.405718994              -0.200224224               0.000000000              -0.429289246              -0.212668168               0.000000000              -0.452859497              -0.225112112               0.000000000              -0.476429749              -0.237556056               0.000000000              -0.500000000              -0.250000000               0.000000000              -0.117295528              -0.062695766               0.000000000              -0.141214558              -0.078308531               0.000000000              -0.165133587              -0.093921295               0.000000000              -0.189052617              -0.109534060               0.000000000              -0.212971646              -0.125146824               0.000000000              -0.236890676              -0.140759589               0.000000000              -0.260809705              -0.156372354               0.000000000              -0.284728735              -0.171985118               0.000000000              -0.308647764              -0.187597883               0.000000000              -0.332566794              -0.203210648               0.000000000              -0.356485823              -0.218823412               0.000000000              -0.380404853              -0.234436177               0.000000000              -0.404323882              -0.250048941               0.000000000              -0.428242912              -0.265661706               0.000000000              -0.452161941              -0.281274471               0.000000000              -0.476080971              -0.296887235               0.000000000              -0.500000000              -0.312500000               0.000000000              -0.110585458              -0.073890841               0.000000000              -0.134923867              -0.092710163               0.000000000              -0.159262276              -0.111529486               0.000000000              -0.183600685              -0.130348808               0.000000000              -0.207939094              -0.149168131               0.000000000              -0.232277503              -0.167987453               0.000000000              -0.256615912              -0.186806776               0.000000000              -0.280954320              -0.205626098               0.000000000              -0.305292729              -0.224445420               0.000000000              -0.329631138              -0.243264743               0.000000000              -0.353969547              -0.262084065               0.000000000              -0.378307956              -0.280903388               0.000000000              -0.402646365              -0.299722710               0.000000000              -0.426984773              -0.318542033               0.000000000              -0.451323182              -0.337361355               0.000000000              -0.475661591              -0.356180678               0.000000000              -0.500000000              -0.375000000               0.000000000              -0.102810390              -0.084374307               0.000000000              -0.127634741              -0.106444663               0.000000000              -0.152459092              -0.128515018               0.000000000              -0.177283442              -0.150585374               0.000000000              -0.202107793              -0.172655730               0.000000000              -0.226932143              -0.194726086               0.000000000              -0.251756494              -0.216796442               0.000000000              -0.276580845              -0.238866798               0.000000000              -0.301405195              -0.260937153               0.000000000              -0.326229546              -0.283007509               0.000000000              -0.351053896              -0.305077865               0.000000000              -0.375878247              -0.327148221               0.000000000              -0.400702598              -0.349218577               0.000000000              -0.425526948              -0.371288933               0.000000000              -0.450351299              -0.393359288               0.000000000              -0.475175649              -0.415429644               0.000000000              -0.500000000              -0.437500000               0.000000000              -0.094045202              -0.094045202               0.000000000              -0.119417377              -0.119417377               0.000000000              -0.144789552              -0.144789552               0.000000000              -0.170161727              -0.170161727               0.000000000              -0.195533901              -0.195533901               0.000000000              -0.220906076              -0.220906076               0.000000000              -0.246278251              -0.246278251               0.000000000              -0.271650426              -0.271650426               0.000000000              -0.297022601              -0.297022601               0.000000000              -0.322394776              -0.322394776               0.000000000              -0.347766951              -0.347766951               0.000000000              -0.373139126              -0.373139126               0.000000000              -0.398511300              -0.398511300               0.000000000              -0.423883475              -0.423883475               0.000000000              -0.449255650              -0.449255650               0.000000000              -0.474627825              -0.474627825               0.000000000              -0.500000000              -0.500000000               0.000000000              -0.084374307              -0.102810390               0.000000000              -0.106444663              -0.127634741               0.000000000              -0.128515018              -0.152459092               0.000000000              -0.150585374              -0.177283442               0.000000000              -0.172655730              -0.202107793               0.000000000              -0.194726086              -0.226932143               0.000000000              -0.216796442              -0.251756494               0.000000000              -0.238866798              -0.276580845               0.000000000              -0.260937153              -0.301405195               0.000000000              -0.283007509              -0.326229546               0.000000000              -0.305077865              -0.351053896               0.000000000              -0.327148221              -0.375878247               0.000000000              -0.349218577              -0.400702598               0.000000000              -0.371288933              -0.425526948               0.000000000              -0.393359288              -0.450351299               0.000000000              -0.415429644              -0.475175649               0.000000000              -0.437500000              -0.500000000               0.000000000              -0.073890841              -0.110585458               0.000000000              -0.092710163              -0.134923867               0.000000000              -0.111529486              -0.159262276               0.000000000              -0.130348808              -0.183600685               0.000000000              -0.149168131              -0.207939094               0.000000000              -0.167987453              -0.232277503               0.000000000              -0.186806776              -0.256615912               0.000000000              -0.205626098              -0.280954320               0.000000000              -0.224445420              -0.305292729               0.000000000              -0.243264743              -0.329631138               0.000000000              -0.262084065              -0.353969547               0.000000000              -0.280903388              -0.378307956               0.000000000              -0.299722710              -0.402646365               0.000000000              -0.318542033              -0.426984773               0.000000000              -0.337361355              -0.451323182               0.000000000              -0.356180678              -0.475661591               0.000000000              -0.375000000              -0.500000000               0.000000000              -0.062695766              -0.117295528               0.000000000              -0.078308531              -0.141214558               0.000000000              -0.093921295              -0.165133587               0.000000000              -0.109534060              -0.189052617               0.000000000              -0.125146824              -0.212971646               0.000000000              -0.140759589              -0.236890676               0.000000000              -0.156372354              -0.260809705               0.000000000              -0.171985118              -0.284728735               0.000000000              -0.187597883              -0.308647764               0.000000000              -0.203210648              -0.332566794               0.000000000              -0.218823412              -0.356485823               0.000000000              -0.234436177              -0.380404853               0.000000000              -0.250048941              -0.404323882               0.000000000              -0.265661706              -0.428242912               0.000000000              -0.281274471              -0.452161941               0.000000000              -0.296887235              -0.476080971               0.000000000              -0.312500000              -0.500000000               0.000000000              -0.050896897              -0.122875978               0.000000000              -0.063340840              -0.146446229               0.000000000              -0.075784784              -0.170016481               0.000000000              -0.088228728              -0.193586732               0.000000000              -0.100672672              -0.217156983               0.000000000              -0.113116616              -0.240727235               0.000000000              -0.125560560              -0.264297486               0.000000000              -0.138004504              -0.287867738               0.000000000              -0.150448448              -0.311437989               0.000000000              -0.162892392              -0.335008240               0.000000000              -0.175336336              -0.358578492               0.000000000              -0.187780280              -0.382148743               0.000000000              -0.200224224              -0.405718994               0.000000000              -0.212668168              -0.429289246               0.000000000              -0.225112112              -0.452859497               0.000000000              -0.237556056              -0.476429749               0.000000000              -0.250000000              -0.500000000               0.000000000              -0.038607862              -0.127273065               0.000000000              -0.047913621              -0.150568498               0.000000000              -0.057219379              -0.173863932               0.000000000              -0.066525138              -0.197159365               0.000000000              -0.075830897              -0.220454798               0.000000000              -0.085136655              -0.243750232               0.000000000              -0.094442414              -0.267045665               0.000000000              -0.103748172              -0.290341099               0.000000000              -0.113053931              -0.313636532               0.000000000              -0.122359690              -0.336931966               0.000000000              -0.131665448              -0.360227399               0.000000000              -0.140971207              -0.383522833               0.000000000              -0.150276966              -0.406818266               0.000000000              -0.159582724              -0.430113700               0.000000000              -0.168888483              -0.453409133               0.000000000              -0.178194241              -0.476704567               0.000000000              -0.187500000              -0.500000000               0.000000000              -0.025947013              -0.130444442               0.000000000              -0.032137825              -0.153541665               0.000000000              -0.038328636              -0.176638887               0.000000000              -0.044519448              -0.199736109               0.000000000              -0.050710260              -0.222833332               0.000000000              -0.056901071              -0.245930554               0.000000000              -0.063091883              -0.269027776               0.000000000              -0.069282695              -0.292124999               0.000000000              -0.075473506              -0.315222221               0.000000000              -0.081664318              -0.338319444               0.000000000              -0.087855130              -0.361416666               0.000000000              -0.094045942              -0.384513888               0.000000000              -0.100236753              -0.407611111               0.000000000              -0.106427565              -0.430708333               0.000000000              -0.112618377              -0.453805555               0.000000000              -0.118809188              -0.476902778               0.000000000              -0.125000000              -0.500000000               0.000000000              -0.013036280              -0.132359569               0.000000000              -0.016127762              -0.155337096               0.000000000              -0.019219245              -0.178314623               0.000000000              -0.022310727              -0.201292150               0.000000000              -0.025402210              -0.224269676               0.000000000              -0.028493692              -0.247247203               0.000000000              -0.031585175              -0.270224730               0.000000000              -0.034676657              -0.293202257               0.000000000              -0.037768140              -0.316179784               0.000000000              -0.040859622              -0.339157311               0.000000000              -0.043951105              -0.362134838               0.000000000              -0.047042587              -0.385112365               0.000000000              -0.050134070              -0.408089892               0.000000000              -0.053225552              -0.431067419               0.000000000              -0.056317035              -0.454044946               0.000000000              -0.059408517              -0.477022473               0.000000000              -0.062500000              -0.500000000               0.000000000               0.000000000              -0.133000000               0.000000000               0.000000000              -0.155937500               0.000000000               0.000000000              -0.178875000               0.000000000               0.000000000              -0.201812500               0.000000000               0.000000000              -0.224750000               0.000000000               0.000000000              -0.247687500               0.000000000               0.000000000              -0.270625000               0.000000000               0.000000000              -0.293562500               0.000000000               0.000000000              -0.316500000               0.000000000               0.000000000              -0.339437500               0.000000000               0.000000000              -0.362375000               0.000000000               0.000000000              -0.385312500               0.000000000               0.000000000              -0.408250000               0.000000000               0.000000000              -0.431187500               0.000000000               0.000000000              -0.454125000               0.000000000               0.000000000              -0.477062500               0.000000000               0.000000000              -0.500000000               0.000000000              -0.133000000               0.000000000               0.000000000              -0.155937500               0.000000000               0.000000000              -0.178875000               0.000000000               0.000000000              -0.201812500               0.000000000               0.000000000              -0.224750000               0.000000000               0.000000000              -0.247687500               0.000000000               0.000000000              -0.270625000               0.000000000               0.000000000              -0.293562500               0.000000000               0.000000000              -0.316500000               0.000000000               0.000000000              -0.339437500               0.000000000               0.000000000              -0.362375000               0.000000000               0.000000000              -0.385312500               0.000000000               0.000000000              -0.408250000               0.000000000               0.000000000              -0.431187500               0.000000000               0.000000000              -0.454125000               0.000000000               0.000000000              -0.477062500               0.000000000               0.000000000              -0.500000000               0.000000000               0.000000000              -0.132359569               0.013036280               0.000000000              -0.155337096               0.016127762               0.000000000              -0.178314623               0.019219245               0.000000000              -0.201292150               0.022310727               0.000000000              -0.224269676               0.025402210               0.000000000              -0.247247203               0.028493692               0.000000000              -0.270224730               0.031585175               0.000000000              -0.293202257               0.034676657               0.000000000              -0.316179784               0.037768140               0.000000000              -0.339157311               0.040859622               0.000000000              -0.362134838               0.043951105               0.000000000              -0.385112365               0.047042587               0.000000000              -0.408089892               0.050134070               0.000000000              -0.431067419               0.053225552               0.000000000              -0.454044946               0.056317035               0.000000000              -0.477022473               0.059408517               0.000000000              -0.500000000               0.062500000               0.000000000              -0.130444442               0.025947013               0.000000000              -0.153541665               0.032137825               0.000000000              -0.176638887               0.038328636               0.000000000              -0.199736109               0.044519448               0.000000000              -0.222833332               0.050710260               0.000000000              -0.245930554               0.056901071               0.000000000              -0.269027776               0.063091883               0.000000000              -0.292124999               0.069282695               0.000000000              -0.315222221               0.075473506               0.000000000              -0.338319444               0.081664318               0.000000000              -0.361416666               0.087855130               0.000000000              -0.384513888               0.094045942               0.000000000              -0.407611111               0.100236753               0.000000000              -0.430708333               0.106427565               0.000000000              -0.453805555               0.112618377               0.000000000              -0.476902778               0.118809188               0.000000000              -0.500000000               0.125000000               0.000000000              -0.127273065               0.038607862               0.000000000              -0.150568498               0.047913621               0.000000000              -0.173863932               0.057219379               0.000000000              -0.197159365               0.066525138               0.000000000              -0.220454798               0.075830897               0.000000000              -0.243750232               0.085136655               0.000000000              -0.267045665               0.094442414               0.000000000              -0.290341099               0.103748172               0.000000000              -0.313636532               0.113053931               0.000000000              -0.336931966               0.122359690               0.000000000              -0.360227399               0.131665448               0.000000000              -0.383522833               0.140971207               0.000000000              -0.406818266               0.150276966               0.000000000              -0.430113700               0.159582724               0.000000000              -0.453409133               0.168888483               0.000000000              -0.476704567               0.178194241               0.000000000              -0.500000000               0.187500000               0.000000000              -0.122875978               0.050896897               0.000000000              -0.146446229               0.063340840               0.000000000              -0.170016481               0.075784784               0.000000000              -0.193586732               0.088228728               0.000000000              -0.217156983               0.100672672               0.000000000              -0.240727235               0.113116616               0.000000000              -0.264297486               0.125560560               0.000000000              -0.287867738               0.138004504               0.000000000              -0.311437989               0.150448448               0.000000000              -0.335008240               0.162892392               0.000000000              -0.358578492               0.175336336               0.000000000              -0.382148743               0.187780280               0.000000000              -0.405718994               0.200224224               0.000000000              -0.429289246               0.212668168               0.000000000              -0.452859497               0.225112112               0.000000000              -0.476429749               0.237556056               0.000000000              -0.500000000               0.250000000               0.000000000              -0.117295528               0.062695766               0.000000000              -0.141214558               0.078308531               0.000000000              -0.165133587               0.093921295               0.000000000              -0.189052617               0.109534060               0.000000000              -0.212971646               0.125146824               0.000000000              -0.236890676               0.140759589               0.000000000              -0.260809705               0.156372354               0.000000000              -0.284728735               0.171985118               0.000000000              -0.308647764               0.187597883               0.000000000              -0.332566794               0.203210648               0.000000000              -0.356485823               0.218823412               0.000000000              -0.380404853               0.234436177               0.000000000              -0.404323882               0.250048941               0.000000000              -0.428242912               0.265661706               0.000000000              -0.452161941               0.281274471               0.000000000              -0.476080971               0.296887235               0.000000000              -0.500000000               0.312500000               0.000000000              -0.110585458               0.073890841               0.000000000              -0.134923867               0.092710163               0.000000000              -0.159262276               0.111529486               0.000000000              -0.183600685               0.130348808               0.000000000              -0.207939094               0.149168131               0.000000000              -0.232277503               0.167987453               0.000000000              -0.256615912               0.186806776               0.000000000              -0.280954320               0.205626098               0.000000000              -0.305292729               0.224445420               0.000000000              -0.329631138               0.243264743               0.000000000              -0.353969547               0.262084065               0.000000000              -0.378307956               0.280903388               0.000000000              -0.402646365               0.299722710               0.000000000              -0.426984773               0.318542033               0.000000000              -0.451323182               0.337361355               0.000000000              -0.475661591               0.356180678               0.000000000              -0.500000000               0.375000000               0.000000000              -0.102810390               0.084374307               0.000000000              -0.127634741               0.106444663               0.000000000              -0.152459092               0.128515018               0.000000000              -0.177283442               0.150585374               0.000000000              -0.202107793               0.172655730               0.000000000              -0.226932143               0.194726086               0.000000000              -0.251756494               0.216796442               0.000000000              -0.276580845               0.238866798               0.000000000              -0.301405195               0.260937153               0.000000000              -0.326229546               0.283007509               0.000000000              -0.351053896               0.305077865               0.000000000              -0.375878247               0.327148221               0.000000000              -0.400702598               0.349218577               0.000000000              -0.425526948               0.371288933               0.000000000              -0.450351299               0.393359288               0.000000000              -0.475175649               0.415429644               0.000000000              -0.500000000               0.437500000               0.000000000              -0.094045202               0.094045202               0.000000000              -0.119417377               0.119417377               0.000000000              -0.144789552               0.144789552               0.000000000              -0.170161727               0.170161727               0.000000000              -0.195533901               0.195533901               0.000000000              -0.220906076               0.220906076               0.000000000              -0.246278251               0.246278251               0.000000000              -0.271650426               0.271650426               0.000000000              -0.297022601               0.297022601               0.000000000              -0.322394776               0.322394776               0.000000000              -0.347766951               0.347766951               0.000000000              -0.373139126               0.373139126               0.000000000              -0.398511300               0.398511300               0.000000000              -0.423883475               0.423883475               0.000000000              -0.449255650               0.449255650               0.000000000              -0.474627825               0.474627825               0.000000000              -0.500000000               0.500000000               0.000000000              -0.084374307               0.102810390               0.000000000              -0.106444663               0.127634741               0.000000000              -0.128515018               0.152459092               0.000000000              -0.150585374               0.177283442               0.000000000              -0.172655730               0.202107793               0.000000000              -0.194726086               0.226932143               0.000000000              -0.216796442               0.251756494               0.000000000              -0.238866798               0.276580845               0.000000000              -0.260937153               0.301405195               0.000000000              -0.283007509               0.326229546               0.000000000              -0.305077865               0.351053896               0.000000000              -0.327148221               0.375878247               0.000000000              -0.349218577               0.400702598               0.000000000              -0.371288933               0.425526948               0.000000000              -0.393359288               0.450351299               0.000000000              -0.415429644               0.475175649               0.000000000              -0.437500000               0.500000000               0.000000000              -0.073890841               0.110585458               0.000000000              -0.092710163               0.134923867               0.000000000              -0.111529486               0.159262276               0.000000000              -0.130348808               0.183600685               0.000000000              -0.149168131               0.207939094               0.000000000              -0.167987453               0.232277503               0.000000000              -0.186806776               0.256615912               0.000000000              -0.205626098               0.280954320               0.000000000              -0.224445420               0.305292729               0.000000000              -0.243264743               0.329631138               0.000000000              -0.262084065               0.353969547               0.000000000              -0.280903388               0.378307956               0.000000000              -0.299722710               0.402646365               0.000000000              -0.318542033               0.426984773               0.000000000              -0.337361355               0.451323182               0.000000000              -0.356180678               0.475661591               0.000000000              -0.375000000               0.500000000               0.000000000              -0.062695766               0.117295528               0.000000000              -0.078308531               0.141214558               0.000000000              -0.093921295               0.165133587               0.000000000              -0.109534060               0.189052617               0.000000000              -0.125146824               0.212971646               0.000000000              -0.140759589               0.236890676               0.000000000              -0.156372354               0.260809705               0.000000000              -0.171985118               0.284728735               0.000000000              -0.187597883               0.308647764               0.000000000              -0.203210648               0.332566794               0.000000000              -0.218823412               0.356485823               0.000000000              -0.234436177               0.380404853               0.000000000              -0.250048941               0.404323882               0.000000000              -0.265661706               0.428242912               0.000000000              -0.281274471               0.452161941               0.000000000              -0.296887235               0.476080971               0.000000000              -0.312500000               0.500000000               0.000000000              -0.050896897               0.122875978               0.000000000              -0.063340840               0.146446229               0.000000000              -0.075784784               0.170016481               0.000000000              -0.088228728               0.193586732               0.000000000              -0.100672672               0.217156983               0.000000000              -0.113116616               0.240727235               0.000000000              -0.125560560               0.264297486               0.000000000              -0.138004504               0.287867738               0.000000000              -0.150448448               0.311437989               0.000000000              -0.162892392               0.335008240               0.000000000              -0.175336336               0.358578492               0.000000000              -0.187780280               0.382148743               0.000000000              -0.200224224               0.405718994               0.000000000              -0.212668168               0.429289246               0.000000000              -0.225112112               0.452859497               0.000000000              -0.237556056               0.476429749               0.000000000              -0.250000000               0.500000000               0.000000000              -0.038607862               0.127273065               0.000000000              -0.047913621               0.150568498               0.000000000              -0.057219379               0.173863932               0.000000000              -0.066525138               0.197159365               0.000000000              -0.075830897               0.220454798               0.000000000              -0.085136655               0.243750232               0.000000000              -0.094442414               0.267045665               0.000000000              -0.103748172               0.290341099               0.000000000              -0.113053931               0.313636532               0.000000000              -0.122359690               0.336931966               0.000000000              -0.131665448               0.360227399               0.000000000              -0.140971207               0.383522833               0.000000000              -0.150276966               0.406818266               0.000000000              -0.159582724               0.430113700               0.000000000              -0.168888483               0.453409133               0.000000000              -0.178194241               0.476704567               0.000000000              -0.187500000               0.500000000               0.000000000              -0.025947013               0.130444442               0.000000000              -0.032137825               0.153541665               0.000000000              -0.038328636               0.176638887               0.000000000              -0.044519448               0.199736109               0.000000000              -0.050710260               0.222833332               0.000000000              -0.056901071               0.245930554               0.000000000              -0.063091883               0.269027776               0.000000000              -0.069282695               0.292124999               0.000000000              -0.075473506               0.315222221               0.000000000              -0.081664318               0.338319444               0.000000000              -0.087855130               0.361416666               0.000000000              -0.094045942               0.384513888               0.000000000              -0.100236753               0.407611111               0.000000000              -0.106427565               0.430708333               0.000000000              -0.112618377               0.453805555               0.000000000              -0.118809188               0.476902778               0.000000000              -0.125000000               0.500000000               0.000000000              -0.013036280               0.132359569               0.000000000              -0.016127762               0.155337096               0.000000000              -0.019219245               0.178314623               0.000000000              -0.022310727               0.201292150               0.000000000              -0.025402210               0.224269676               0.000000000              -0.028493692               0.247247203               0.000000000              -0.031585175               0.270224730               0.000000000              -0.034676657               0.293202257               0.000000000              -0.037768140               0.316179784               0.000000000              -0.040859622               0.339157311               0.000000000              -0.043951105               0.362134838               0.000000000              -0.047042587               0.385112365               0.000000000              -0.050134070               0.408089892               0.000000000              -0.053225552               0.431067419               0.000000000              -0.056317035               0.454044946               0.000000000              -0.059408517               0.477022473               0.000000000              -0.062500000               0.500000000               0.000000000               0.000000000               0.133000000               0.000000000               0.000000000               0.155937500               0.000000000               0.000000000               0.178875000               0.000000000               0.000000000               0.201812500               0.000000000               0.000000000               0.224750000               0.000000000               0.000000000               0.247687500               0.000000000               0.000000000               0.270625000               0.000000000               0.000000000               0.293562500               0.000000000               0.000000000               0.316500000               0.000000000               0.000000000               0.339437500               0.000000000               0.000000000               0.362375000               0.000000000               0.000000000               0.385312500               0.000000000               0.000000000               0.408250000               0.000000000               0.000000000               0.431187500               0.000000000               0.000000000               0.454125000               0.000000000               0.000000000               0.477062500               0.000000000               0.000000000               0.500000000               0.000000000 </DataArray>
</Points>
<Cells>
<DataArray type="Int32"                                    Name="connectivity"                                                      NumberOfComponents=" 1" format="ascii">
         0          1         18         17          1          2         19         18          2          3         20         19          3          4         21         20          4          5         22         21          5          6         23         22          6          7         24         23          7          8         25         24          8          9         26         25          9         10         27         26         10         11         28         27         11         12         29         28         12         13         30         29         13         14         31         30         14         15         32         31         15         16         33         32         17         18         35         34         18         19         36         35         19         20         37         36         20         21         38         37         21         22         39         38         22         23         40         39         23         24         41         40         24         25         42         41         25         26         43         42         26         27         44         43         27         28         45         44         28         29         46         45         29         30         47         46         30         31         48         47         31         32         49         48         32         33         50         49         34         35         52         51         35         36         53         52         36         37         54         53         37         38         55         54         38         39         56         55         39         40         57         56         40         41         58         57         41         42         59         58         42         43         60         59         43         44         61         60         44         45         62         61         45         46         63         62         46         47         64         63         47         48         65         64         48         49         66         65         49         50         67         66         51         52         69         68         52         53         70         69         53         54         71         70         54         55         72         71         55         56         73         72         56         57         74         73         57         58         75         74         58         59         76         75         59         60         77         76         60         61         78         77         61         62         79         78         62         63         80         79         63         64         81         80         64         65         82         81         65         66         83         82         66         67         84         83         68         69         86         85         69         70         87         86         70         71         88         87         71         72         89         88         72         73         90         89         73         74         91         90         74         75         92         91         75         76         93         92         76         77         94         93         77         78         95         94         78         79         96         95         79         80         97         96         80         81         98         97         81         82         99         98         82         83        100         99         83         84        101        100         85         86        103        102         86         87        104        103         87         88        105        104         88         89        106        105         89         90        107        106         90         91        108        107         91         92        109        108         92         93        110        109         93         94        111        110         94         95        112        111         95         96        113        112         96         97        114        113         97         98        115        114         98         99        116        115         99        100        117        116        100        101        118        117        102        103        120        119        103        104        121        120        104        105        122        121        105        106        123        122        106        107        124        123        107        108        125        124        108        109        126        125        109        110        127        126        110        111        128        127        111        112        129        128        112        113        130        129        113        114        131        130        114        115        132        131        115        116        133        132        116        117        134        133        117        118        135        134        119        120        137        136        120        121        138        137        121        122        139        138        122        123        140        139        123        124        141        140        124        125        142        141        125        126        143        142        126        127        144        143        127        128        145        144        128        129        146        145        129        130        147        146        130        131        148        147        131        132        149        148        132        133        150        149        133        134        151        150        134        135        152        151        136        137        154        153        137        138        155        154        138        139        156        155        139        140        157        156        140        141        158        157        141        142        159        158        142        143        160        159        143        144        161        160        144        145        162        161        145        146        163        162        146        147        164        163        147        148        165        164        148        149        166        165        149        150        167        166        150        151        168        167        151        152        169        168        153        154        171        170        154        155        172        171        155        156        173        172        156        157        174        173        157        158        175        174        158        159        176        175        159        160        177        176        160        161        178        177        161        162        179        178        162        163        180        179        163        164        181        180        164        165        182        181        165        166        183        182        166        167        184        183        167        168        185        184        168        169        186        185        170        171        188        187        171        172        189        188        172        173        190        189        173        174        191        190        174        175        192        191        175        176        193        192        176        177        194        193        177        178        195        194        178        179        196        195        179        180        197        196        180        181        198        197        181        182        199        198        182        183        200        199        183        184        201        200        184        185        202        201        185        186        203        202        187        188        205        204        188        189        206        205        189        190        207        206        190        191        208        207        191        192        209        208        192        193        210        209        193        194        211        210        194        195        212        211        195        196        213        212        196        197        214        213        197        198        215        214        198        199        216        215        199        200        217        216        200        201        218        217        201        202        219        218        202        203        220        219        204        205        222        221        205        206        223        222        206        207        224        223        207        208        225        224        208        209        226        225        209        210        227        226        210        211        228        227        211        212        229        228        212        213        230        229        213        214        231        230        214        215        232        231        215        216        233        232        216        217        234        233        217        218        235        234        218        219        236        235        219        220        237        236        221        222        239        238        222        223        240        239        223        224        241        240        224        225        242        241        225        226        243        242        226        227        244        243        227        228        245        244        228        229        246        245        229        230        247        246        230        231        248        247        231        232        249        248        232        233        250        249        233        234        251        250        234        235        252        251        235        236        253        252        236        237        254        253        238        239        256        255        239        240        257        256        240        241        258        257        241        242        259        258        242        243        260        259        243        244        261        260        244        245        262        261        245        246        263        262        246        247        264        263        247        248        265        264        248        249        266        265        249        250        267        266        250        251        268        267        251        252        269        268        252        253        270        269        253        254        271        270        255        256        273        272        256        257        274        273        257        258        275        274        258        259        276        275        259        260        277        276        260        261        278        277        261        262        279        278        262        263        280        279        263        264        281        280        264        265        282        281        265        266        283        282        266        267        284        283        267        268        285        284        268        269        286        285        269        270        287        286        270        271        288        287        306        307          1          0        307        308          2          1        308        309          3          2        309        310          4          3        310        311          5          4        311        312          6          5        312        313          7          6        313        314          8          7        314        315          9          8        315        316         10          9        316        317         11         10        317        318         12         11        318        319         13         12        319        320         14         13        320        321         15         14        321        322         16         15        323        324        307        306        324        325        308        307        325        326        309        308        326        327        310        309        327        328        311        310        328        329        312        311        329        330        313        312        330        331        314        313        331        332        315        314        332        333        316        315        333        334        317        316        334        335        318        317        335        336        319        318        336        337        320        319        337        338        321        320        338        339        322        321        340        341        324        323        341        342        325        324        342        343        326        325        343        344        327        326        344        345        328        327        345        346        329        328        346        347        330        329        347        348        331        330        348        349        332        331        349        350        333        332        350        351        334        333        351        352        335        334        352        353        336        335        353        354        337        336        354        355        338        337        355        356        339        338        357        358        341        340        358        359        342        341        359        360        343        342        360        361        344        343        361        362        345        344        362        363        346        345        363        364        347        346        364        365        348        347        365        366        349        348        366        367        350        349        367        368        351        350        368        369        352        351        369        370        353        352        370        371        354        353        371        372        355        354        372        373        356        355        374        375        358        357        375        376        359        358        376        377        360        359        377        378        361        360        378        379        362        361        379        380        363        362        380        381        364        363        381        382        365        364        382        383        366        365        383        384        367        366        384        385        368        367        385        386        369        368        386        387        370        369        387        388        371        370        388        389        372        371        389        390        373        372        391        392        375        374        392        393        376        375        393        394        377        376        394        395        378        377        395        396        379        378        396        397        380        379        397        398        381        380        398        399        382        381        399        400        383        382        400        401        384        383        401        402        385        384        402        403        386        385        403        404        387        386        404        405        388        387        405        406        389        388        406        407        390        389        408        409        392        391        409        410        393        392        410        411        394        393        411        412        395        394        412        413        396        395        413        414        397        396        414        415        398        397        415        416        399        398        416        417        400        399        417        418        401        400        418        419        402        401        419        420        403        402        420        421        404        403        421        422        405        404        422        423        406        405        423        424        407        406        425        426        409        408        426        427        410        409        427        428        411        410        428        429        412        411        429        430        413        412        430        431        414        413        431        432        415        414        432        433        416        415        433        434        417        416        434        435        418        417        435        436        419        418        436        437        420        419        437        438        421        420        438        439        422        421        439        440        423        422        440        441        424        423        442        443        426        425        443        444        427        426        444        445        428        427        445        446        429        428        446        447        430        429        447        448        431        430        448        449        432        431        449        450        433        432        450        451        434        433        451        452        435        434        452        453        436        435        453        454        437        436        454        455        438        437        455        456        439        438        456        457        440        439        457        458        441        440        459        460        443        442        460        461        444        443        461        462        445        444        462        463        446        445        463        464        447        446        464        465        448        447        465        466        449        448        466        467        450        449        467        468        451        450        468        469        452        451        469        470        453        452        470        471        454        453        471        472        455        454        472        473        456        455        473        474        457        456        474        475        458        457        476        477        460        459        477        478        461        460        478        479        462        461        479        480        463        462        480        481        464        463        481        482        465        464        482        483        466        465        483        484        467        466        484        485        468        467        485        486        469        468        486        487        470        469        487        488        471        470        488        489        472        471        489        490        473        472        490        491        474        473        491        492        475        474        493        494        477        476        494        495        478        477        495        496        479        478        496        497        480        479        497        498        481        480        498        499        482        481        499        500        483        482        500        501        484        483        501        502        485        484        502        503        486        485        503        504        487        486        504        505        488        487        505        506        489        488        506        507        490        489        507        508        491        490        508        509        492        491        510        511        494        493        511        512        495        494        512        513        496        495        513        514        497        496        514        515        498        497        515        516        499        498        516        517        500        499        517        518        501        500        518        519        502        501        519        520        503        502        520        521        504        503        521        522        505        504        522        523        506        505        523        524        507        506        524        525        508        507        525        526        509        508        527        528        511        510        528        529        512        511        529        530        513        512        530        531        514        513        531        532        515        514        532        533        516        515        533        534        517        516        534        535        518        517        535        536        519        518        536        537        520        519        537        538        521        520        538        539        522        521        539        540        523        522        540        541        524        523        541        542        525        524        542        543        526        525        544        545        528        527        545        546        529        528        546        547        530        529        547        548        531        530        548        549        532        531        549        550        533        532        550        551        534        533        551        552        535        534        552        553        536        535        553        554        537        536        554        555        538        537        555        556        539        538        556        557        540        539        557        558        541        540        558        559        542        541        559        560        543        542        561        562        545        544        562        563        546        545        563        564        547        546        564        565        548        547        565        566        549        548        566        567        550        549        567        568        551        550        568        569        552        551        569        570        553        552        570        571        554        553        571        572        555        554        572        573        556        555        573        574        557        556        574        575        558        557        575        576        559        558        576        577        560        559        578        579        596        595        579        580        597        596        580        581        598        597        581        582        599        598        582        583        600        599        583        584        601        600        584        585        602        601        585        586        603        602        586        587        604        603        587        588        605        604        588        589        606        605        589        590        607        606        590        591        608        607        591        592        609        608        592        593        610        609        593        594        611        610        595        596        613        612        596        597        614        613        597        598        615        614        598        599        616        615        599        600        617        616        600        601        618        617        601        602        619        618        602        603        620        619        603        604        621        620        604        605        622        621        605        606        623        622        606        607        624        623        607        608        625        624        608        609        626        625        609        610        627        626        610        611        628        627        612        613        630        629        613        614        631        630        614        615        632        631        615        616        633        632        616        617        634        633        617        618        635        634        618        619        636        635        619        620        637        636        620        621        638        637        621        622        639        638        622        623        640        639        623        624        641        640        624        625        642        641        625        626        643        642        626        627        644        643        627        628        645        644        629        630        647        646        630        631        648        647        631        632        649        648        632        633        650        649        633        634        651        650        634        635        652        651        635        636        653        652        636        637        654        653        637        638        655        654        638        639        656        655        639        640        657        656        640        641        658        657        641        642        659        658        642        643        660        659        643        644        661        660        644        645        662        661        646        647        664        663        647        648        665        664        648        649        666        665        649        650        667        666        650        651        668        667        651        652        669        668        652        653        670        669        653        654        671        670        654        655        672        671        655        656        673        672        656        657        674        673        657        658        675        674        658        659        676        675        659        660        677        676        660        661        678        677        661        662        679        678        663        664        681        680        664        665        682        681        665        666        683        682        666        667        684        683        667        668        685        684        668        669        686        685        669        670        687        686        670        671        688        687        671        672        689        688        672        673        690        689        673        674        691        690        674        675        692        691        675        676        693        692        676        677        694        693        677        678        695        694        678        679        696        695        680        681        698        697        681        682        699        698        682        683        700        699        683        684        701        700        684        685        702        701        685        686        703        702        686        687        704        703        687        688        705        704        688        689        706        705        689        690        707        706        690        691        708        707        691        692        709        708        692        693        710        709        693        694        711        710        694        695        712        711        695        696        713        712        697        698        715        714        698        699        716        715        699        700        717        716        700        701        718        717        701        702        719        718        702        703        720        719        703        704        721        720        704        705        722        721        705        706        723        722        706        707        724        723        707        708        725        724        708        709        726        725        709        710        727        726        710        711        728        727        711        712        729        728        712        713        730        729        714        715        732        731        715        716        733        732        716        717        734        733        717        718        735        734        718        719        736        735        719        720        737        736        720        721        738        737        721        722        739        738        722        723        740        739        723        724        741        740        724        725        742        741        725        726        743        742        726        727        744        743        727        728        745        744        728        729        746        745        729        730        747        746        731        732        749        748        732        733        750        749        733        734        751        750        734        735        752        751        735        736        753        752        736        737        754        753        737        738        755        754        738        739        756        755        739        740        757        756        740        741        758        757        741        742        759        758        742        743        760        759        743        744        761        760        744        745        762        761        745        746        763        762        746        747        764        763        748        749        766        765        749        750        767        766        750        751        768        767        751        752        769        768        752        753        770        769        753        754        771        770        754        755        772        771        755        756        773        772        756        757        774        773        757        758        775        774        758        759        776        775        759        760        777        776        760        761        778        777        761        762        779        778        762        763        780        779        763        764        781        780        765        766        783        782        766        767        784        783        767        768        785        784        768        769        786        785        769        770        787        786        770        771        788        787        771        772        789        788        772        773        790        789        773        774        791        790        774        775        792        791        775        776        793        792        776        777        794        793        777        778        795        794        778        779        796        795        779        780        797        796        780        781        798        797        782        783        800        799        783        784        801        800        784        785        802        801        785        786        803        802        786        787        804        803        787        788        805        804        788        789        806        805        789        790        807        806        790        791        808        807        791        792        809        808        792        793        810        809        793        794        811        810        794        795        812        811        795        796        813        812        796        797        814        813        797        798        815        814        799        800        817        816        800        801        818        817        801        802        819        818        802        803        820        819        803        804        821        820        804        805        822        821        805        806        823        822        806        807        824        823        807        808        825        824        808        809        826        825        809        810        827        826        810        811        828        827        811        812        829        828        812        813        830        829        813        814        831        830        814        815        832        831        816        817        834        833        817        818        835        834        818        819        836        835        819        820        837        836        820        821        838        837        821        822        839        838        822        823        840        839        823        824        841        840        824        825        842        841        825        826        843        842        826        827        844        843        827        828        845        844        828        829        846        845        829        830        847        846        830        831        848        847        831        832        849        848        833        834        562        561        834        835        563        562        835        836        564        563        836        837        565        564        837        838        566        565        838        839        567        566        839        840        568        567        840        841        569        568        841        842        570        569        842        843        571        570        843        844        572        571        844        845        573        572        845        846        574        573        846        847        575        574        847        848        576        575        848        849        577        576        884        885        579        578        885        886        580        579        886        887        581        580        887        888        582        581        888        889        583        582        889        890        584        583        890        891        585        584        891        892        586        585        892        893        587        586        893        894        588        587        894        895        589        588        895        896        590        589        896        897        591        590        897        898        592        591        898        899        593        592        899        900        594        593        901        902        885        884        902        903        886        885        903        904        887        886        904        905        888        887        905        906        889        888        906        907        890        889        907        908        891        890        908        909        892        891        909        910        893        892        910        911        894        893        911        912        895        894        912        913        896        895        913        914        897        896        914        915        898        897        915        916        899        898        916        917        900        899        918        919        902        901        919        920        903        902        920        921        904        903        921        922        905        904        922        923        906        905        923        924        907        906        924        925        908        907        925        926        909        908        926        927        910        909        927        928        911        910        928        929        912        911        929        930        913        912        930        931        914        913        931        932        915        914        932        933        916        915        933        934        917        916        935        936        919        918        936        937        920        919        937        938        921        920        938        939        922        921        939        940        923        922        940        941        924        923        941        942        925        924        942        943        926        925        943        944        927        926        944        945        928        927        945        946        929        928        946        947        930        929        947        948        931        930        948        949        932        931        949        950        933        932        950        951        934        933        952        953        936        935        953        954        937        936        954        955        938        937        955        956        939        938        956        957        940        939        957        958        941        940        958        959        942        941        959        960        943        942        960        961        944        943        961        962        945        944        962        963        946        945        963        964        947        946        964        965        948        947        965        966        949        948        966        967        950        949        967        968        951        950        969        970        953        952        970        971        954        953        971        972        955        954        972        973        956        955        973        974        957        956        974        975        958        957        975        976        959        958        976        977        960        959        977        978        961        960        978        979        962        961        979        980        963        962        980        981        964        963        981        982        965        964        982        983        966        965        983        984        967        966        984        985        968        967        986        987        970        969        987        988        971        970        988        989        972        971        989        990        973        972        990        991        974        973        991        992        975        974        992        993        976        975        993        994        977        976        994        995        978        977        995        996        979        978        996        997        980        979        997        998        981        980        998        999        982        981        999       1000        983        982       1000       1001        984        983       1001       1002        985        984       1003       1004        987        986       1004       1005        988        987       1005       1006        989        988       1006       1007        990        989       1007       1008        991        990       1008       1009        992        991       1009       1010        993        992       1010       1011        994        993       1011       1012        995        994       1012       1013        996        995       1013       1014        997        996       1014       1015        998        997       1015       1016        999        998       1016       1017       1000        999       1017       1018       1001       1000       1018       1019       1002       1001       1020       1021       1004       1003       1021       1022       1005       1004       1022       1023       1006       1005       1023       1024       1007       1006       1024       1025       1008       1007       1025       1026       1009       1008       1026       1027       1010       1009       1027       1028       1011       1010       1028       1029       1012       1011       1029       1030       1013       1012       1030       1031       1014       1013       1031       1032       1015       1014       1032       1033       1016       1015       1033       1034       1017       1016       1034       1035       1018       1017       1035       1036       1019       1018       1037       1038       1021       1020       1038       1039       1022       1021       1039       1040       1023       1022       1040       1041       1024       1023       1041       1042       1025       1024       1042       1043       1026       1025       1043       1044       1027       1026       1044       1045       1028       1027       1045       1046       1029       1028       1046       1047       1030       1029       1047       1048       1031       1030       1048       1049       1032       1031       1049       1050       1033       1032       1050       1051       1034       1033       1051       1052       1035       1034       1052       1053       1036       1035       1054       1055       1038       1037       1055       1056       1039       1038       1056       1057       1040       1039       1057       1058       1041       1040       1058       1059       1042       1041       1059       1060       1043       1042       1060       1061       1044       1043       1061       1062       1045       1044       1062       1063       1046       1045       1063       1064       1047       1046       1064       1065       1048       1047       1065       1066       1049       1048       1066       1067       1050       1049       1067       1068       1051       1050       1068       1069       1052       1051       1069       1070       1053       1052       1071       1072       1055       1054       1072       1073       1056       1055       1073       1074       1057       1056       1074       1075       1058       1057       1075       1076       1059       1058       1076       1077       1060       1059       1077       1078       1061       1060       1078       1079       1062       1061       1079       1080       1063       1062       1080       1081       1064       1063       1081       1082       1065       1064       1082       1083       1066       1065       1083       1084       1067       1066       1084       1085       1068       1067       1085       1086       1069       1068       1086       1087       1070       1069       1088       1089       1072       1071       1089       1090       1073       1072       1090       1091       1074       1073       1091       1092       1075       1074       1092       1093       1076       1075       1093       1094       1077       1076       1094       1095       1078       1077       1095       1096       1079       1078       1096       1097       1080       1079       1097       1098       1081       1080       1098       1099       1082       1081       1099       1100       1083       1082       1100       1101       1084       1083       1101       1102       1085       1084       1102       1103       1086       1085       1103       1104       1087       1086       1105       1106       1089       1088       1106       1107       1090       1089       1107       1108       1091       1090       1108       1109       1092       1091       1109       1110       1093       1092       1110       1111       1094       1093       1111       1112       1095       1094       1112       1113       1096       1095       1113       1114       1097       1096       1114       1115       1098       1097       1115       1116       1099       1098       1116       1117       1100       1099       1117       1118       1101       1100       1118       1119       1102       1101       1119       1120       1103       1102       1120       1121       1104       1103       1122       1123       1106       1105       1123       1124       1107       1106       1124       1125       1108       1107       1125       1126       1109       1108       1126       1127       1110       1109       1127       1128       1111       1110       1128       1129       1112       1111       1129       1130       1113       1112       1130       1131       1114       1113       1131       1132       1115       1114       1132       1133       1116       1115       1133       1134       1117       1116       1134       1135       1118       1117       1135       1136       1119       1118       1136       1137       1120       1119       1137       1138       1121       1120        272        273       1123       1122        273        274       1124       1123        274        275       1125       1124        275        276       1126       1125        276        277       1127       1126        277        278       1128       1127        278        279       1129       1128        279        280       1130       1129        280        281       1131       1130        281        282       1132       1131        282        283       1133       1132        283        284       1134       1133        284        285       1135       1134        285        286       1136       1135        286        287       1137       1136        287        288       1138       1137 </DataArray>
<DataArray type="Int32"                                    Name="offsets"                                                      NumberOfComponents=" 1" format="ascii">
         4          8         12         16         20         24         28         32         36         40         44         48         52         56         60         64         68         72         76         80         84         88         92         96        100        104        108        112        116        120        124        128        132        136        140        144        148        152        156        160        164        168        172        176        180        184        188        192        196        200        204        208        212        216        220        224        228        232        236        240        244        248        252        256        260        264        268        272        276        280        284        288        292        296        300        304        308        312        316        320        324        328        332        336        340        344        348        352        356        360        364        368        372        376        380        384        388        392        396        400        404        408        412        416        420        424        428        432        436        440        444        448        452        456        460        464        468        472        476        480        484        488        492        496        500        504        508        512        516        520        524        528        532        536        540        544        548        552        556        560        564        568        572        576        580        584        588        592        596        600        604        608        612        616        620        624        628        632        636        640        644        648        652        656        660        664        668        672        676        680        684        688        692        696        700        704        708        712        716        720        724        728        732        736        740        744        748        752        756        760        764        768        772        776        780        784        788        792        796        800        804        808        812        816        820        824        828        832        836        840        844        848        852        856        860        864        868        872        876        880        884        888        892        896        900        904        908        912        916        920        924        928        932        936        940        944        948        952        956        960        964        968        972        976        980        984        988        992        996       1000       1004       1008       1012       1016       1020       1024       1028       1032       1036       1040       1044       1048       1052       1056       1060       1064       1068       1072       1076       1080       1084       1088       1092       1096       1100       1104       1108       1112       1116       1120       1124       1128       1132       1136       1140       1144       1148       1152       1156       1160       1164       1168       1172       1176       1180       1184       1188       1192       1196       1200       1204       1208       1212       1216       1220       1224       1228       1232       1236       1240       1244       1248       1252       1256       1260       1264       1268       1272       1276       1280       1284       1288       1292       1296       1300       1304       1308       1312       1316       1320       1324       1328       1332       1336       1340       1344       1348       1352       1356       1360       1364       1368       1372       1376       1380       1384       1388       1392       1396       1400       1404       1408       1412       1416       1420       1424       1428       1432       1436       1440       1444       1448       1452       1456       1460       1464       1468       1472       1476       1480       1484       1488       1492       1496       1500       1504       1508       1512       1516       1520       1524       1528       1532       1536       1540       1544       1548       1552       1556       1560       1564       1568       1572       1576       1580       1584       1588       1592       1596       1600       1604       1608       1612       1616       1620       1624       1628       1632       1636       1640       1644       1648       1652       1656       1660       1664       1668       1672       1676       1680       1684       1688       1692       1696       1700       1704       1708       1712       1716       1720       1724       1728       1732       1736       1740       1744       1748       1752       1756       1760       1764       1768       1772       1776       1780       1784       1788       1792       1796       1800       1804       1808       1812       1816       1820       1824       1828       1832       1836       1840       1844       1848       1852       1856       1860       1864       1868       1872       1876       1880       1884       1888       1892       1896       1900       1904       1908       1912       1916       1920       1924       1928       1932       1936       1940       1944       1948       1952       1956       1960       1964       1968       1972       1976       1980       1984       1988       1992       1996       2000       2004       2008       2012       2016       2020       2024       2028       2032       2036       2040       2044       2048       2052       2056       2060       2064       2068       2072       2076       2080       2084       2088       2092       2096       2100       2104       2108       2112       2116       2120       2124       2128       2132       2136       2140       2144       2148       2152       2156       2160       2164       2168       2172       2176       2180       2184       2188       2192       2196       2200       2204       2208       2212       2216       2220       2224       2228       2232       2236       2240       2244       2248       2252       2256       2260       2264       2268       2272       2276       2280       2284       2288       2292       2296       2300       2304       2308       2312       2316       2320       2324       2328       2332       2336       2340       2344       2348       2352       2356       2360       2364       2368       2372       2376       2380       2384       2388       2392       2396       2400       2404       2408       2412       2416       2420       2424       2428       2432       2436       2440       2444       2448       2452       2456       2460       2464       2468       2472       2476       2480       2484       2488       2492       2496       2500       2504       2508       2512       2516       2520       2524       2528       2532       2536       2540       2544       2548       2552       2556       2560       2564       2568       2572       2576       2580       2584       2588       2592       2596       2600       2604       2608       2612       2616       2620       2624       2628       2632       2636       2640       2644       2648       2652       2656       2660       2664       2668       2672       2676       2680       2684       2688       2692       2696       2700       2704       2708       2712       2716       2720       2724       2728       2732       2736       2740       2744       2748       2752       2756       2760       2764       2768       2772       2776       2780       2784       2788       2792       2796       2800       2804       2808       2812       2816       2820       2824       2828       2832       2836       2840       2844       2848       2852       2856       2860       2864       2868       2872       2876       2880       2884       2888       2892       2896       2900       2904       2908       2912       2916       2920       2924       2928       2932       2936       2940       2944       2948       2952       2956       2960       2964       2968       2972       2976       2980       2984       2988       2992       2996       3000       3004       3008       3012       3016       3020       3024       3028       3032       3036       3040       3044       3048       3052       3056       3060       3064       3068       3072       3076       3080       3084       3088       3092       3096       3100       3104       3108       3112       3116       3120       3124       3128       3132       3136       3140       3144       3148       3152       3156       3160       3164       3168       3172       3176       3180       3184       3188       3192       3196       3200       3204       3208       3212       3216       3220       3224       3228       3232       3236       3240       3244       3248       3252       3256       3260       3264       3268       3272       3276       3280       3284       3288       3292       3296       3300       3304       3308       3312       3316       3320       3324       3328       3332       3336       3340       3344       3348       3352       3356       3360       3364       3368       3372       3376       3380       3384       3388       3392       3396       3400       3404       3408       3412       3416       3420       3424       3428       3432       3436       3440       3444       3448       3452       3456       3460       3464       3468       3472       3476       3480       3484       3488       3492       3496       3500       3504       3508       3512       3516       3520       3524       3528       3532       3536       3540       3544       3548       3552       3556       3560       3564       3568       3572       3576       3580       3584       3588       3592       3596       3600       3604       3608       3612       3616       3620       3624       3628       3632       3636       3640       3644       3648       3652       3656       3660       3664       3668       3672       3676       3680       3684       3688       3692       3696       3700       3704       3708       3712       3716       3720       3724       3728       3732       3736       3740       3744       3748       3752       3756       3760       3764       3768       3772       3776       3780       3784       3788       3792       3796       3800       3804       3808       3812       3816       3820       3824       3828       3832       3836       3840       3844       3848       3852       3856       3860       3864       3868       3872       3876       3880       3884       3888       3892       3896       3900       3904       3908       3912       3916       3920       3924       3928       3932       3936       3940       3944       3948       3952       3956       3960       3964       3968       3972       3976       3980       3984       3988       3992       3996       4000       4004       4008       4012       4016       4020       4024       4028       4032       4036       4040       4044       4048       4052       4056       4060       4064       4068       4072       4076       4080       4084       4088       4092       4096 </DataArray>
<DataArray type="UInt8"                                    Name="types"                                                      NumberOfComponents=" 1" format="ascii">
         9          9          9          9          9          9          9          9          9          9          9          9          9          9          9          9          9          9          9          9          9          9          9          9          9          9          9          9          9          9          9          9          9          9          9          9          9          9          9          9          9          9          9          9          9          9          9          9          9          9          9          9          9          9          9          9          9          9          9          9          9          9          9          9          9          9          9          9          9          9          9          9          9          9          9          9          9          9          9          9          9          9          9          9          9          9          9          9          9          9          9          9          9          9          9          9          9          9          9          9          9          9          9          9          9          9          9          9          9          9          9          9          9          9          9          9          9          9          9          9          9          9          9          9          9          9          9          9          9          9          9          9          9          9          9          9          9          9          9          9          9          9          9          9          9          9          9          9          9          9          9          9          9          9          9          9          9          9          9          9          9          9          9          9          9          9          9          9          9          9          9          9          9          9          9          9          9          9          9          9          9          9          9          9          9          9          9          9          9          9          9          9          9          9          9          9          9          9          9          9          9          9          9          9          9          9          9          9          9          9          9          9          9          9          9          9          9          9          9          9          9          9          9          9          9          9          9          9          9          9          9          9          9          9          9          9          9          9          9          9          9          9          9          9          9          9          9          9          9          9          9          9          9          9          9          9          9          9          9          9          9          9          9          9          9          9          9          9          9          9          9          9          9          9          9          9          9          9          9          9          9          9          9          9          9          9          9          9          9          9          9          9          9          9          9          9          9          9          9          9          9          9          9          9          9          9          9          9          9          9          9          9          9          9          9          9          9          9          9          9          9          9          9          9          9          9          9          9          9          9          9          9          9          9          9          9          9          9          9          9          9          9          9          9          9          9          9          9          9          9          9          9          9          9          9          9          9          9          9          9          9          9          9          9          9          9          9          9          9          9          9          9          9          9          9          9          9          9          9          9          9          9          9          9          9          9          9          9          9          9          9          9          9          9          9          9          9          9          9          9          9          9          9          9          9          9          9          9          9          9          9          9          9          9          9          9          9          9          9          9          9          9          9          9          9          9          9          9          9          9          9          9          9          9          9          9          9          9          9          9          9          9          9          9          9          9          9          9          9          9          9          9          9          9          9          9          9          9          9          9          9          9          9          9          9          9          9          9          9          9          9          9          9          9          9          9          9          9          9          9          9          9          9          9          9          9          9          9          9          9          9          9          9          9          9          9          9          9          9          9          9          9          9          9          9          9          9          9          9          9          9          9          9          9          9          9          9          9          9          9          9          9          9          9          9          9          9          9          9          9          9          9          9          9          9          9          9          9          9          9          9          9          9          9          9          9          9          9          9          9          9          9          9          9          9          9          9          9          9          9          9          9          9          9          9          9          9          9          9          9          9          9          9          9          9          9          9          9          9          9          9          9          9          9          9          9          9          9          9          9          9          9          9          9          9          9          9          9          9          9          9          9          9          9          9          9          9          9          9          9          9          9          9          9          9          9          9          9          9          9          9          9          9          9          9          9          9          9          9          9          9          9          9          9          9          9          9          9          9          9          9          9          9          9          9          9          9          9          9          9          9          9          9          9          9          9          9          9          9          9          9          9          9          9          9          9          9          9          9          9          9          9          9          9          9          9          9          9          9          9          9          9          9          9          9          9          9          9          9          9          9          9          9          9          9          9          9          9          9          9          9          9          9          9          9          9          9          9          9          9          9          9          9          9          9          9          9          9          9          9          9          9          9          9          9          9          9          9          9          9          9          9          9          9          9          9          9          9          9          9          9          9          9          9          9          9          9          9          9          9          9          9          9          9          9          9          9          9          9          9          9          9          9          9          9          9          9          9          9          9          9          9          9          9          9          9          9          9          9          9          9          9          9          9          9          9          9          9          9          9          9          9          9          9          9          9          9          9          9          9          9          9          9          9          9          9          9          9          9          9          9          9          9          9          9          9          9          9          9          9          9          9          9          9          9          9          9          9          9          9          9          9          9          9          9          9          9          9          9          9          9          9          9          9          9          9          9          9          9          9          9          9          9          9          9          9          9          9          9          9          9          9          9          9          9          9          9          9          9          9          9          9          9          9          9          9          9          9          9          9          9          9          9          9          9          9          9          9          9          9          9          9          9          9          9          9          9          9          9          9          9          9          9          9          9          9          9          9          9          9          9          9          9          9          9          9          9          9          9          9          9          9          9          9          9          9          9          9          9          9          9          9          9          9          9          9          9          9          9          9          9          9          9          9          9          9          9          9          9          9          9          9          9          9          9          9          9          9          9          9          9          9          9          9          9          9          9          9          9          9          9          9          9          9          9          9          9          9          9          9          9          9          9          9          9          9          9          9          9          9          9          9          9          9          9          9          9          9          9          9          9          9          9          9          9          9          9          9          9          9          9          9          9          9          9          9          9          9          9          9          9          9          9          9 </DataArray>
</Cells>
<CellData>
<DataArray type="Int32"                                    Name="material"                                                      NumberOfComponents=" 1" format="ascii">
         1          1          1          1          1          1          1          1          1          1          1          1          1          1          1          1          1          1          1          1          1          1          1          1          1          1          1          1          1          1          1          1          1          1          1          1          1          1          1          1          1          1          1          1          1          1          1          1          1          1          1          1          1          1          1          1          1          1          1          1          1          1          1          1          1          1          1          1          1          1          1          1          1          1          1          1          1          1          1          1          1          1          1          1          1          1          1          1          1          1          1          1          1          1          1          1          1          1          1          1          1          1          1          1          1          1          1          1          1          1          1          1          1          1          1          1          1          1          1          1          1          1          1          1          1          1          1          1          1          1          1          1          1          1          1          1          1          1          1          1          1          1          1          1          1          1          1          1          1          1          1          1          1          1          1          1          1          1          1          1          1          1          1          1          1          1          1          1          1          1          1          1          1          1          1          1          1          1          1          1          1          1          1          1          1          1          1          1          1          1          1          1          1          1          1          1          1          1          1          1          1          1          1          1          1          1          1          1          1          1          1          1          1          1          1          1          1          1          1          1          1          1          1          1          1          1          1          1          1          1          1          1          1          1          1          1          1          1          1          1          1          1          1          1          1          1          1          1          1          1          1          1          1          1          1          1          1          1          1          1          1          1          1          1          1          1          1          1          1          1          1          1          1          1          1          1          1          1          1          1          1          1          1          1          1          1          1          1          1          1          1          1          1          1          1          1          1          1          1          1          1          1          1          1          1          1          1          1          1          1          1          1          1          1          1          1          1          1          1          1          1          1          1          1          1          1          1          1          1          1          1          1          1          1          1          1          1          1          1          1          1          1          1          1          1          1          1          1          1          1          1          1          1          1          1          1          1          1          1          1          1          1          1          1          1          1          1          1          1          1          1          1          1          1          1          1          1          1          1          1          1          1          1          1          1          1          1          1          1          1          1          1          1          1          1          1          1          1          1          1          1          1          1          1          1          1          1          1          1          1          1          1          1          1          1          1          1          1          1          1          1          1          1          1          1          1          1          1          1          1          1          1          1          1          1          1          1          1          1          1          1          1          1          1          1          1          1          1          1          1          1          1          1          1          1          1          1          1          1          1          1          1          1          1          1          1          1          1          1          1          1          1          1          1          1          1          1          1          1          1          1          1          1          1          1          1          1          1          1          1          1          1          1          1          1          1          1          1          1          1          1          1          1          1          1          1          1          1          1          1          1          1          1          1          1          1          1          1          1          1          1          1          1          1          1          1          1          1          1          1          1          1          1          1          1          1          1          1          1          1          1          1          1          1          1          1          1          1          1          1          1          1          1          1          1          1          1          1          1          1          1          1          1          1          1          1          1          1          1          1          1          1          1          1          1          1          1          1          1          1          1          1          1          1          1          1          1          1          1          1          1          1          1          1          1          1          1          1          1          1          1          1          1          1          1          1          1          1          1          1          1          1          1          1          1          1          1          1          1          1          1          1          1          1          1          1          1          1          1          1          1          1          1          1          1          1          1          1          1          1          1          1          1          1          1          1          1          1          1          1          1          1          1          1          1          1          1          1          1          1          1          1          1          1          1          1          1          1          1          1          1          1          1          1          1          1          1          1          1          1          1          1          1          1          1          1          1          1          1          1          1          1          1          1          1          1          1          1          1          1          1          1          1          1          1          1          1          1          1          1          1          1          1          1          1          1          1          1          1          1          1          1          1          1          1          1          1          1          1          1          1          1          1          1          1          1          1          1          1          1          1          1          1          1          1          1          1          1          1          1          1          1          1          1          1          1          1          1          1          1          1          1          1          1          1          1          1          1          1          1          1          1          1          1          1          1          1          1          1          1          1          1          1          1          1          1          1          1          1          1          1          1          1          1          1          1          1          1          1          1          1          1          1          1          1          1          1          1          1          1          1          1          1          1          1          1          1          1          1          1          1          1          1          1          1          1          1          1          1          1          1          1          1          1          1          1          1          1          1          1          1          1          1          1          1          1          1          1          1          1          1          1          1          1          1          1          1          1          1          1          1          1          1          1          1          1          1          1          1          1          1          1          1          1          1          1          1          1          1          1          1          1          1          1          1          1          1          1          1          1          1          1          1          1          1          1          1          1          1          1          1          1          1          1          1          1          1          1          1          1          1          1          1          1          1          1          1          1          1          1          1          1          1          1          1          1          1          1          1          1          1          1          1          1          1          1          1          1          1          1          1          1          1          1          1          1          1          1          1          1          1          1          1          1          1          1          1          1          1          1          1          1          1          1          1          1          1          1          1          1          1          1          1          1          1          1          1          1          1          1          1          1          1          1          1          1          1          1          1          1          1          1          1          1          1          1          1          1          1          1          1          1          1          1          1          1          1          1          1          1          1          1          1          1          1          1          1          1          1          1          1          1          1          1 </DataArray>
</CellData>
<PointData>
<DataArray type="Float64"                                    Name="u"                                                      NumberOfComponents=" 3" format="ascii">
             -0.000126557              -0.000000000               0.999999992              -0.000152446               0.000000000               0.999999992              -0.000164479               0.000000000               0.999999992              -0.000171328              -0.000000000               0.999999992              -0.000176602              -0.000000000               0.999999992              -0.000181719              -0.000000000               0.999999992              -0.000187218              -0.000000000               0.999999992              -0.000193473               0.000000000               0.999999992              -0.000200657               0.000000000               0.999999992              -0.000208768               0.000000000               0.999999992              -0.000217745              -0.000000000               0.999999992              -0.000227626               0.000000000               0.999999992              -0.000238423               0.000000000               0.999999992              -0.000250113               0.000000000               0.999999992              -0.000262730               0.000000000               0.999999992              -0.000276181               0.000000000               0.999999992              -0.000290209               0.000000000               0.999999992              -0.000125787               0.000065170               0.999999992              -0.000150337               0.000056446               0.999999992              -0.000161589               0.000053671               0.999999992              -0.000168081               0.000054239               0.999999992              -0.000173180               0.000056706               0.999999992              -0.000178204               0.000060291               0.999999992              -0.000183678               0.000064514               0.999999992              -0.000189919               0.000069312               0.999999992              -0.000197079               0.000074472               0.999999992              -0.000205159               0.000079831               0.999999992              -0.000214145               0.000085330               0.999999992              -0.000224026               0.000090923               0.999999992              -0.000234780               0.000096538               0.999999992              -0.000246413               0.000102138               0.999999992              -0.000258899               0.000107523               0.999999992              -0.000272140               0.000112420               0.999999992              -0.000285935               0.000116189               0.999999992              -0.000123460               0.000129629               0.999999992              -0.000144129               0.000112326               0.999999992              -0.000153231               0.000107149               0.999999992              -0.000158660               0.000108549               0.999999992              -0.000163349               0.000113631               0.999999992              -0.000168311               0.000120793               0.999999992              -0.000173904               0.000129265               0.999999992              -0.000180373               0.000138804               0.999999992              -0.000187775               0.000149124               0.999999992              -0.000196086               0.000159863               0.999999992              -0.000205295               0.000170793               0.999999992              -0.000215413               0.000181911               0.999999992              -0.000226365               0.000193167               0.999999992              -0.000238073               0.000204329               0.999999992              -0.000250432               0.000215090               0.999999992              -0.000263358               0.000225089               0.999999992              -0.000276721               0.000233716               0.999999992              -0.000119708               0.000192640               0.999999992              -0.000134270               0.000167127               0.999999992              -0.000140352               0.000160211               0.999999992              -0.000144525               0.000162911               0.999999992              -0.000148888               0.000170865               0.999999992              -0.000154003               0.000181722               0.999999992              -0.000160037               0.000194550               0.999999992              -0.000167074               0.000208897               0.999999992              -0.000175099               0.000224183               0.999999992              -0.000184027               0.000240093               0.999999992              -0.000193794               0.000256356               0.999999992              -0.000204336               0.000273010               0.999999992              -0.000215568               0.000289843               0.999999992              -0.000227426               0.000306517               0.999999992              -0.000239756               0.000322782               0.999999992              -0.000252393               0.000338169               0.999999992              -0.000265241               0.000352143               0.999999992              -0.000114726               0.000253526               0.999999992              -0.000121520               0.000220431               0.999999992              -0.000124343               0.000212617               0.999999992              -0.000127525               0.000217103               0.999999992              -0.000131900               0.000228151               0.999999992              -0.000137491               0.000243011               0.999999992              -0.000144291               0.000260333               0.999999992              -0.000152283               0.000279396               0.999999992              -0.000161301               0.000299564               0.999999992              -0.000171097               0.000320470               0.999999992              -0.000181594               0.000341899               0.999999992              -0.000192687               0.000363978               0.999999992              -0.000204270               0.000386282               0.999999992              -0.000216198               0.000408418               0.999999992              -0.000228371               0.000430160               0.999999992              -0.000240696               0.000451031               0.999999992              -0.000253147               0.000470821               0.999999992              -0.000108635               0.000311692               0.999999992              -0.000106543               0.000272057               0.999999992              -0.000106356               0.000264221               0.999999992              -0.000109007               0.000271029               0.999999992              -0.000113863               0.000285475               0.999999992              -0.000120530               0.000304411               0.999999992              -0.000128690               0.000326117               0.999999992              -0.000138072               0.000349715               0.999999992              -0.000148308               0.000374591               0.999999992              -0.000159133               0.000400312               0.999999992              -0.000170482               0.000426823               0.999999992              -0.000182211               0.000453963               0.999999992              -0.000194209               0.000481391               0.999999992              -0.000206394               0.000508598               0.999999992              -0.000218633               0.000535355               0.999999992              -0.000230937               0.000561479               0.999999992              -0.000243292               0.000586915               0.999999992              -0.000101461               0.000366562               0.999999992              -0.000090037               0.000321913               0.999999992              -0.000087667               0.000314798               0.999999992              -0.000090659               0.000324204               0.999999992              -0.000096800               0.000342015               0.999999992              -0.000105118               0.000364817               0.999999992              -0.000114938               0.000390856               0.999999992              -0.000125773               0.000418868               0.999999992              -0.000137274               0.000448218               0.999999992              -0.000149231               0.000478573               0.999999992              -0.000161512               0.000509806               0.999999992              -0.000173970               0.000541741               0.999999992              -0.000186522               0.000573775               0.999999992              -0.000199040               0.000605470               0.999999992              -0.000211460               0.000636807               0.999999992              -0.000223749               0.000667527               0.999999992              -0.000235761               0.000697601               0.999999992              -0.000093278               0.000417586               0.999999992              -0.000073071               0.000369769               0.999999992              -0.000069707               0.000363819               0.999999992              -0.000073937               0.000375761               0.999999992              -0.000081872               0.000396838               0.999999992              -0.000091988               0.000423518               0.999999992              -0.000103512               0.000453786               0.999999992              -0.000115876               0.000485982               0.999999992              -0.000128653               0.000519615               0.999999992              -0.000141629               0.000554417               0.999999992              -0.000154757               0.000590066               0.999999992              -0.000167826               0.000626232               0.999999992              -0.000180735               0.000662384               0.999999992              -0.000193368               0.000698158               0.999999992              -0.000205654               0.000733539               0.999999992              -0.000217573               0.000768371               0.999999992              -0.000229002               0.000802395               0.999999992              -0.000084771               0.000463786               0.999999992              -0.000056394               0.000415507               0.999999992              -0.000053490               0.000410761               0.999999992              -0.000059479               0.000425056               0.999999992              -0.000069426               0.000449388               0.999999992              -0.000081467               0.000479822               0.999999992              -0.000094734               0.000514063               0.999999992              -0.000108434               0.000550387               0.999999992              -0.000122164               0.000588242               0.999999992              -0.000135930               0.000627224               0.999999992              -0.000149550               0.000666975               0.999999992              -0.000162888               0.000706989               0.999999992              -0.000175781               0.000746834               0.999999992              -0.000188197               0.000786366               0.999999992              -0.000200250               0.000825445               0.999999992              -0.000211984               0.000863864               0.999999992              -0.000223437               0.000901532               0.999999992              -0.000076719               0.000506802               0.999999992              -0.000043564               0.000463805               0.999999992              -0.000038258               0.000455301               0.999999992              -0.000042854               0.000464998               0.999999992              -0.000051711               0.000484872               0.999999992              -0.000062552               0.000511130               0.999999992              -0.000074767               0.000541536               0.999999992              -0.000087328               0.000574633               0.999999992              -0.000099712               0.000609355               0.999999992              -0.000111938               0.000645340               0.999999992              -0.000124026               0.000682224               0.999999992              -0.000135907               0.000719649               0.999999992              -0.000147397               0.000757314               0.999999992              -0.000158363               0.000794853               0.999999992              -0.000168899               0.000832272               0.999999992              -0.000179158               0.000869392               0.999999992              -0.000189481               0.000905979               0.999999992              -0.000067605               0.000545597               0.999999992              -0.000032747               0.000509783               0.999999992              -0.000024982               0.000500212               0.999999992              -0.000027728               0.000506496               0.999999992              -0.000035167               0.000522582               0.999999992              -0.000044718               0.000545054               0.999999992              -0.000055452               0.000571927               0.999999992              -0.000066712               0.000601796               0.999999992              -0.000077732               0.000633574               0.999999992              -0.000088362               0.000666793               0.999999992              -0.000098810               0.000700969               0.999999992              -0.000109142               0.000735834               0.999999992              -0.000119041               0.000771044               0.999999992              -0.000128348               0.000806409               0.999999992              -0.000136986               0.000841728               0.999999992              -0.000145226               0.000877054               0.999999992              -0.000153275               0.000912306               0.999999992              -0.000057753               0.000579343               0.999999992              -0.000023830               0.000552322               0.999999992              -0.000014302               0.000543622               0.999999992              -0.000015158               0.000547943               0.999999992              -0.000020833               0.000561192               0.999999992              -0.000028740               0.000580665               0.999999992              -0.000037778               0.000604508               0.999999992              -0.000047412               0.000631560               0.999999992              -0.000056871               0.000660743               0.999999992              -0.000065986               0.000691407               0.999999992              -0.000074896               0.000723147               0.999999992              -0.000083591               0.000755680               0.999999992              -0.000091800               0.000788780               0.999999992              -0.000099121               0.000822177               0.999999992              -0.000105533               0.000855641               0.999999992              -0.000110911               0.000889143               0.999999992              -0.000115550               0.000922773               0.999999992              -0.000047203               0.000607580               0.999999992              -0.000016711               0.000589910               0.999999992              -0.000006563               0.000583563               0.999999992              -0.000005834               0.000587274               0.999999992              -0.000009702               0.000598671               0.999999992              -0.000015785               0.000615885               0.999999992              -0.000022906               0.000637451               0.999999992              -0.000030658               0.000662254               0.999999992              -0.000038445               0.000689362               0.999999992              -0.000046008               0.000718022               0.999999992              -0.000053320               0.000747881               0.999999992              -0.000060238               0.000778620               0.999999992              -0.000066574               0.000810055               0.999999992              -0.000071955               0.000842001               0.999999992              -0.000076045               0.000874160               0.999999992              -0.000078543               0.000906341               0.999999992              -0.000079270               0.000938696               0.999999992              -0.000035991               0.000629949               0.999999992              -0.000011171               0.000620994               0.999999992              -0.000001767               0.000617827               0.999999992              -0.000000076               0.000621961               0.999999992              -0.000002382               0.000632435               0.999999992              -0.000006571               0.000648163               0.999999992              -0.000011750               0.000668064               0.999999992              -0.000017515               0.000691247               0.999999992              -0.000023428               0.000716849               0.999999992              -0.000029220               0.000744205               0.999999992              -0.000034868               0.000772836               0.999999992              -0.000040082               0.000802486               0.999999992              -0.000044652               0.000832949               0.999999992              -0.000048214               0.000863986               0.999999992              -0.000050363               0.000895411               0.999999992              -0.000050593               0.000926972               0.999999992              -0.000048240               0.000958620               0.999999992              -0.000024299               0.000646010               0.999999992              -0.000006817               0.000644171               0.999999992               0.000000433               0.000644233               0.999999992               0.000002252               0.000649317               0.999999992               0.000001113               0.000659621               0.999999992              -0.000001429               0.000674521               0.999999992              -0.000004674               0.000693325               0.999999992              -0.000008414               0.000715352               0.999999992              -0.000012386               0.000739925               0.999999992              -0.000016353               0.000766420               0.999999992              -0.000020287               0.000794357               0.999999992              -0.000023886               0.000823457               0.999999992              -0.000026852               0.000853481               0.999999992              -0.000028913               0.000884284               0.999999992              -0.000029713               0.000915622               0.999999992              -0.000028627               0.000947221               0.999999992              -0.000025011               0.000978911               0.999999992              -0.000012253               0.000655700               0.999999992              -0.000003205               0.000658441               0.999999992               0.000000708               0.000660872               0.999999992               0.000001876               0.000666877               0.999999992               0.000001449               0.000677325               0.999999992               0.000000294               0.000691910               0.999999992              -0.000001256               0.000710141               0.999999992              -0.000003059               0.000731452               0.999999992              -0.000005075               0.000755252               0.999999992              -0.000007100               0.000781115               0.999999992              -0.000009122               0.000808631               0.999999992              -0.000011044               0.000837606               0.999999992              -0.000012579               0.000867797               0.999999992              -0.000013470               0.000898902               0.999999992              -0.000013512               0.000930678               0.999999992              -0.000012383               0.000962740               0.999999992              -0.000009624               0.000994784               0.999999992               0.000000000               0.000658992               0.999999992              -0.000000000               0.000663266               0.999999992               0.000000000               0.000666523               0.999999992              -0.000000000               0.000672914               0.999999992               0.000000000               0.000683461               0.999999992               0.000000000               0.000698018               0.999999992               0.000000000               0.000716034               0.999999992               0.000000000               0.000737042               0.999999992               0.000000000               0.000760582               0.999999992              -0.000000000               0.000786208               0.999999992              -0.000000000               0.000813631               0.999999992              -0.000000000               0.000842562               0.999999992               0.000000000               0.000872841               0.999999992              -0.000000000               0.000904265               0.999999992              -0.000000000               0.000936367               0.999999992              -0.000000000               0.000968721               0.999999992               0.000000000               0.001000967               0.999999992              -0.000126557              -0.000000000               0.999999992              -0.000152446               0.000000000               0.999999992              -0.000164479               0.000000000               0.999999992              -0.000171328              -0.000000000               0.999999992              -0.000176602              -0.000000000               0.999999992              -0.000181719              -0.000000000               0.999999992              -0.000187218              -0.000000000               0.999999992              -0.000193473               0.000000000               0.999999992              -0.000200657               0.000000000               0.999999992              -0.000208768               0.000000000               0.999999992              -0.000217745              -0.000000000               0.999999992              -0.000227626               0.000000000               0.999999992              -0.000238423               0.000000000               0.999999992              -0.000250113               0.000000000               0.999999992              -0.000262730               0.000000000               0.999999992              -0.000276181               0.000000000               0.999999992              -0.000290209               0.000000000               0.999999992              -0.000125787              -0.000065170               0.999999992              -0.000150337              -0.000056446               0.999999992              -0.000161589              -0.000053671               0.999999992              -0.000168081              -0.000054239               0.999999992              -0.000173180              -0.000056706               0.999999992              -0.000178204              -0.000060291               0.999999992              -0.000183678              -0.000064514               0.999999992              -0.000189919              -0.000069312               0.999999992              -0.000197079              -0.000074472               0.999999992              -0.000205159              -0.000079831               0.999999992              -0.000214145              -0.000085330               0.999999992              -0.000224026              -0.000090923               0.999999992              -0.000234780              -0.000096538               0.999999992              -0.000246413              -0.000102138               0.999999992              -0.000258899              -0.000107523               0.999999992              -0.000272140              -0.000112420               0.999999992              -0.000285935              -0.000116189               0.999999992              -0.000123460              -0.000129629               0.999999992              -0.000144129              -0.000112326               0.999999992              -0.000153231              -0.000107149               0.999999992              -0.000158660              -0.000108549               0.999999992              -0.000163349              -0.000113631               0.999999992              -0.000168311              -0.000120793               0.999999992              -0.000173904              -0.000129265               0.999999992              -0.000180373              -0.000138804               0.999999992              -0.000187775              -0.000149124               0.999999992              -0.000196086              -0.000159863               0.999999992              -0.000205295              -0.000170793               0.999999992              -0.000215413              -0.000181911               0.999999992              -0.000226365              -0.000193167               0.999999992              -0.000238073              -0.000204329               0.999999992              -0.000250432              -0.000215090               0.999999992              -0.000263358              -0.000225089               0.999999992              -0.000276721              -0.000233716               0.999999992              -0.000119708              -0.000192640               0.999999992              -0.000134270              -0.000167127               0.999999992              -0.000140352              -0.000160211               0.999999992              -0.000144525              -0.000162911               0.999999992              -0.000148888              -0.000170865               0.999999992              -0.000154003              -0.000181722               0.999999992              -0.000160037              -0.000194550               0.999999992              -0.000167074              -0.000208897               0.999999992              -0.000175099              -0.000224183               0.999999992              -0.000184027              -0.000240093               0.999999992              -0.000193794              -0.000256356               0.999999992              -0.000204336              -0.000273010               0.999999992              -0.000215568              -0.000289843               0.999999992              -0.000227426              -0.000306517               0.999999992              -0.000239756              -0.000322782               0.999999992              -0.000252393              -0.000338169               0.999999992              -0.000265241              -0.000352143               0.999999992              -0.000114726              -0.000253526               0.999999992              -0.000121520              -0.000220431               0.999999992              -0.000124343              -0.000212617               0.999999992              -0.000127525              -0.000217103               0.999999992              -0.000131900              -0.000228151               0.999999992              -0.000137491              -0.000243011               0.999999992              -0.000144291              -0.000260333               0.999999992              -0.000152283              -0.000279396               0.999999992              -0.000161301              -0.000299564               0.999999992              -0.000171097              -0.000320470               0.999999992              -0.000181594              -0.000341899               0.999999992              -0.000192687              -0.000363978               0.999999992              -0.000204270              -0.000386282               0.999999992              -0.000216198              -0.000408418               0.999999992              -0.000228371              -0.000430160               0.999999992              -0.000240696              -0.000451031               0.999999992              -0.000253147              -0.000470821               0.999999992              -0.000108635              -0.000311692               0.999999992              -0.000106543              -0.000272057               0.999999992              -0.000106356              -0.000264221               0.999999992              -0.000109007              -0.000271029               0.999999992              -0.000113863              -0.000285475               0.999999992              -0.000120530              -0.000304411               0.999999992              -0.000128690              -0.000326117               0.999999992              -0.000138072              -0.000349715               0.999999992              -0.000148308              -0.000374591               0.999999992              -0.000159133              -0.000400312               0.999999992              -0.000170482              -0.000426823               0.999999992              -0.000182211              -0.000453963               0.999999992              -0.000194209              -0.000481391               0.999999992              -0.000206394              -0.000508598               0.999999992              -0.000218633              -0.000535355               0.999999992              -0.000230937              -0.000561479               0.999999992              -0.000243292              -0.000586915               0.999999992              -0.000101461              -0.000366562               0.999999992              -0.000090037              -0.000321913               0.999999992              -0.000087667              -0.000314798               0.999999992              -0.000090659              -0.000324204               0.999999992              -0.000096800              -0.000342015               0.999999992              -0.000105118              -0.000364817               0.999999992              -0.000114938              -0.000390856               0.999999992              -0.000125773              -0.000418868               0.999999992              -0.000137274              -0.000448218               0.999999992              -0.000149231              -0.000478573               0.999999992              -0.000161512              -0.000509806               0.999999992              -0.000173970              -0.000541741               0.999999992              -0.000186522              -0.000573775               0.999999992              -0.000199040              -0.000605470               0.999999992              -0.000211460              -0.000636807               0.999999992              -0.000223749              -0.000667527               0.999999992              -0.000235761              -0.000697601               0.999999992              -0.000093278              -0.000417586               0.999999992              -0.000073071              -0.000369769               0.999999992              -0.000069707              -0.000363819               0.999999992              -0.000073937              -0.000375761               0.999999992              -0.000081872              -0.000396838               0.999999992              -0.000091988              -0.000423518               0.999999992              -0.000103512              -0.000453786               0.999999992              -0.000115876              -0.000485982               0.999999992              -0.000128653              -0.000519615               0.999999992              -0.000141629              -0.000554417               0.999999992              -0.000154757              -0.000590066               0.999999992              -0.000167826              -0.000626232               0.999999992              -0.000180735              -0.000662384               0.999999992              -0.000193368              -0.000698158               0.999999992              -0.000205654              -0.000733539               0.999999992              -0.000217573              -0.000768371               0.999999992              -0.000229002              -0.000802395               0.999999992              -0.000084771              -0.000463786               0.999999992              -0.000056394              -0.000415507               0.999999992              -0.000053490              -0.000410761               0.999999992              -0.000059479              -0.000425056               0.999999992              -0.000069426              -0.000449388               0.999999992              -0.000081467              -0.000479822               0.999999992              -0.000094734              -0.000514063               0.999999992              -0.000108434              -0.000550387               0.999999992              -0.000122164              -0.000588242               0.999999992              -0.000135930              -0.000627224               0.999999992              -0.000149550              -0.000666975               0.999999992              -0.000162888              -0.000706989               0.999999992              -0.000175781              -0.000746834               0.999999992              -0.000188197              -0.000786366               0.999999992              -0.000200250              -0.000825445               0.999999992              -0.000211984              -0.000863864               0.999999992              -0.000223437              -0.000901532               0.999999992              -0.000076719              -0.000506802               0.999999992              -0.000043564              -0.000463805               0.999999992              -0.000038258              -0.000455301               0.999999992              -0.000042854              -0.000464998               0.999999992              -0.000051711              -0.000484872               0.999999992              -0.000062552              -0.000511130               0.999999992              -0.000074767              -0.000541536               0.999999992              -0.000087328              -0.000574633               0.999999992              -0.000099712              -0.000609355               0.999999992              -0.000111938              -0.000645340               0.999999992              -0.000124026              -0.000682224               0.999999992              -0.000135907              -0.000719649               0.999999992              -0.000147397              -0.000757314               0.999999992              -0.000158363              -0.000794853               0.999999992              -0.000168899              -0.000832272               0.999999992              -0.000179158              -0.000869392               0.999999992              -0.000189481              -0.000905979               0.999999992              -0.000067605              -0.000545597               0.999999992              -0.000032747              -0.000509783               0.999999992              -0.000024982              -0.000500212               0.999999992              -0.000027728              -0.000506496               0.999999992              -0.000035167              -0.000522582               0.999999992              -0.000044718              -0.000545054               0.999999992              -0.000055452              -0.000571927               0.999999992              -0.000066712              -0.000601796               0.999999992              -0.000077732              -0.000633574               0.999999992              -0.000088362              -0.000666793               0.999999992              -0.000098810              -0.000700969               0.999999992              -0.000109142              -0.000735834               0.999999992              -0.000119041              -0.000771044               0.999999992              -0.000128348              -0.000806409               0.999999992              -0.000136986              -0.000841728               0.999999992              -0.000145226              -0.000877054               0.999999992              -0.000153275              -0.000912306               0.999999992              -0.000057753              -0.000579343               0.999999992              -0.000023830              -0.000552322               0.999999992              -0.000014302              -0.000543622               0.999999992              -0.000015158              -0.000547943               0.999999992              -0.000020833              -0.000561192               0.999999992              -0.000028740              -0.000580665               0.999999992              -0.000037778              -0.000604508               0.999999992              -0.000047412              -0.000631560               0.999999992              -0.000056871              -0.000660743               0.999999992              -0.000065986              -0.000691407               0.999999992              -0.000074896              -0.000723147               0.999999992              -0.000083591              -0.000755680               0.999999992              -0.000091800              -0.000788780               0.999999992              -0.000099121              -0.000822177               0.999999992              -0.000105533              -0.000855641               0.999999992              -0.000110911              -0.000889143               0.999999992              -0.000115550              -0.000922773               0.999999992              -0.000047203              -0.000607580               0.999999992              -0.000016711              -0.000589910               0.999999992              -0.000006563              -0.000583563               0.999999992              -0.000005834              -0.000587274               0.999999992              -0.000009702              -0.000598671               0.999999992              -0.000015785              -0.000615885               0.999999992              -0.000022906              -0.000637451               0.999999992              -0.000030658              -0.000662254               0.999999992              -0.000038445              -0.000689362               0.999999992              -0.000046008              -0.000718022               0.999999992              -0.000053320              -0.000747881               0.999999992              -0.000060238              -0.000778620               0.999999992              -0.000066574              -0.000810055               0.999999992              -0.000071955              -0.000842001               0.999999992              -0.000076045              -0.000874160               0.999999992              -0.000078543              -0.000906341               0.999999992              -0.000079270              -0.000938696               0.999999992              -0.000035991              -0.000629949               0.999999992              -0.000011171              -0.000620994               0.999999992              -0.000001767              -0.000617827               0.999999992              -0.000000076              -0.000621961               0.999999992              -0.000002382              -0.000632435               0.999999992              -0.000006571              -0.000648163               0.999999992              -0.000011750              -0.000668064               0.999999992              -0.000017515              -0.000691247               0.999999992              -0.000023428              -0.000716849               0.999999992              -0.000029220              -0.000744205               0.999999992              -0.000034868              -0.000772836               0.999999992              -0.000040082              -0.000802486               0.999999992              -0.000044652              -0.000832949               0.999999992              -0.000048214              -0.000863986               0.999999992              -0.000050363              -0.000895411               0.999999992              -0.000050593              -0.000926972               0.999999992              -0.000048240              -0.000958620               0.999999992              -0.000024299              -0.000646010               0.999999992              -0.000006817              -0.000644171               0.999999992               0.000000433              -0.000644233               0.999999992               0.000002252              -0.000649317               0.999999992               0.000001113              -0.000659621               0.999999992              -0.000001429              -0.000674521               0.999999992              -0.000004674              -0.000693325               0.999999992              -0.000008414              -0.000715352               0.999999992              -0.000012386              -0.000739925               0.999999992              -0.000016353              -0.000766420               0.999999992              -0.000020287              -0.000794357               0.999999992              -0.000023886              -0.000823457               0.999999992              -0.000026852              -0.000853481               0.999999992              -0.000028913              -0.000884284               0.999999992              -0.000029713              -0.000915622               0.999999992              -0.000028627              -0.000947221               0.999999992              -0.000025011              -0.000978911               0.999999992              -0.000012253              -0.000655700               0.999999992              -0.000003205              -0.000658441               0.999999992               0.000000708              -0.000660872               0.999999992               0.000001876              -0.000666877               0.999999992               0.000001449              -0.000677325               0.999999992               0.000000294              -0.000691910               0.999999992              -0.000001256              -0.000710141               0.999999992              -0.000003059              -0.000731452               0.999999992              -0.000005075              -0.000755252               0.999999992              -0.000007100              -0.000781115               0.999999992              -0.000009122              -0.000808631               0.999999992              -0.000011044              -0.000837606               0.999999992              -0.000012579              -0.000867797               0.999999992              -0.000013470              -0.000898902               0.999999992              -0.000013512              -0.000930678               0.999999992              -0.000012383              -0.000962740               0.999999992              -0.000009624              -0.000994784               0.999999992              -0.000000000              -0.000658992               0.999999992              -0.000000000              -0.000663266               0.999999992               0.000000000              -0.000666523               0.999999992               0.000000000              -0.000672914               0.999999992              -0.000000000              -0.000683461               0.999999992              -0.000000000              -0.000698018               0.999999992              -0.000000000              -0.000716034               0.999999992              -0.000000000              -0.000737042               0.999999992              -0.000000000              -0.000760582               0.999999992              -0.000000000              -0.000786208               0.999999992              -0.000000000              -0.000813631               0.999999992              -0.000000000              -0.000842562               0.999999992               0.000000000              -0.000872841               0.999999992               0.000000000              -0.000904265               0.999999992              -0.000000000              -0.000936367               0.999999992              -0.000000000              -0.000968721               0.999999992               0.000000000              -0.001000967               0.999999992               0.000126557              -0.000000000               0.999999992               0.000152446              -0.000000000               0.999999992               0.000164479              -0.000000000               0.999999992               0.000171328              -0.000000000               0.999999992               0.000176602               0.000000000               0.999999992               0.000181719              -0.000000000               0.999999992               0.000187218               0.000000000               0.999999992               0.000193473               0.000000000               0.999999992               0.000200657               0.000000000               0.999999992               0.000208768               0.000000000               0.999999992               0.000217745              -0.000000000               0.999999992               0.000227626              -0.000000000               0.999999992               0.000238423               0.000000000               0.999999992               0.000250113               0.000000000               0.999999992               0.000262730               0.000000000               0.999999992               0.000276181               0.000000000               0.999999992               0.000290209               0.000000000               0.999999992               0.000125787              -0.000065170               0.999999992               0.000150337              -0.000056446               0.999999992               0.000161589              -0.000053671               0.999999992               0.000168081              -0.000054239               0.999999992               0.000173180              -0.000056706               0.999999992               0.000178204              -0.000060291               0.999999992               0.000183678              -0.000064514               0.999999992               0.000189919              -0.000069312               0.999999992               0.000197079              -0.000074472               0.999999992               0.000205159              -0.000079831               0.999999992               0.000214145              -0.000085330               0.999999992               0.000224026              -0.000090923               0.999999992               0.000234780              -0.000096538               0.999999992               0.000246413              -0.000102138               0.999999992               0.000258899              -0.000107523               0.999999992               0.000272140              -0.000112420               0.999999992               0.000285935              -0.000116189               0.999999992               0.000123460              -0.000129629               0.999999992               0.000144129              -0.000112326               0.999999992               0.000153231              -0.000107149               0.999999992               0.000158660              -0.000108549               0.999999992               0.000163349              -0.000113631               0.999999992               0.000168311              -0.000120793               0.999999992               0.000173904              -0.000129265               0.999999992               0.000180373              -0.000138804               0.999999992               0.000187775              -0.000149124               0.999999992               0.000196086              -0.000159863               0.999999992               0.000205295              -0.000170793               0.999999992               0.000215413              -0.000181911               0.999999992               0.000226365              -0.000193167               0.999999992               0.000238073              -0.000204329               0.999999992               0.000250432              -0.000215090               0.999999992               0.000263358              -0.000225089               0.999999992               0.000276721              -0.000233716               0.999999992               0.000119708              -0.000192640               0.999999992               0.000134270              -0.000167127               0.999999992               0.000140352              -0.000160211               0.999999992               0.000144525              -0.000162911               0.999999992               0.000148888              -0.000170865               0.999999992               0.000154003              -0.000181722               0.999999992               0.000160037              -0.000194550               0.999999992               0.000167074              -0.000208897               0.999999992               0.000175099              -0.000224183               0.999999992               0.000184027              -0.000240093               0.999999992               0.000193794              -0.000256356               0.999999992               0.000204336              -0.000273010               0.999999992               0.000215568              -0.000289843               0.999999992               0.000227426              -0.000306517               0.999999992               0.000239756              -0.000322782               0.999999992               0.000252393              -0.000338169               0.999999992               0.000265241              -0.000352143               0.999999992               0.000114726              -0.000253526               0.999999992               0.000121520              -0.000220431               0.999999992               0.000124343              -0.000212617               0.999999992               0.000127525              -0.000217103               0.999999992               0.000131900              -0.000228151               0.999999992               0.000137491              -0.000243011               0.999999992               0.000144291              -0.000260333               0.999999992               0.000152283              -0.000279396               0.999999992               0.000161301              -0.000299564               0.999999992               0.000171097              -0.000320470               0.999999992               0.000181594              -0.000341899               0.999999992               0.000192687              -0.000363978               0.999999992               0.000204270              -0.000386282               0.999999992               0.000216198              -0.000408418               0.999999992               0.000228371              -0.000430160               0.999999992               0.000240696              -0.000451031               0.999999992               0.000253147              -0.000470821               0.999999992               0.000108635              -0.000311692               0.999999992               0.000106543              -0.000272057               0.999999992               0.000106356              -0.000264221               0.999999992               0.000109007              -0.000271029               0.999999992               0.000113863              -0.000285475               0.999999992               0.000120530              -0.000304411               0.999999992               0.000128690              -0.000326117               0.999999992               0.000138072              -0.000349715               0.999999992               0.000148308              -0.000374591               0.999999992               0.000159133              -0.000400312               0.999999992               0.000170482              -0.000426823               0.999999992               0.000182211              -0.000453963               0.999999992               0.000194209              -0.000481391               0.999999992               0.000206394              -0.000508598               0.999999992               0.000218633              -0.000535355               0.999999992               0.000230937              -0.000561479               0.999999992               0.000243292              -0.000586915               0.999999992               0.000101461              -0.000366562               0.999999992               0.000090037              -0.000321913               0.999999992               0.000087667              -0.000314798               0.999999992               0.000090659              -0.000324204               0.999999992               0.000096800              -0.000342015               0.999999992               0.000105118              -0.000364817               0.999999992               0.000114938              -0.000390856               0.999999992               0.000125773              -0.000418868               0.999999992               0.000137274              -0.000448218               0.999999992               0.000149231              -0.000478573               0.999999992               0.000161512              -0.000509806               0.999999992               0.000173970              -0.000541741               0.999999992               0.000186522              -0.000573775               0.999999992               0.000199040              -0.000605470               0.999999992               0.000211460              -0.000636807               0.999999992               0.000223749              -0.000667527               0.999999992               0.000235761              -0.000697601               0.999999992               0.000093278              -0.000417586               0.999999992               0.000073071              -0.000369769               0.999999992               0.000069707              -0.000363819               0.999999992               0.000073937              -0.000375761               0.999999992               0.000081872              -0.000396838               0.999999992               0.000091988              -0.000423518               0.999999992               0.000103512              -0.000453786               0.999999992               0.000115876              -0.000485982               0.999999992               0.000128653              -0.000519615               0.999999992               0.000141629              -0.000554417               0.999999992               0.000154757              -0.000590066               0.999999992               0.000167826              -0.000626232               0.999999992               0.000180735              -0.000662384               0.999999992               0.000193368              -0.000698158               0.999999992               0.000205654              -0.000733539               0.999999992               0.000217573              -0.000768371               0.999999992               0.000229002              -0.000802395               0.999999992               0.000084771              -0.000463786               0.999999992               0.000056394              -0.000415507               0.999999992               0.000053490              -0.000410761               0.999999992               0.000059479              -0.000425056               0.999999992               0.000069426              -0.000449388               0.999999992               0.000081467              -0.000479822               0.999999992               0.000094734              -0.000514063               0.999999992               0.000108434              -0.000550387               0.999999992               0.000122164              -0.000588242               0.999999992               0.000135930              -0.000627224               0.999999992               0.000149550              -0.000666975               0.999999992               0.000162888              -0.000706989               0.999999992               0.000175781              -0.000746834               0.999999992               0.000188197              -0.000786366               0.999999992               0.000200250              -0.000825445               0.999999992               0.000211984              -0.000863864               0.999999992               0.000223437              -0.000901532               0.999999992               0.000076719              -0.000506802               0.999999992               0.000043564              -0.000463805               0.999999992               0.000038258              -0.000455301               0.999999992               0.000042854              -0.000464998               0.999999992               0.000051711              -0.000484872               0.999999992               0.000062552              -0.000511130               0.999999992               0.000074767              -0.000541536               0.999999992               0.000087328              -0.000574633               0.999999992               0.000099712              -0.000609355               0.999999992               0.000111938              -0.000645340               0.999999992               0.000124026              -0.000682224               0.999999992               0.000135907              -0.000719649               0.999999992               0.000147397              -0.000757314               0.999999992               0.000158363              -0.000794853               0.999999992               0.000168899              -0.000832272               0.999999992               0.000179158              -0.000869392               0.999999992               0.000189481              -0.000905979               0.999999992               0.000067605              -0.000545597               0.999999992               0.000032747              -0.000509783               0.999999992               0.000024982              -0.000500212               0.999999992               0.000027728              -0.000506496               0.999999992               0.000035167              -0.000522582               0.999999992               0.000044718              -0.000545054               0.999999992               0.000055452              -0.000571927               0.999999992               0.000066712              -0.000601796               0.999999992               0.000077732              -0.000633574               0.999999992               0.000088362              -0.000666793               0.999999992               0.000098810              -0.000700969               0.999999992               0.000109142              -0.000735834               0.999999992               0.000119041              -0.000771044               0.999999992               0.000128348              -0.000806409               0.999999992               0.000136986              -0.000841728               0.999999992               0.000145226              -0.000877054               0.999999992               0.000153275              -0.000912306               0.999999992               0.000057753              -0.000579343               0.999999992               0.000023830              -0.000552322               0.999999992               0.000014302              -0.000543622               0.999999992               0.000015158              -0.000547943               0.999999992               0.000020833              -0.000561192               0.999999992               0.000028740              -0.000580665               0.999999992               0.000037778              -0.000604508               0.999999992               0.000047412              -0.000631560               0.999999992               0.000056871              -0.000660743               0.999999992               0.000065986              -0.000691407               0.999999992               0.000074896              -0.000723147               0.999999992               0.000083591              -0.000755680               0.999999992               0.000091800              -0.000788780               0.999999992               0.000099121              -0.000822177               0.999999992               0.000105533              -0.000855641               0.999999992               0.000110911              -0.000889143               0.999999992               0.000115550              -0.000922773               0.999999992               0.000047203              -0.000607580               0.999999992               0.000016711              -0.000589910               0.999999992               0.000006563              -0.000583563               0.999999992               0.000005834              -0.000587274               0.999999992               0.000009702              -0.000598671               0.999999992               0.000015785              -0.000615885               0.999999992               0.000022906              -0.000637451               0.999999992               0.000030658              -0.000662254               0.999999992               0.000038445              -0.000689362               0.999999992               0.000046008              -0.000718022               0.999999992               0.000053320              -0.000747881               0.999999992               0.000060238              -0.000778620               0.999999992               0.000066574              -0.000810055               0.999999992               0.000071955              -0.000842001               0.999999992               0.000076045              -0.000874160               0.999999992               0.000078543              -0.000906341               0.999999992               0.000079270              -0.000938696               0.999999992               0.000035991              -0.000629949               0.999999992               0.000011171              -0.000620994               0.999999992               0.000001767              -0.000617827               0.999999992               0.000000076              -0.000621961               0.999999992               0.000002382              -0.000632435               0.999999992               0.000006571              -0.000648163               0.999999992               0.000011750              -0.000668064               0.999999992               0.000017515              -0.000691247               0.999999992               0.000023428              -0.000716849               0.999999992               0.000029220              -0.000744205               0.999999992               0.000034868              -0.000772836               0.999999992               0.000040082              -0.000802486               0.999999992               0.000044652              -0.000832949               0.999999992               0.000048214              -0.000863986               0.999999992               0.000050363              -0.000895411               0.999999992               0.000050593              -0.000926972               0.999999992               0.000048240              -0.000958620               0.999999992               0.000024299              -0.000646010               0.999999992               0.000006817              -0.000644171               0.999999992              -0.000000433              -0.000644233               0.999999992              -0.000002252              -0.000649317               0.999999992              -0.000001113              -0.000659621               0.999999992               0.000001429              -0.000674521               0.999999992               0.000004674              -0.000693325               0.999999992               0.000008414              -0.000715352               0.999999992               0.000012386              -0.000739925               0.999999992               0.000016353              -0.000766420               0.999999992               0.000020287              -0.000794357               0.999999992               0.000023886              -0.000823457               0.999999992               0.000026852              -0.000853481               0.999999992               0.000028913              -0.000884284               0.999999992               0.000029713              -0.000915622               0.999999992               0.000028627              -0.000947221               0.999999992               0.000025011              -0.000978911               0.999999992               0.000012253              -0.000655700               0.999999992               0.000003205              -0.000658441               0.999999992              -0.000000708              -0.000660872               0.999999992              -0.000001876              -0.000666877               0.999999992              -0.000001449              -0.000677325               0.999999992              -0.000000294              -0.000691910               0.999999992               0.000001256              -0.000710141               0.999999992               0.000003059              -0.000731452               0.999999992               0.000005075              -0.000755252               0.999999992               0.000007100              -0.000781115               0.999999992               0.000009122              -0.000808631               0.999999992               0.000011044              -0.000837606               0.999999992               0.000012579              -0.000867797               0.999999992               0.000013470              -0.000898902               0.999999992               0.000013512              -0.000930678               0.999999992               0.000012383              -0.000962740               0.999999992               0.000009624              -0.000994784               0.999999992              -0.000000000              -0.000658992               0.999999992              -0.000000000              -0.000663266               0.999999992               0.000000000              -0.000666523               0.999999992               0.000000000              -0.000672914               0.999999992              -0.000000000              -0.000683461               0.999999992              -0.000000000              -0.000698018               0.999999992              -0.000000000              -0.000716034               0.999999992              -0.000000000              -0.000737042               0.999999992              -0.000000000              -0.000760582               0.999999992              -0.000000000              -0.000786208               0.999999992              -0.000000000              -0.000813631               0.999999992              -0.000000000              -0.000842562               0.999999992               0.000000000              -0.000872841               0.999999992               0.000000000              -0.000904265               0.999999992              -0.000000000              -0.000936367               0.999999992              -0.000000000              -0.000968721               0.999999992               0.000000000              -0.001000967               0.999999992               0.000126557              -0.000000000               0.999999992               0.000152446              -0.000000000               0.999999992               0.000164479              -0.000000000               0.999999992               0.000171328              -0.000000000               0.999999992               0.000176602               0.000000000               0.999999992               0.000181719              -0.000000000               0.999999992               0.000187218               0.000000000               0.999999992               0.000193473               0.000000000               0.999999992               0.000200657               0.000000000               0.999999992               0.000208768               0.000000000               0.999999992               0.000217745              -0.000000000               0.999999992               0.000227626              -0.000000000               0.999999992               0.000238423               0.000000000               0.999999992               0.000250113               0.000000000               0.999999992               0.000262730               0.000000000               0.999999992               0.000276181               0.000000000               0.999999992               0.000290209               0.000000000               0.999999992               0.000125787               0.000065170               0.999999992               0.000150337               0.000056446               0.999999992               0.000161589               0.000053671               0.999999992               0.000168081               0.000054239               0.999999992               0.000173180               0.000056706               0.999999992               0.000178204               0.000060291               0.999999992               0.000183678               0.000064514               0.999999992               0.000189919               0.000069312               0.999999992               0.000197079               0.000074472               0.999999992               0.000205159               0.000079831               0.999999992               0.000214145               0.000085330               0.999999992               0.000224026               0.000090923               0.999999992               0.000234780               0.000096538               0.999999992               0.000246413               0.000102138               0.999999992               0.000258899               0.000107523               0.999999992               0.000272140               0.000112420               0.999999992               0.000285935               0.000116189               0.999999992               0.000123460               0.000129629               0.999999992               0.000144129               0.000112326               0.999999992               0.000153231               0.000107149               0.999999992               0.000158660               0.000108549               0.999999992               0.000163349               0.000113631               0.999999992               0.000168311               0.000120793               0.999999992               0.000173904               0.000129265               0.999999992               0.000180373               0.000138804               0.999999992               0.000187775               0.000149124               0.999999992               0.000196086               0.000159863               0.999999992               0.000205295               0.000170793               0.999999992               0.000215413               0.000181911               0.999999992               0.000226365               0.000193167               0.999999992               0.000238073               0.000204329               0.999999992               0.000250432               0.000215090               0.999999992               0.000263358               0.000225089               0.999999992               0.000276721               0.000233716               0.999999992               0.000119708               0.000192640               0.999999992               0.000134270               0.000167127               0.999999992               0.000140352               0.000160211               0.999999992               0.000144525               0.000162911               0.999999992               0.000148888               0.000170865               0.999999992               0.000154003               0.000181722               0.999999992               0.000160037               0.000194550               0.999999992               0.000167074               0.000208897               0.999999992               0.000175099               0.000224183               0.999999992               0.000184027               0.000240093               0.999999992               0.000193794               0.000256356               0.999999992               0.000204336               0.000273010               0.999999992               0.000215568               0.000289843               0.999999992               0.000227426               0.000306517               0.999999992               0.000239756               0.000322782               0.999999992               0.000252393               0.000338169               0.999999992               0.000265241               0.000352143               0.999999992               0.000114726               0.000253526               0.999999992               0.000121520               0.000220431               0.999999992               0.000124343               0.000212617               0.999999992               0.000127525               0.000217103               0.999999992               0.000131900               0.000228151               0.999999992               0.000137491               0.000243011               0.999999992               0.000144291               0.000260333               0.999999992               0.000152283               0.000279396               0.999999992               0.000161301               0.000299564               0.999999992               0.000171097               0.000320470               0.999999992               0.000181594               0.000341899               0.999999992               0.000192687               0.000363978               0.999999992               0.000204270               0.000386282               0.999999992               0.000216198               0.000408418               0.999999992               0.000228371               0.000430160               0.999999992               0.000240696               0.000451031               0.999999992               0.000253147               0.000470821               0.999999992               0.000108635               0.000311692               0.999999992               0.000106543               0.000272057               0.999999992               0.000106356               0.000264221               0.999999992               0.000109007               0.000271029               0.999999992               0.000113863               0.000285475               0.999999992               0.000120530               0.000304411               0.999999992               0.000128690               0.000326117               0.999999992               0.000138072               0.000349715               0.999999992               0.000148308               0.000374591               0.999999992               0.000159133               0.000400312               0.999999992               0.000170482               0.000426823               0.999999992               0.000182211               0.000453963               0.999999992               0.000194209               0.000481391               0.999999992               0.000206394               0.000508598               0.999999992               0.000218633               0.000535355               0.999999992               0.000230937               0.000561479               0.999999992               0.000243292               0.000586915               0.999999992               0.000101461               0.000366562               0.999999992               0.000090037               0.000321913               0.999999992               0.000087667               0.000314798               0.999999992               0.000090659               0.000324204               0.999999992               0.000096800               0.000342015               0.999999992               0.000105118               0.000364817               0.999999992               0.000114938               0.000390856               0.999999992               0.000125773               0.000418868               0.999999992               0.000137274               0.000448218               0.999999992               0.000149231               0.000478573               0.999999992               0.000161512               0.000509806               0.999999992               0.000173970               0.000541741               0.999999992               0.000186522               0.000573775               0.999999992               0.000199040               0.000605470               0.999999992               0.000211460               0.000636807               0.999999992               0.000223749               0.000667527               0.999999992               0.000235761               0.000697601               0.999999992               0.000093278               0.000417586               0.999999992               0.000073071               0.000369769               0.999999992               0.000069707               0.000363819               0.999999992               0.000073937               0.000375761               0.999999992               0.000081872               0.000396838               0.999999992               0.000091988               0.000423518               0.999999992               0.000103512               0.000453786               0.999999992               0.000115876               0.000485982               0.999999992               0.000128653               0.000519615               0.999999992               0.000141629               0.000554417               0.999999992               0.000154757               0.000590066               0.999999992               0.000167826               0.000626232               0.999999992               0.000180735               0.000662384               0.999999992               0.000193368               0.000698158               0.999999992               0.000205654               0.000733539               0.999999992               0.000217573               0.000768371               0.999999992               0.000229002               0.000802395               0.999999992               0.000084771               0.000463786               0.999999992               0.000056394               0.000415507               0.999999992               0.000053490               0.000410761               0.999999992               0.000059479               0.000425056               0.999999992               0.000069426               0.000449388               0.999999992               0.000081467               0.000479822               0.999999992               0.000094734               0.000514063               0.999999992               0.000108434               0.000550387               0.999999992               0.000122164               0.000588242               0.999999992               0.000135930               0.000627224               0.999999992               0.000149550               0.000666975               0.999999992               0.000162888               0.000706989               0.999999992               0.000175781               0.000746834               0.999999992               0.000188197               0.000786366               0.999999992               0.000200250               0.000825445               0.999999992               0.000211984               0.000863864               0.999999992               0.000223437               0.000901532               0.999999992               0.000076719               0.000506802               0.999999992               0.000043564               0.000463805               0.999999992               0.000038258               0.000455301               0.999999992               0.000042854               0.000464998               0.999999992               0.000051711               0.000484872               0.999999992               0.000062552               0.000511130               0.999999992               0.000074767               0.000541536               0.999999992               0.000087328               0.000574633               0.999999992               0.000099712               0.000609355               0.999999992               0.000111938               0.000645340               0.999999992               0.000124026               0.000682224               0.999999992               0.000135907               0.000719649               0.999999992               0.000147397               0.000757314               0.999999992               0.000158363               0.000794853               0.999999992               0.000168899               0.000832272               0.999999992               0.000179158               0.000869392               0.999999992               0.000189481               0.000905979               0.999999992               0.000067605               0.000545597               0.999999992               0.000032747               0.000509783               0.999999992               0.000024982               0.000500212               0.999999992               0.000027728               0.000506496               0.999999992               0.000035167               0.000522582               0.999999992               0.000044718               0.000545054               0.999999992               0.000055452               0.000571927               0.999999992               0.000066712               0.000601796               0.999999992               0.000077732               0.000633574               0.999999992               0.000088362               0.000666793               0.999999992               0.000098810               0.000700969               0.999999992               0.000109142               0.000735834               0.999999992               0.000119041               0.000771044               0.999999992               0.000128348               0.000806409               0.999999992               0.000136986               0.000841728               0.999999992               0.000145226               0.000877054               0.999999992               0.000153275               0.000912306               0.999999992               0.000057753               0.000579343               0.999999992               0.000023830               0.000552322               0.999999992               0.000014302               0.000543622               0.999999992               0.000015158               0.000547943               0.999999992               0.000020833               0.000561192               0.999999992               0.000028740               0.000580665               0.999999992               0.000037778               0.000604508               0.999999992               0.000047412               0.000631560               0.999999992               0.000056871               0.000660743               0.999999992               0.000065986               0.000691407               0.999999992               0.000074896               0.000723147               0.999999992               0.000083591               0.000755680               0.999999992               0.000091800               0.000788780               0.999999992               0.000099121               0.000822177               0.999999992               0.000105533               0.000855641               0.999999992               0.000110911               0.000889143               0.999999992               0.000115550               0.000922773               0.999999992               0.000047203               0.000607580               0.999999992               0.000016711               0.000589910               0.999999992               0.000006563               0.000583563               0.999999992               0.000005834               0.000587274               0.999999992               0.000009702               0.000598671               0.999999992               0.000015785               0.000615885               0.999999992               0.000022906               0.000637451               0.999999992               0.000030658               0.000662254               0.999999992               0.000038445               0.000689362               0.999999992               0.000046008               0.000718022               0.999999992               0.000053320               0.000747881               0.999999992               0.000060238               0.000778620               0.999999992               0.000066574               0.000810055               0.999999992               0.000071955               0.000842001               0.999999992               0.000076045               0.000874160               0.999999992               0.000078543               0.000906341               0.999999992               0.000079270               0.000938696               0.999999992               0.000035991               0.000629949               0.999999992               0.000011171               0.000620994               0.999999992               0.000001767               0.000617827               0.999999992               0.000000076               0.000621961               0.999999992               0.000002382               0.000632435               0.999999992               0.000006571               0.000648163               0.999999992               0.000011750               0.000668064               0.999999992               0.000017515               0.000691247               0.999999992               0.000023428               0.000716849               0.999999992               0.000029220               0.000744205               0.999999992               0.000034868               0.000772836               0.999999992               0.000040082               0.000802486               0.999999992               0.000044652               0.000832949               0.999999992               0.000048214               0.000863986               0.999999992               0.000050363               0.000895411               0.999999992               0.000050593               0.000926972               0.999999992               0.000048240               0.000958620               0.999999992               0.000024299               0.000646010               0.999999992               0.000006817               0.000644171               0.999999992              -0.000000433               0.000644233               0.999999992              -0.000002252               0.000649317               0.999999992              -0.000001113               0.000659621               0.999999992               0.000001429               0.000674521               0.999999992               0.000004674               0.000693325               0.999999992               0.000008414               0.000715352               0.999999992               0.000012386               0.000739925               0.999999992               0.000016353               0.000766420               0.999999992               0.000020287               0.000794357               0.999999992               0.000023886               0.000823457               0.999999992               0.000026852               0.000853481               0.999999992               0.000028913               0.000884284               0.999999992               0.000029713               0.000915622               0.999999992               0.000028627               0.000947221               0.999999992               0.000025011               0.000978911               0.999999992               0.000012253               0.000655700               0.999999992               0.000003205               0.000658441               0.999999992              -0.000000708               0.000660872               0.999999992              -0.000001876               0.000666877               0.999999992              -0.000001449               0.000677325               0.999999992              -0.000000294               0.000691910               0.999999992               0.000001256               0.000710141               0.999999992               0.000003059               0.000731452               0.999999992               0.000005075               0.000755252               0.999999992               0.000007100               0.000781115               0.999999992               0.000009122               0.000808631               0.999999992               0.000011044               0.000837606               0.999999992               0.000012579               0.000867797               0.999999992               0.000013470               0.000898902               0.999999992               0.000013512               0.000930678               0.999999992               0.000012383               0.000962740               0.999999992               0.000009624               0.000994784               0.999999992               0.000000000               0.000658992               0.999999992              -0.000000000               0.000663266               0.999999992               0.000000000               0.000666523               0.999999992              -0.000000000               0.000672914               0.999999992               0.000000000               0.000683461               0.999999992               0.000000000               0.000698018               0.999999992               0.000000000               0.000716034               0.999999992               0.000000000               0.000737042               0.999999992               0.000000000               0.000760582               0.999999992              -0.000000000               0.000786208               0.999999992              -0.000000000               0.000813631               0.999999992              -0.000000000               0.000842562               0.999999992               0.000000000               0.000872841               0.999999992              -0.000000000               0.000904265               0.999999992              -0.000000000               0.000936367               0.999999992              -0.000000000               0.000968721               0.999999992               0.000000000               0.001000967               0.999999992 </DataArray>
<DataArray type="Float64"                                    Name="defo"                                                      NumberOfComponents=" 3" format="ascii">
             -0.000126557              -0.000000000               0.999999992              -0.000152446               0.000000000               0.999999992              -0.000164479               0.000000000               0.999999992              -0.000171328              -0.000000000               0.999999992              -0.000176602              -0.000000000               0.999999992              -0.000181719              -0.000000000               0.999999992              -0.000187218              -0.000000000               0.999999992              -0.000193473               0.000000000               0.999999992              -0.000200657               0.000000000               0.999999992              -0.000208768               0.000000000               0.999999992              -0.000217745              -0.000000000               0.999999992              -0.000227626               0.000000000               0.999999992              -0.000238423               0.000000000               0.999999992              -0.000250113               0.000000000               0.999999992              -0.000262730               0.000000000               0.999999992              -0.000276181               0.000000000               0.999999992              -0.000290209               0.000000000               0.999999992              -0.000125787               0.000065170               0.999999992              -0.000150337               0.000056446               0.999999992              -0.000161589               0.000053671               0.999999992              -0.000168081               0.000054239               0.999999992              -0.000173180               0.000056706               0.999999992              -0.000178204               0.000060291               0.999999992              -0.000183678               0.000064514               0.999999992              -0.000189919               0.000069312               0.999999992              -0.000197079               0.000074472               0.999999992              -0.000205159               0.000079831               0.999999992              -0.000214145               0.000085330               0.999999992              -0.000224026               0.000090923               0.999999992              -0.000234780               0.000096538               0.999999992              -0.000246413               0.000102138               0.999999992              -0.000258899               0.000107523               0.999999992              -0.000272140               0.000112420               0.999999992              -0.000285935               0.000116189               0.999999992              -0.000123460               0.000129629               0.999999992              -0.000144129               0.000112326               0.999999992              -0.000153231               0.000107149               0.999999992              -0.000158660               0.000108549               0.999999992              -0.000163349               0.000113631               0.999999992              -0.000168311               0.000120793               0.999999992              -0.000173904               0.000129265               0.999999992              -0.000180373               0.000138804               0.999999992              -0.000187775               0.000149124               0.999999992              -0.000196086               0.000159863               0.999999992              -0.000205295               0.000170793               0.999999992              -0.000215413               0.000181911               0.999999992              -0.000226365               0.000193167               0.999999992              -0.000238073               0.000204329               0.999999992              -0.000250432               0.000215090               0.999999992              -0.000263358               0.000225089               0.999999992              -0.000276721               0.000233716               0.999999992              -0.000119708               0.000192640               0.999999992              -0.000134270               0.000167127               0.999999992              -0.000140352               0.000160211               0.999999992              -0.000144525               0.000162911               0.999999992              -0.000148888               0.000170865               0.999999992              -0.000154003               0.000181722               0.999999992              -0.000160037               0.000194550               0.999999992              -0.000167074               0.000208897               0.999999992              -0.000175099               0.000224183               0.999999992              -0.000184027               0.000240093               0.999999992              -0.000193794               0.000256356               0.999999992              -0.000204336               0.000273010               0.999999992              -0.000215568               0.000289843               0.999999992              -0.000227426               0.000306517               0.999999992              -0.000239756               0.000322782               0.999999992              -0.000252393               0.000338169               0.999999992              -0.000265241               0.000352143               0.999999992              -0.000114726               0.000253526               0.999999992              -0.000121520               0.000220431               0.999999992              -0.000124343               0.000212617               0.999999992              -0.000127525               0.000217103               0.999999992              -0.000131900               0.000228151               0.999999992              -0.000137491               0.000243011               0.999999992              -0.000144291               0.000260333               0.999999992              -0.000152283               0.000279396               0.999999992              -0.000161301               0.000299564               0.999999992              -0.000171097               0.000320470               0.999999992              -0.000181594               0.000341899               0.999999992              -0.000192687               0.000363978               0.999999992              -0.000204270               0.000386282               0.999999992              -0.000216198               0.000408418               0.999999992              -0.000228371               0.000430160               0.999999992              -0.000240696               0.000451031               0.999999992              -0.000253147               0.000470821               0.999999992              -0.000108635               0.000311692               0.999999992              -0.000106543               0.000272057               0.999999992              -0.000106356               0.000264221               0.999999992              -0.000109007               0.000271029               0.999999992              -0.000113863               0.000285475               0.999999992              -0.000120530               0.000304411               0.999999992              -0.000128690               0.000326117               0.999999992              -0.000138072               0.000349715               0.999999992              -0.000148308               0.000374591               0.999999992              -0.000159133               0.000400312               0.999999992              -0.000170482               0.000426823               0.999999992              -0.000182211               0.000453963               0.999999992              -0.000194209               0.000481391               0.999999992              -0.000206394               0.000508598               0.999999992              -0.000218633               0.000535355               0.999999992              -0.000230937               0.000561479               0.999999992              -0.000243292               0.000586915               0.999999992              -0.000101461               0.000366562               0.999999992              -0.000090037               0.000321913               0.999999992              -0.000087667               0.000314798               0.999999992              -0.000090659               0.000324204               0.999999992              -0.000096800               0.000342015               0.999999992              -0.000105118               0.000364817               0.999999992              -0.000114938               0.000390856               0.999999992              -0.000125773               0.000418868               0.999999992              -0.000137274               0.000448218               0.999999992              -0.000149231               0.000478573               0.999999992              -0.000161512               0.000509806               0.999999992              -0.000173970               0.000541741               0.999999992              -0.000186522               0.000573775               0.999999992              -0.000199040               0.000605470               0.999999992              -0.000211460               0.000636807               0.999999992              -0.000223749               0.000667527               0.999999992              -0.000235761               0.000697601               0.999999992              -0.000093278               0.000417586               0.999999992              -0.000073071               0.000369769               0.999999992              -0.000069707               0.000363819               0.999999992              -0.000073937               0.000375761               0.999999992              -0.000081872               0.000396838               0.999999992              -0.000091988               0.000423518               0.999999992              -0.000103512               0.000453786               0.999999992              -0.000115876               0.000485982               0.999999992              -0.000128653               0.000519615               0.999999992              -0.000141629               0.000554417               0.999999992              -0.000154757               0.000590066               0.999999992              -0.000167826               0.000626232               0.999999992              -0.000180735               0.000662384               0.999999992              -0.000193368               0.000698158               0.999999992              -0.000205654               0.000733539               0.999999992              -0.000217573               0.000768371               0.999999992              -0.000229002               0.000802395               0.999999992              -0.000084771               0.000463786               0.999999992              -0.000056394               0.000415507               0.999999992              -0.000053490               0.000410761               0.999999992              -0.000059479               0.000425056               0.999999992              -0.000069426               0.000449388               0.999999992              -0.000081467               0.000479822               0.999999992              -0.000094734               0.000514063               0.999999992              -0.000108434               0.000550387               0.999999992              -0.000122164               0.000588242               0.999999992              -0.000135930               0.000627224               0.999999992              -0.000149550               0.000666975               0.999999992              -0.000162888               0.000706989               0.999999992              -0.000175781               0.000746834               0.999999992              -0.000188197               0.000786366               0.999999992              -0.000200250               0.000825445               0.999999992              -0.000211984               0.000863864               0.999999992              -0.000223437               0.000901532               0.999999992              -0.000076719               0.000506802               0.999999992              -0.000043564               0.000463805               0.999999992              -0.000038258               0.000455301               0.999999992              -0.000042854               0.000464998               0.999999992              -0.000051711               0.000484872               0.999999992              -0.000062552               0.000511130               0.999999992              -0.000074767               0.000541536               0.999999992              -0.000087328               0.000574633               0.999999992              -0.000099712               0.000609355               0.999999992              -0.000111938               0.000645340               0.999999992              -0.000124026               0.000682224               0.999999992              -0.000135907               0.000719649               0.999999992              -0.000147397               0.000757314               0.999999992              -0.000158363               0.000794853               0.999999992              -0.000168899               0.000832272               0.999999992              -0.000179158               0.000869392               0.999999992              -0.000189481               0.000905979               0.999999992              -0.000067605               0.000545597               0.999999992              -0.000032747               0.000509783               0.999999992              -0.000024982               0.000500212               0.999999992              -0.000027728               0.000506496               0.999999992              -0.000035167               0.000522582               0.999999992              -0.000044718               0.000545054               0.999999992              -0.000055452               0.000571927               0.999999992              -0.000066712               0.000601796               0.999999992              -0.000077732               0.000633574               0.999999992              -0.000088362               0.000666793               0.999999992              -0.000098810               0.000700969               0.999999992              -0.000109142               0.000735834               0.999999992              -0.000119041               0.000771044               0.999999992              -0.000128348               0.000806409               0.999999992              -0.000136986               0.000841728               0.999999992              -0.000145226               0.000877054               0.999999992              -0.000153275               0.000912306               0.999999992              -0.000057753               0.000579343               0.999999992              -0.000023830               0.000552322               0.999999992              -0.000014302               0.000543622               0.999999992              -0.000015158               0.000547943               0.999999992              -0.000020833               0.000561192               0.999999992              -0.000028740               0.000580665               0.999999992              -0.000037778               0.000604508               0.999999992              -0.000047412               0.000631560               0.999999992              -0.000056871               0.000660743               0.999999992              -0.000065986               0.000691407               0.999999992              -0.000074896               0.000723147               0.999999992              -0.000083591               0.000755680               0.999999992              -0.000091800               0.000788780               0.999999992              -0.000099121               0.000822177               0.999999992              -0.000105533               0.000855641               0.999999992              -0.000110911               0.000889143               0.999999992              -0.000115550               0.000922773               0.999999992              -0.000047203               0.000607580               0.999999992              -0.000016711               0.000589910               0.999999992              -0.000006563               0.000583563               0.999999992              -0.000005834               0.000587274               0.999999992              -0.000009702               0.000598671               0.999999992              -0.000015785               0.000615885               0.999999992              -0.000022906               0.000637451               0.999999992              -0.000030658               0.000662254               0.999999992              -0.000038445               0.000689362               0.999999992              -0.000046008               0.000718022               0.999999992              -0.000053320               0.000747881               0.999999992              -0.000060238               0.000778620               0.999999992              -0.000066574               0.000810055               0.999999992              -0.000071955               0.000842001               0.999999992              -0.000076045               0.000874160               0.999999992              -0.000078543               0.000906341               0.999999992              -0.000079270               0.000938696               0.999999992              -0.000035991               0.000629949               0.999999992              -0.000011171               0.000620994               0.999999992              -0.000001767               0.000617827               0.999999992              -0.000000076               0.000621961               0.999999992              -0.000002382               0.000632435               0.999999992              -0.000006571               0.000648163               0.999999992              -0.000011750               0.000668064               0.999999992              -0.000017515               0.000691247               0.999999992              -0.000023428               0.000716849               0.999999992              -0.000029220               0.000744205               0.999999992              -0.000034868               0.000772836               0.999999992              -0.000040082               0.000802486               0.999999992              -0.000044652               0.000832949               0.999999992              -0.000048214               0.000863986               0.999999992              -0.000050363               0.000895411               0.999999992              -0.000050593               0.000926972               0.999999992              -0.000048240               0.000958620               0.999999992              -0.000024299               0.000646010               0.999999992              -0.000006817               0.000644171               0.999999992               0.000000433               0.000644233               0.999999992               0.000002252               0.000649317               0.999999992               0.000001113               0.000659621               0.999999992              -0.000001429               0.000674521               0.999999992              -0.000004674               0.000693325               0.999999992              -0.000008414               0.000715352               0.999999992              -0.000012386               0.000739925               0.999999992              -0.000016353               0.000766420               0.999999992              -0.000020287               0.000794357               0.999999992              -0.000023886               0.000823457               0.999999992              -0.000026852               0.000853481               0.999999992              -0.000028913               0.000884284               0.999999992              -0.000029713               0.000915622               0.999999992              -0.000028627               0.000947221               0.999999992              -0.000025011               0.000978911               0.999999992              -0.000012253               0.000655700               0.999999992              -0.000003205               0.000658441               0.999999992               0.000000708               0.000660872               0.999999992               0.000001876               0.000666877               0.999999992               0.000001449               0.000677325               0.999999992               0.000000294               0.000691910               0.999999992              -0.000001256               0.000710141               0.999999992              -0.000003059               0.000731452               0.999999992              -0.000005075               0.000755252               0.999999992              -0.000007100               0.000781115               0.999999992              -0.000009122               0.000808631               0.999999992              -0.000011044               0.000837606               0.999999992              -0.000012579               0.000867797               0.999999992              -0.000013470               0.000898902               0.999999992              -0.000013512               0.000930678               0.999999992              -0.000012383               0.000962740               0.999999992              -0.000009624               0.000994784               0.999999992               0.000000000               0.000658992               0.999999992              -0.000000000               0.000663266               0.999999992               0.000000000               0.000666523               0.999999992              -0.000000000               0.000672914               0.999999992               0.000000000               0.000683461               0.999999992               0.000000000               0.000698018               0.999999992               0.000000000               0.000716034               0.999999992               0.000000000               0.000737042               0.999999992               0.000000000               0.000760582               0.999999992              -0.000000000               0.000786208               0.999999992              -0.000000000               0.000813631               0.999999992              -0.000000000               0.000842562               0.999999992               0.000000000               0.000872841               0.999999992              -0.000000000               0.000904265               0.999999992              -0.000000000               0.000936367               0.999999992              -0.000000000               0.000968721               0.999999992               0.000000000               0.001000967               0.999999992              -0.000126557              -0.000000000               0.999999992              -0.000152446               0.000000000               0.999999992              -0.000164479               0.000000000               0.999999992              -0.000171328              -0.000000000               0.999999992              -0.000176602              -0.000000000               0.999999992              -0.000181719              -0.000000000               0.999999992              -0.000187218              -0.000000000               0.999999992              -0.000193473               0.000000000               0.999999992              -0.000200657               0.000000000               0.999999992              -0.000208768               0.000000000               0.999999992              -0.000217745              -0.000000000               0.999999992              -0.000227626               0.000000000               0.999999992              -0.000238423               0.000000000               0.999999992              -0.000250113               0.000000000               0.999999992              -0.000262730               0.000000000               0.999999992              -0.000276181               0.000000000               0.999999992              -0.000290209               0.000000000               0.999999992              -0.000125787              -0.000065170               0.999999992              -0.000150337              -0.000056446               0.999999992              -0.000161589              -0.000053671               0.999999992              -0.000168081              -0.000054239               0.999999992              -0.000173180              -0.000056706               0.999999992              -0.000178204              -0.000060291               0.999999992              -0.000183678              -0.000064514               0.999999992              -0.000189919              -0.000069312               0.999999992              -0.000197079              -0.000074472               0.999999992              -0.000205159              -0.000079831               0.999999992              -0.000214145              -0.000085330               0.999999992              -0.000224026              -0.000090923               0.999999992              -0.000234780              -0.000096538               0.999999992              -0.000246413              -0.000102138               0.999999992              -0.000258899              -0.000107523               0.999999992              -0.000272140              -0.000112420               0.999999992              -0.000285935              -0.000116189               0.999999992              -0.000123460              -0.000129629               0.999999992              -0.000144129              -0.000112326               0.999999992              -0.000153231              -0.000107149               0.999999992              -0.000158660              -0.000108549               0.999999992              -0.000163349              -0.000113631               0.999999992              -0.000168311              -0.000120793               0.999999992              -0.000173904              -0.000129265               0.999999992              -0.000180373              -0.000138804               0.999999992              -0.000187775              -0.000149124               0.999999992              -0.000196086              -0.000159863               0.999999992              -0.000205295              -0.000170793               0.999999992              -0.000215413              -0.000181911               0.999999992              -0.000226365              -0.000193167               0.999999992              -0.000238073              -0.000204329               0.999999992              -0.000250432              -0.000215090               0.999999992              -0.000263358              -0.000225089               0.999999992              -0.000276721              -0.000233716               0.999999992              -0.000119708              -0.000192640               0.999999992              -0.000134270              -0.000167127               0.999999992              -0.000140352              -0.000160211               0.999999992              -0.000144525              -0.000162911               0.999999992              -0.000148888              -0.000170865               0.999999992              -0.000154003              -0.000181722               0.999999992              -0.000160037              -0.000194550               0.999999992              -0.000167074              -0.000208897               0.999999992              -0.000175099              -0.000224183               0.999999992              -0.000184027              -0.000240093               0.999999992              -0.000193794              -0.000256356               0.999999992              -0.000204336              -0.000273010               0.999999992              -0.000215568              -0.000289843               0.999999992              -0.000227426              -0.000306517               0.999999992              -0.000239756              -0.000322782               0.999999992              -0.000252393              -0.000338169               0.999999992              -0.000265241              -0.000352143               0.999999992              -0.000114726              -0.000253526               0.999999992              -0.000121520              -0.000220431               0.999999992              -0.000124343              -0.000212617               0.999999992              -0.000127525              -0.000217103               0.999999992              -0.000131900              -0.000228151               0.999999992              -0.000137491              -0.000243011               0.999999992              -0.000144291              -0.000260333               0.999999992              -0.000152283              -0.000279396               0.999999992              -0.000161301              -0.000299564               0.999999992              -0.000171097              -0.000320470               0.999999992              -0.000181594              -0.000341899               0.999999992              -0.000192687              -0.000363978               0.999999992              -0.000204270              -0.000386282               0.999999992              -0.000216198              -0.000408418               0.999999992              -0.000228371              -0.000430160               0.999999992              -0.000240696              -0.000451031               0.999999992              -0.000253147              -0.000470821               0.999999992              -0.000108635              -0.000311692               0.999999992              -0.000106543              -0.000272057               0.999999992              -0.000106356              -0.000264221               0.999999992              -0.000109007              -0.000271029               0.999999992              -0.000113863              -0.000285475               0.999999992              -0.000120530              -0.000304411               0.999999992              -0.000128690              -0.000326117               0.999999992              -0.000138072              -0.000349715               0.999999992              -0.000148308              -0.000374591               0.999999992              -0.000159133              -0.000400312               0.999999992              -0.000170482              -0.000426823               0.999999992              -0.000182211              -0.000453963               0.999999992              -0.000194209              -0.000481391               0.999999992              -0.000206394              -0.000508598               0.999999992              -0.000218633              -0.000535355               0.999999992              -0.000230937              -0.000561479               0.999999992              -0.000243292              -0.000586915               0.999999992              -0.000101461              -0.000366562               0.999999992              -0.000090037              -0.000321913               0.999999992              -0.000087667              -0.000314798               0.999999992              -0.000090659              -0.000324204               0.999999992              -0.000096800              -0.000342015               0.999999992              -0.000105118              -0.000364817               0.999999992              -0.000114938              -0.000390856               0.999999992              -0.000125773              -0.000418868               0.999999992              -0.000137274              -0.000448218               0.999999992              -0.000149231              -0.000478573               0.999999992              -0.000161512              -0.000509806               0.999999992              -0.000173970              -0.000541741               0.999999992              -0.000186522              -0.000573775               0.999999992              -0.000199040              -0.000605470               0.999999992              -0.000211460              -0.000636807               0.999999992              -0.000223749              -0.000667527               0.999999992              -0.000235761              -0.000697601               0.999999992              -0.000093278              -0.000417586               0.999999992              -0.000073071              -0.000369769               0.999999992              -0.000069707              -0.000363819               0.999999992              -0.000073937              -0.000375761               0.999999992              -0.000081872              -0.000396838               0.999999992              -0.000091988              -0.000423518               0.999999992              -0.000103512              -0.000453786               0.999999992              -0.000115876              -0.000485982               0.999999992              -0.000128653              -0.000519615               0.999999992              -0.000141629              -0.000554417               0.999999992              -0.000154757              -0.000590066               0.999999992              -0.000167826              -0.000626232               0.999999992              -0.000180735              -0.000662384               0.999999992              -0.000193368              -0.000698158               0.999999992              -0.000205654              -0.000733539               0.999999992              -0.000217573              -0.000768371               0.999999992              -0.000229002              -0.000802395               0.999999992              -0.000084771              -0.000463786               0.999999992              -0.000056394              -0.000415507               0.999999992              -0.000053490              -0.000410761               0.999999992              -0.000059479              -0.000425056               0.999999992              -0.000069426              -0.000449388               0.999999992              -0.000081467              -0.000479822               0.999999992              -0.000094734              -0.000514063               0.999999992              -0.000108434              -0.000550387               0.999999992              -0.000122164              -0.000588242               0.999999992              -0.000135930              -0.000627224               0.999999992              -0.000149550              -0.000666975               0.999999992              -0.000162888              -0.000706989               0.999999992              -0.000175781              -0.000746834               0.999999992              -0.000188197              -0.000786366               0.999999992              -0.000200250              -0.000825445               0.999999992              -0.000211984              -0.000863864               0.999999992              -0.000223437              -0.000901532               0.999999992              -0.000076719              -0.000506802               0.999999992              -0.000043564              -0.000463805               0.999999992              -0.000038258              -0.000455301               0.999999992              -0.000042854              -0.000464998               0.999999992              -0.000051711              -0.000484872               0.999999992              -0.000062552              -0.000511130               0.999999992              -0.000074767              -0.000541536               0.999999992              -0.000087328              -0.000574633               0.999999992              -0.000099712              -0.000609355               0.999999992              -0.000111938              -0.000645340               0.999999992              -0.000124026              -0.000682224               0.999999992              -0.000135907              -0.000719649               0.999999992              -0.000147397              -0.000757314               0.999999992              -0.000158363              -0.000794853               0.999999992              -0.000168899              -0.000832272               0.999999992              -0.000179158              -0.000869392               0.999999992              -0.000189481              -0.000905979               0.999999992              -0.000067605              -0.000545597               0.999999992              -0.000032747              -0.000509783               0.999999992              -0.000024982              -0.000500212               0.999999992              -0.000027728              -0.000506496               0.999999992              -0.000035167              -0.000522582               0.999999992              -0.000044718              -0.000545054               0.999999992              -0.000055452              -0.000571927               0.999999992              -0.000066712              -0.000601796               0.999999992              -0.000077732              -0.000633574               0.999999992              -0.000088362              -0.000666793               0.999999992              -0.000098810              -0.000700969               0.999999992              -0.000109142              -0.000735834               0.999999992              -0.000119041              -0.000771044               0.999999992              -0.000128348              -0.000806409               0.999999992              -0.000136986              -0.000841728               0.999999992              -0.000145226              -0.000877054               0.999999992              -0.000153275              -0.000912306               0.999999992              -0.000057753              -0.000579343               0.999999992              -0.000023830              -0.000552322               0.999999992              -0.000014302              -0.000543622               0.999999992              -0.000015158              -0.000547943               0.999999992              -0.000020833              -0.000561192               0.999999992              -0.000028740              -0.000580665               0.999999992              -0.000037778              -0.000604508               0.999999992              -0.000047412              -0.000631560               0.999999992              -0.000056871              -0.000660743               0.999999992              -0.000065986              -0.000691407               0.999999992              -0.000074896              -0.000723147               0.999999992              -0.000083591              -0.000755680               0.999999992              -0.000091800              -0.000788780               0.999999992              -0.000099121              -0.000822177               0.999999992              -0.000105533              -0.000855641               0.999999992              -0.000110911              -0.000889143               0.999999992              -0.000115550              -0.000922773               0.999999992              -0.000047203              -0.000607580               0.999999992              -0.000016711              -0.000589910               0.999999992              -0.000006563              -0.000583563               0.999999992              -0.000005834              -0.000587274               0.999999992              -0.000009702              -0.000598671               0.999999992              -0.000015785              -0.000615885               0.999999992              -0.000022906              -0.000637451               0.999999992              -0.000030658              -0.000662254               0.999999992              -0.000038445              -0.000689362               0.999999992              -0.000046008              -0.000718022               0.999999992              -0.000053320              -0.000747881               0.999999992              -0.000060238              -0.000778620               0.999999992              -0.000066574              -0.000810055               0.999999992              -0.000071955              -0.000842001               0.999999992              -0.000076045              -0.000874160               0.999999992              -0.000078543              -0.000906341               0.999999992              -0.000079270              -0.000938696               0.999999992              -0.000035991              -0.000629949               0.999999992              -0.000011171              -0.000620994               0.999999992              -0.000001767              -0.000617827               0.999999992              -0.000000076              -0.000621961               0.999999992              -0.000002382              -0.000632435               0.999999992              -0.000006571              -0.000648163               0.999999992              -0.000011750              -0.000668064               0.999999992              -0.000017515              -0.000691247               0.999999992              -0.000023428              -0.000716849               0.999999992              -0.000029220              -0.000744205               0.999999992              -0.000034868              -0.000772836               0.999999992              -0.000040082              -0.000802486               0.999999992              -0.000044652              -0.000832949               0.999999992              -0.000048214              -0.000863986               0.999999992              -0.000050363              -0.000895411               0.999999992              -0.000050593              -0.000926972               0.999999992              -0.000048240              -0.000958620               0.999999992              -0.000024299              -0.000646010               0.999999992              -0.000006817              -0.000644171               0.999999992               0.000000433              -0.000644233               0.999999992               0.000002252              -0.000649317               0.999999992               0.000001113              -0.000659621               0.999999992              -0.000001429              -0.000674521               0.999999992              -0.000004674              -0.000693325               0.999999992              -0.000008414              -0.000715352               0.999999992              -0.000012386              -0.000739925               0.999999992              -0.000016353              -0.000766420               0.999999992              -0.000020287              -0.000794357               0.999999992              -0.000023886              -0.000823457               0.999999992              -0.000026852              -0.000853481               0.999999992              -0.000028913              -0.000884284               0.999999992              -0.000029713              -0.000915622               0.999999992              -0.000028627              -0.000947221               0.999999992              -0.000025011              -0.000978911               0.999999992              -0.000012253              -0.000655700               0.999999992              -0.000003205              -0.000658441               0.999999992               0.000000708              -0.000660872               0.999999992               0.000001876              -0.000666877               0.999999992               0.000001449              -0.000677325               0.999999992               0.000000294              -0.000691910               0.999999992              -0.000001256              -0.000710141               0.999999992              -0.000003059              -0.000731452               0.999999992              -0.000005075              -0.000755252               0.999999992              -0.000007100              -0.000781115               0.999999992              -0.000009122              -0.000808631               0.999999992              -0.000011044              -0.000837606               0.999999992              -0.000012579              -0.000867797               0.999999992              -0.000013470              -0.000898902               0.999999992              -0.000013512              -0.000930678               0.999999992              -0.000012383              -0.000962740               0.999999992              -0.000009624              -0.000994784               0.999999992              -0.000000000              -0.000658992               0.999999992              -0.000000000              -0.000663266               0.999999992               0.000000000              -0.000666523               0.999999992               0.000000000              -0.000672914               0.999999992              -0.000000000              -0.000683461               0.999999992              -0.000000000              -0.000698018               0.999999992              -0.000000000              -0.000716034               0.999999992              -0.000000000              -0.000737042               0.999999992              -0.000000000              -0.000760582               0.999999992              -0.000000000              -0.000786208               0.999999992              -0.000000000              -0.000813631               0.999999992              -0.000000000              -0.000842562               0.999999992               0.000000000              -0.000872841               0.999999992               0.000000000              -0.000904265               0.999999992              -0.000000000              -0.000936367               0.999999992              -0.000000000              -0.000968721               0.999999992               0.000000000              -0.001000967               0.999999992               0.000126557              -0.000000000               0.999999992               0.000152446              -0.000000000               0.999999992               0.000164479              -0.000000000               0.999999992               0.000171328              -0.000000000               0.999999992               0.000176602               0.000000000               0.999999992               0.000181719              -0.000000000               0.999999992               0.000187218               0.000000000               0.999999992               0.000193473               0.000000000               0.999999992               0.000200657               0.000000000               0.999999992               0.000208768               0.000000000               0.999999992               0.000217745              -0.000000000               0.999999992               0.000227626              -0.000000000               0.999999992               0.000238423               0.000000000               0.999999992               0.000250113               0.000000000               0.999999992               0.000262730               0.000000000               0.999999992               0.000276181               0.000000000               0.999999992               0.000290209               0.000000000               0.999999992               0.000125787              -0.000065170               0.999999992               0.000150337              -0.000056446               0.999999992               0.000161589              -0.000053671               0.999999992               0.000168081              -0.000054239               0.999999992               0.000173180              -0.000056706               0.999999992               0.000178204              -0.000060291               0.999999992               0.000183678              -0.000064514               0.999999992               0.000189919              -0.000069312               0.999999992               0.000197079              -0.000074472               0.999999992               0.000205159              -0.000079831               0.999999992               0.000214145              -0.000085330               0.999999992               0.000224026              -0.000090923               0.999999992               0.000234780              -0.000096538               0.999999992               0.000246413              -0.000102138               0.999999992               0.000258899              -0.000107523               0.999999992               0.000272140              -0.000112420               0.999999992               0.000285935              -0.000116189               0.999999992               0.000123460              -0.000129629               0.999999992               0.000144129              -0.000112326               0.999999992               0.000153231              -0.000107149               0.999999992               0.000158660              -0.000108549               0.999999992               0.000163349              -0.000113631               0.999999992               0.000168311              -0.000120793               0.999999992               0.000173904              -0.000129265               0.999999992               0.000180373              -0.000138804               0.999999992               0.000187775              -0.000149124               0.999999992               0.000196086              -0.000159863               0.999999992               0.000205295              -0.000170793               0.999999992               0.000215413              -0.000181911               0.999999992               0.000226365              -0.000193167               0.999999992               0.000238073              -0.000204329               0.999999992               0.000250432              -0.000215090               0.999999992               0.000263358              -0.000225089               0.999999992               0.000276721              -0.000233716               0.999999992               0.000119708              -0.000192640               0.999999992               0.000134270              -0.000167127               0.999999992               0.000140352              -0.000160211               0.999999992               0.000144525              -0.000162911               0.999999992               0.000148888              -0.000170865               0.999999992               0.000154003              -0.000181722               0.999999992               0.000160037              -0.000194550               0.999999992               0.000167074              -0.000208897               0.999999992               0.000175099              -0.000224183               0.999999992               0.000184027              -0.000240093               0.999999992               0.000193794              -0.000256356               0.999999992               0.000204336              -0.000273010               0.999999992               0.000215568              -0.000289843               0.999999992               0.000227426              -0.000306517               0.999999992               0.000239756              -0.000322782               0.999999992               0.000252393              -0.000338169               0.999999992               0.000265241              -0.000352143               0.999999992               0.000114726              -0.000253526               0.999999992               0.000121520              -0.000220431               0.999999992               0.000124343              -0.000212617               0.999999992               0.000127525              -0.000217103               0.999999992               0.000131900              -0.000228151               0.999999992               0.000137491              -0.000243011               0.999999992               0.000144291              -0.000260333               0.999999992               0.000152283              -0.000279396               0.999999992               0.000161301              -0.000299564               0.999999992               0.000171097              -0.000320470               0.999999992               0.000181594              -0.000341899               0.999999992               0.000192687              -0.000363978               0.999999992               0.000204270              -0.000386282               0.999999992               0.000216198              -0.000408418               0.999999992               0.000228371              -0.000430160               0.999999992               0.000240696              -0.000451031               0.999999992               0.000253147              -0.000470821               0.999999992               0.000108635              -0.000311692               0.999999992               0.000106543              -0.000272057               0.999999992               0.000106356              -0.000264221               0.999999992               0.000109007              -0.000271029               0.999999992               0.000113863              -0.000285475               0.999999992               0.000120530              -0.000304411               0.999999992               0.000128690              -0.000326117               0.999999992               0.000138072              -0.000349715               0.999999992               0.000148308              -0.000374591               0.999999992               0.000159133              -0.000400312               0.999999992               0.000170482              -0.000426823               0.999999992               0.000182211              -0.000453963               0.999999992               0.000194209              -0.000481391               0.999999992               0.000206394              -0.000508598               0.999999992               0.000218633              -0.000535355               0.999999992               0.000230937              -0.000561479               0.999999992               0.000243292              -0.000586915               0.999999992               0.000101461              -0.000366562               0.999999992               0.000090037              -0.000321913               0.999999992               0.000087667              -0.000314798               0.999999992               0.000090659              -0.000324204               0.999999992               0.000096800              -0.000342015               0.999999992               0.000105118              -0.000364817               0.999999992               0.000114938              -0.000390856               0.999999992               0.000125773              -0.000418868               0.999999992               0.000137274              -0.000448218               0.999999992               0.000149231              -0.000478573               0.999999992               0.000161512              -0.000509806               0.999999992               0.000173970              -0.000541741               0.999999992               0.000186522              -0.000573775               0.999999992               0.000199040              -0.000605470               0.999999992               0.000211460              -0.000636807               0.999999992               0.000223749              -0.000667527               0.999999992               0.000235761              -0.000697601               0.999999992               0.000093278              -0.000417586               0.999999992               0.000073071              -0.000369769               0.999999992               0.000069707              -0.000363819               0.999999992               0.000073937              -0.000375761               0.999999992               0.000081872              -0.000396838               0.999999992               0.000091988              -0.000423518               0.999999992               0.000103512              -0.000453786               0.999999992               0.000115876              -0.000485982               0.999999992               0.000128653              -0.000519615               0.999999992               0.000141629              -0.000554417               0.999999992               0.000154757              -0.000590066               0.999999992               0.000167826              -0.000626232               0.999999992               0.000180735              -0.000662384               0.999999992               0.000193368              -0.000698158               0.999999992               0.000205654              -0.000733539               0.999999992               0.000217573              -0.000768371               0.999999992               0.000229002              -0.000802395               0.999999992               0.000084771              -0.000463786               0.999999992               0.000056394              -0.000415507               0.999999992               0.000053490              -0.000410761               0.999999992               0.000059479              -0.000425056               0.999999992               0.000069426              -0.000449388               0.999999992               0.000081467              -0.000479822               0.999999992               0.000094734              -0.000514063               0.999999992               0.000108434              -0.000550387               0.999999992               0.000122164              -0.000588242               0.999999992               0.000135930              -0.000627224               0.999999992               0.000149550              -0.000666975               0.999999992               0.000162888              -0.000706989               0.999999992               0.000175781              -0.000746834               0.999999992               0.000188197              -0.000786366               0.999999992               0.000200250              -0.000825445               0.999999992               0.000211984              -0.000863864               0.999999992               0.000223437              -0.000901532               0.999999992               0.000076719              -0.000506802               0.999999992               0.000043564              -0.000463805               0.999999992               0.000038258              -0.000455301               0.999999992               0.000042854              -0.000464998               0.999999992               0.000051711              -0.000484872               0.999999992               0.000062552              -0.000511130               0.999999992               0.000074767              -0.000541536               0.999999992               0.000087328              -0.000574633               0.999999992               0.000099712              -0.000609355               0.999999992               0.000111938              -0.000645340               0.999999992               0.000124026              -0.000682224               0.999999992               0.000135907              -0.000719649               0.999999992               0.000147397              -0.000757314               0.999999992               0.000158363              -0.000794853               0.999999992               0.000168899              -0.000832272               0.999999992               0.000179158              -0.000869392               0.999999992               0.000189481              -0.000905979               0.999999992               0.000067605              -0.000545597               0.999999992               0.000032747              -0.000509783               0.999999992               0.000024982              -0.000500212               0.999999992               0.000027728              -0.000506496               0.999999992               0.000035167              -0.000522582               0.999999992               0.000044718              -0.000545054               0.999999992               0.000055452              -0.000571927               0.999999992               0.000066712              -0.000601796               0.999999992               0.000077732              -0.000633574               0.999999992               0.000088362              -0.000666793               0.999999992               0.000098810              -0.000700969               0.999999992               0.000109142              -0.000735834               0.999999992               0.000119041              -0.000771044               0.999999992               0.000128348              -0.000806409               0.999999992               0.000136986              -0.000841728               0.999999992               0.000145226              -0.000877054               0.999999992               0.000153275              -0.000912306               0.999999992               0.000057753              -0.000579343               0.999999992               0.000023830              -0.000552322               0.999999992               0.000014302              -0.000543622               0.999999992               0.000015158              -0.000547943               0.999999992               0.000020833              -0.000561192               0.999999992               0.000028740              -0.000580665               0.999999992               0.000037778              -0.000604508               0.999999992               0.000047412              -0.000631560               0.999999992               0.000056871              -0.000660743               0.999999992               0.000065986              -0.000691407               0.999999992               0.000074896              -0.000723147               0.999999992               0.000083591              -0.000755680               0.999999992               0.000091800              -0.000788780               0.999999992               0.000099121              -0.000822177               0.999999992               0.000105533              -0.000855641               0.999999992               0.000110911              -0.000889143               0.999999992               0.000115550              -0.000922773               0.999999992               0.000047203              -0.000607580               0.999999992               0.000016711              -0.000589910               0.999999992               0.000006563              -0.000583563               0.999999992               0.000005834              -0.000587274               0.999999992               0.000009702              -0.000598671               0.999999992               0.000015785              -0.000615885               0.999999992               0.000022906              -0.000637451               0.999999992               0.000030658              -0.000662254               0.999999992               0.000038445              -0.000689362               0.999999992               0.000046008              -0.000718022               0.999999992               0.000053320              -0.000747881               0.999999992               0.000060238              -0.000778620               0.999999992               0.000066574              -0.000810055               0.999999992               0.000071955              -0.000842001               0.999999992               0.000076045              -0.000874160               0.999999992               0.000078543              -0.000906341               0.999999992               0.000079270              -0.000938696               0.999999992               0.000035991              -0.000629949               0.999999992               0.000011171              -0.000620994               0.999999992               0.000001767              -0.000617827               0.999999992               0.000000076              -0.000621961               0.999999992               0.000002382              -0.000632435               0.999999992               0.000006571              -0.000648163               0.999999992               0.000011750              -0.000668064               0.999999992               0.000017515              -0.000691247               0.999999992               0.000023428              -0.000716849               0.999999992               0.000029220              -0.000744205               0.999999992               0.000034868              -0.000772836               0.999999992               0.000040082              -0.000802486               0.999999992               0.000044652              -0.000832949               0.999999992               0.000048214              -0.000863986               0.999999992               0.000050363              -0.000895411               0.999999992               0.000050593              -0.000926972               0.999999992               0.000048240              -0.000958620               0.999999992               0.000024299              -0.000646010               0.999999992               0.000006817              -0.000644171               0.999999992              -0.000000433              -0.000644233               0.999999992              -0.000002252              -0.000649317               0.999999992              -0.000001113              -0.000659621               0.999999992               0.000001429              -0.000674521               0.999999992               0.000004674              -0.000693325               0.999999992               0.000008414              -0.000715352               0.999999992               0.000012386              -0.000739925               0.999999992               0.000016353              -0.000766420               0.999999992               0.000020287              -0.000794357               0.999999992               0.000023886              -0.000823457               0.999999992               0.000026852              -0.000853481               0.999999992               0.000028913              -0.000884284               0.999999992               0.000029713              -0.000915622               0.999999992               0.000028627              -0.000947221               0.999999992               0.000025011              -0.000978911               0.999999992               0.000012253              -0.000655700               0.999999992               0.000003205              -0.000658441               0.999999992              -0.000000708              -0.000660872               0.999999992              -0.000001876              -0.000666877               0.999999992              -0.000001449              -0.000677325               0.999999992              -0.000000294              -0.000691910               0.999999992               0.000001256              -0.000710141               0.999999992               0.000003059              -0.000731452               0.999999992               0.000005075              -0.000755252               0.999999992               0.000007100              -0.000781115               0.999999992               0.000009122              -0.000808631               0.999999992               0.000011044              -0.000837606               0.999999992               0.000012579              -0.000867797               0.999999992               0.000013470              -0.000898902               0.999999992               0.000013512              -0.000930678               0.999999992               0.000012383              -0.000962740               0.999999992               0.000009624              -0.000994784               0.999999992              -0.000000000              -0.000658992               0.999999992              -0.000000000              -0.000663266               0.999999992               0.000000000              -0.000666523               0.999999992               0.000000000              -0.000672914               0.999999992              -0.000000000              -0.000683461               0.999999992              -0.000000000              -0.000698018               0.999999992              -0.000000000              -0.000716034               0.999999992              -0.000000000              -0.000737042               0.999999992              -0.000000000              -0.000760582               0.999999992              -0.000000000              -0.000786208               0.999999992              -0.000000000              -0.000813631               0.999999992              -0.000000000              -0.000842562               0.999999992               0.000000000              -0.000872841               0.999999992               0.000000000              -0.000904265               0.999999992              -0.000000000              -0.000936367               0.999999992              -0.000000000              -0.000968721               0.999999992               0.000000000              -0.001000967               0.999999992               0.000126557              -0.000000000               0.999999992               0.000152446              -0.000000000               0.999999992               0.000164479              -0.000000000               0.999999992               0.000171328              -0.000000000               0.999999992               0.000176602               0.000000000               0.999999992               0.000181719              -0.000000000               0.999999992               0.000187218               0.000000000               0.999999992               0.000193473               0.000000000               0.999999992               0.000200657               0.000000000               0.999999992               0.000208768               0.000000000               0.999999992               0.000217745              -0.000000000               0.999999992               0.000227626              -0.000000000               0.999999992               0.000238423               0.000000000               0.999999992               0.000250113               0.000000000               0.999999992               0.000262730               0.000000000               0.999999992               0.000276181               0.000000000               0.999999992               0.000290209               0.000000000               0.999999992               0.000125787               0.000065170               0.999999992               0.000150337               0.000056446               0.999999992               0.000161589               0.000053671               0.999999992               0.000168081               0.000054239               0.999999992               0.000173180               0.000056706               0.999999992               0.000178204               0.000060291               0.999999992               0.000183678               0.000064514               0.999999992               0.000189919               0.000069312               0.999999992               0.000197079               0.000074472               0.999999992               0.000205159               0.000079831               0.999999992               0.000214145               0.000085330               0.999999992               0.000224026               0.000090923               0.999999992               0.000234780               0.000096538               0.999999992               0.000246413               0.000102138               0.999999992               0.000258899               0.000107523               0.999999992               0.000272140               0.000112420               0.999999992               0.000285935               0.000116189               0.999999992               0.000123460               0.000129629               0.999999992               0.000144129               0.000112326               0.999999992               0.000153231               0.000107149               0.999999992               0.000158660               0.000108549               0.999999992               0.000163349               0.000113631               0.999999992               0.000168311               0.000120793               0.999999992               0.000173904               0.000129265               0.999999992               0.000180373               0.000138804               0.999999992               0.000187775               0.000149124               0.999999992               0.000196086               0.000159863               0.999999992               0.000205295               0.000170793               0.999999992               0.000215413               0.000181911               0.999999992               0.000226365               0.000193167               0.999999992               0.000238073               0.000204329               0.999999992               0.000250432               0.000215090               0.999999992               0.000263358               0.000225089               0.999999992               0.000276721               0.000233716               0.999999992               0.000119708               0.000192640               0.999999992               0.000134270               0.000167127               0.999999992               0.000140352               0.000160211               0.999999992               0.000144525               0.000162911               0.999999992               0.000148888               0.000170865               0.999999992               0.000154003               0.000181722               0.999999992               0.000160037               0.000194550               0.999999992               0.000167074               0.000208897               0.999999992               0.000175099               0.000224183               0.999999992               0.000184027               0.000240093               0.999999992               0.000193794               0.000256356               0.999999992               0.000204336               0.000273010               0.999999992               0.000215568               0.000289843               0.999999992               0.000227426               0.000306517               0.999999992               0.000239756               0.000322782               0.999999992               0.000252393               0.000338169               0.999999992               0.000265241               0.000352143               0.999999992               0.000114726               0.000253526               0.999999992               0.000121520               0.000220431               0.999999992               0.000124343               0.000212617               0.999999992               0.000127525               0.000217103               0.999999992               0.000131900               0.000228151               0.999999992               0.000137491               0.000243011               0.999999992               0.000144291               0.000260333               0.999999992               0.000152283               0.000279396               0.999999992               0.000161301               0.000299564               0.999999992               0.000171097               0.000320470               0.999999992               0.000181594               0.000341899               0.999999992               0.000192687               0.000363978               0.999999992               0.000204270               0.000386282               0.999999992               0.000216198               0.000408418               0.999999992               0.000228371               0.000430160               0.999999992               0.000240696               0.000451031               0.999999992               0.000253147               0.000470821               0.999999992               0.000108635               0.000311692               0.999999992               0.000106543               0.000272057               0.999999992               0.000106356               0.000264221               0.999999992               0.000109007               0.000271029               0.999999992               0.000113863               0.000285475               0.999999992               0.000120530               0.000304411               0.999999992               0.000128690               0.000326117               0.999999992               0.000138072               0.000349715               0.999999992               0.000148308               0.000374591               0.999999992               0.000159133               0.000400312               0.999999992               0.000170482               0.000426823               0.999999992               0.000182211               0.000453963               0.999999992               0.000194209               0.000481391               0.999999992               0.000206394               0.000508598               0.999999992               0.000218633               0.000535355               0.999999992               0.000230937               0.000561479               0.999999992               0.000243292               0.000586915               0.999999992               0.000101461               0.000366562               0.999999992               0.000090037               0.000321913               0.999999992               0.000087667               0.000314798               0.999999992               0.000090659               0.000324204               0.999999992               0.000096800               0.000342015               0.999999992               0.000105118               0.000364817               0.999999992               0.000114938               0.000390856               0.999999992               0.000125773               0.000418868               0.999999992               0.000137274               0.000448218               0.999999992               0.000149231               0.000478573               0.999999992               0.000161512               0.000509806               0.999999992               0.000173970               0.000541741               0.999999992               0.000186522               0.000573775               0.999999992               0.000199040               0.000605470               0.999999992               0.000211460               0.000636807               0.999999992               0.000223749               0.000667527               0.999999992               0.000235761               0.000697601               0.999999992               0.000093278               0.000417586               0.999999992               0.000073071               0.000369769               0.999999992               0.000069707               0.000363819               0.999999992               0.000073937               0.000375761               0.999999992               0.000081872               0.000396838               0.999999992               0.000091988               0.000423518               0.999999992               0.000103512               0.000453786               0.999999992               0.000115876               0.000485982               0.999999992               0.000128653               0.000519615               0.999999992               0.000141629               0.000554417               0.999999992               0.000154757               0.000590066               0.999999992               0.000167826               0.000626232               0.999999992               0.000180735               0.000662384               0.999999992               0.000193368               0.000698158               0.999999992               0.000205654               0.000733539               0.999999992               0.000217573               0.000768371               0.999999992               0.000229002               0.000802395               0.999999992               0.000084771               0.000463786               0.999999992               0.000056394               0.000415507               0.999999992               0.000053490               0.000410761               0.999999992               0.000059479               0.000425056               0.999999992               0.000069426               0.000449388               0.999999992               0.000081467               0.000479822               0.999999992               0.000094734               0.000514063               0.999999992               0.000108434               0.000550387               0.999999992               0.000122164               0.000588242               0.999999992               0.000135930               0.000627224               0.999999992               0.000149550               0.000666975               0.999999992               0.000162888               0.000706989               0.999999992               0.000175781               0.000746834               0.999999992               0.000188197               0.000786366               0.999999992               0.000200250               0.000825445               0.999999992               0.000211984               0.000863864               0.999999992               0.000223437               0.000901532               0.999999992               0.000076719               0.000506802               0.999999992               0.000043564               0.000463805               0.999999992               0.000038258               0.000455301               0.999999992               0.000042854               0.000464998               0.999999992               0.000051711               0.000484872               0.999999992               0.000062552               0.000511130               0.999999992               0.000074767               0.000541536               0.999999992               0.000087328               0.000574633               0.999999992               0.000099712               0.000609355               0.999999992               0.000111938               0.000645340               0.999999992               0.000124026               0.000682224               0.999999992               0.000135907               0.000719649               0.999999992               0.000147397               0.000757314               0.999999992               0.000158363               0.000794853               0.999999992               0.000168899               0.000832272               0.999999992               0.000179158               0.000869392               0.999999992               0.000189481               0.000905979               0.999999992               0.000067605               0.000545597               0.999999992               0.000032747               0.000509783               0.999999992               0.000024982               0.000500212               0.999999992               0.000027728               0.000506496               0.999999992               0.000035167               0.000522582               0.999999992               0.000044718               0.000545054               0.999999992               0.000055452               0.000571927               0.999999992               0.000066712               0.000601796               0.999999992               0.000077732               0.000633574               0.999999992               0.000088362               0.000666793               0.999999992               0.000098810               0.000700969               0.999999992               0.000109142               0.000735834               0.999999992               0.000119041               0.000771044               0.999999992               0.000128348               0.000806409               0.999999992               0.000136986               0.000841728               0.999999992               0.000145226               0.000877054               0.999999992               0.000153275               0.000912306               0.999999992               0.000057753               0.000579343               0.999999992               0.000023830               0.000552322               0.999999992               0.000014302               0.000543622               0.999999992               0.000015158               0.000547943               0.999999992               0.000020833               0.000561192               0.999999992               0.000028740               0.000580665               0.999999992               0.000037778               0.000604508               0.999999992               0.000047412               0.000631560               0.999999992               0.000056871               0.000660743               0.999999992               0.000065986               0.000691407               0.999999992               0.000074896               0.000723147               0.999999992               0.000083591               0.000755680               0.999999992               0.000091800               0.000788780               0.999999992               0.000099121               0.000822177               0.999999992               0.000105533               0.000855641               0.999999992               0.000110911               0.000889143               0.999999992               0.000115550               0.000922773               0.999999992               0.000047203               0.000607580               0.999999992               0.000016711               0.000589910               0.999999992               0.000006563               0.000583563               0.999999992               0.000005834               0.000587274               0.999999992               0.000009702               0.000598671               0.999999992               0.000015785               0.000615885               0.999999992               0.000022906               0.000637451               0.999999992               0.000030658               0.000662254               0.999999992               0.000038445               0.000689362               0.999999992               0.000046008               0.000718022               0.999999992               0.000053320               0.000747881               0.999999992               0.000060238               0.000778620               0.999999992               0.000066574               0.000810055               0.999999992               0.000071955               0.000842001               0.999999992               0.000076045               0.000874160               0.999999992               0.000078543               0.000906341               0.999999992               0.000079270               0.000938696               0.999999992               0.000035991               0.000629949               0.999999992               0.000011171               0.000620994               0.999999992               0.000001767               0.000617827               0.999999992               0.000000076               0.000621961               0.999999992               0.000002382               0.000632435               0.999999992               0.000006571               0.000648163               0.999999992               0.000011750               0.000668064               0.999999992               0.000017515               0.000691247               0.999999992               0.000023428               0.000716849               0.999999992               0.000029220               0.000744205               0.999999992               0.000034868               0.000772836               0.999999992               0.000040082               0.000802486               0.999999992               0.000044652               0.000832949               0.999999992               0.000048214               0.000863986               0.999999992               0.000050363               0.000895411               0.999999992               0.000050593               0.000926972               0.999999992               0.000048240               0.000958620               0.999999992               0.000024299               0.000646010               0.999999992               0.000006817               0.000644171               0.999999992              -0.000000433               0.000644233               0.999999992              -0.000002252               0.000649317               0.999999992              -0.000001113               0.000659621               0.999999992               0.000001429               0.000674521               0.999999992               0.000004674               0.000693325               0.999999992               0.000008414               0.000715352               0.999999992               0.000012386               0.000739925               0.999999992               0.000016353               0.000766420               0.999999992               0.000020287               0.000794357               0.999999992               0.000023886               0.000823457               0.999999992               0.000026852               0.000853481               0.999999992               0.000028913               0.000884284               0.999999992               0.000029713               0.000915622               0.999999992               0.000028627               0.000947221               0.999999992               0.000025011               0.000978911               0.999999992               0.000012253               0.000655700               0.999999992               0.000003205               0.000658441               0.999999992              -0.000000708               0.000660872               0.999999992              -0.000001876               0.000666877               0.999999992              -0.000001449               0.000677325               0.999999992              -0.000000294               0.000691910               0.999999992               0.000001256               0.000710141               0.999999992               0.000003059               0.000731452               0.999999992               0.000005075               0.000755252               0.999999992               0.000007100               0.000781115               0.999999992               0.000009122               0.000808631               0.999999992               0.000011044               0.000837606               0.999999992               0.000012579               0.000867797               0.999999992               0.000013470               0.000898902               0.999999992               0.000013512               0.000930678               0.999999992               0.000012383               0.000962740               0.999999992               0.000009624               0.000994784               0.999999992               0.000000000               0.000658992               0.999999992              -0.000000000               0.000663266               0.999999992               0.000000000               0.000666523               0.999999992              -0.000000000               0.000672914               0.999999992               0.000000000               0.000683461               0.999999992               0.000000000               0.000698018               0.999999992               0.000000000               0.000716034               0.999999992               0.000000000               0.000737042               0.999999992               0.000000000               0.000760582               0.999999992              -0.000000000               0.000786208               0.999999992              -0.000000000               0.000813631               0.999999992              -0.000000000               0.000842562               0.999999992               0.000000000               0.000872841               0.999999992              -0.000000000               0.000904265               0.999999992              -0.000000000               0.000936367               0.999999992              -0.000000000               0.000968721               0.999999992               0.000000000               0.001000967               0.999999992 </DataArray>
<DataArray type="Float64"                                    Name="stress"                                                      NumberOfComponents="10" format="ascii">
              0.001081000               0.012124888               0.000000000              -0.001110233               0.004411667               0.003301434               0.000000000               0.000000000               0.000000000               0.000000000               0.001164249               0.009860990               0.000000000              -0.000796028               0.003552306               0.002756278               0.000000000               0.000000000               0.000000000               0.000000000               0.001607620               0.008048966               0.000000000              -0.000403262               0.002817383               0.002414120               0.000000000               0.000000000               0.000000000               0.000000000               0.001648500               0.007064735               0.000000000              -0.000264904               0.002443189               0.002178286               0.000000000               0.000000000               0.000000000               0.000000000               0.001548150               0.006485636               0.000000000              -0.000230148               0.002238573               0.002008425               0.000000000               0.000000000               0.000000000               0.000000000               0.001410811               0.006121183               0.000000000              -0.000236093               0.002119072               0.001882979               0.000000000               0.000000000               0.000000000               0.000000000               0.001261623               0.005874540               0.000000000              -0.000261208               0.002045230               0.001784022               0.000000000               0.000000000               0.000000000               0.000000000               0.001107669               0.005703568               0.000000000              -0.000297569               0.002000360               0.001702791               0.000000000               0.000000000               0.000000000               0.000000000               0.000960137               0.005580345               0.000000000              -0.000337491               0.001972593               0.001635102               0.000000000               0.000000000               0.000000000               0.000000000               0.000825001               0.005486494               0.000000000              -0.000376435               0.001954291               0.001577856               0.000000000               0.000000000               0.000000000               0.000000000               0.000696998               0.005410490              -0.000000000              -0.000414936               0.001941791               0.001526855               0.000000000               0.000000000               0.000000000               0.000000000               0.000570959               0.005344608               0.000000000              -0.000453965               0.001932840               0.001478875               0.000000000               0.000000000               0.000000000               0.000000000               0.000447253               0.005283873              -0.000000000              -0.000492763               0.001925528               0.001432765               0.000000000               0.000000000               0.000000000               0.000000000               0.000323345               0.005223230               0.000000000              -0.000531648               0.001918275               0.001386627               0.000000000               0.000000000               0.000000000               0.000000000               0.000201447               0.005154631              -0.000000000              -0.000568785               0.001907788               0.001339003               0.000000000               0.000000000               0.000000000               0.000000000               0.000093150               0.005068814              -0.000000000              -0.000598669               0.001889144               0.001290475               0.000000000               0.000000000               0.000000000               0.000000000               0.000037157               0.004998423               0.000000000              -0.000610868               0.001869747               0.001258879               0.000000000               0.000000000               0.000000000               0.000000000               0.001136689               0.011904235              -0.000878627              -0.001061768               0.004321961               0.003260193               0.000000000               0.000000000               0.000000000               0.000000000               0.001167812               0.009710295              -0.000520651              -0.000775856               0.003495351               0.002719495               0.000000000               0.000000000               0.000000000               0.000000000               0.001553230               0.007972116              -0.000154704              -0.000414052               0.002795363               0.002381311               0.000000000               0.000000000               0.000000000               0.000000000               0.001570121               0.007024309               0.000009473              -0.000289242               0.002437827               0.002148585               0.000000000               0.000000000               0.000000000               0.000000000               0.001464814               0.006462070               0.000081840              -0.000258453               0.002240153               0.001981700               0.000000000               0.000000000               0.000000000               0.000000000               0.001328614               0.006103005               0.000111478              -0.000264645               0.002122529               0.001857885               0.000000000               0.000000000               0.000000000               0.000000000               0.001184253               0.005859599               0.000124075              -0.000288354               0.002049298               0.001760944               0.000000000               0.000000000               0.000000000               0.000000000               0.001037621               0.005690004               0.000129315              -0.000322142               0.002004030               0.001681888               0.000000000               0.000000000               0.000000000               0.000000000               0.000898098               0.005568860               0.000127699              -0.000359320               0.001976041               0.001616722               0.000000000               0.000000000               0.000000000               0.000000000               0.000768323               0.005476197               0.000122425              -0.000396403               0.001957515               0.001561112               0.000000000               0.000000000               0.000000000               0.000000000               0.000643913               0.005399005               0.000116193              -0.000433407               0.001944119               0.001510712               0.000000000               0.000000000               0.000000000               0.000000000               0.000523857               0.005332950               0.000109410              -0.000470171               0.001934356               0.001464185               0.000000000               0.000000000               0.000000000               0.000000000               0.000407469               0.005274100               0.000101929              -0.000506460               0.001926836               0.001420376               0.000000000               0.000000000               0.000000000               0.000000000               0.000292435               0.005215283               0.000091620              -0.000542246               0.001919159               0.001376913               0.000000000               0.000000000               0.000000000               0.000000000               0.000181357               0.005150293               0.000075370              -0.000575776               0.001908673               0.001332896               0.000000000               0.000000000               0.000000000               0.000000000               0.000082708               0.005074387               0.000045415              -0.000603282               0.001892539               0.001289258               0.000000000               0.000000000               0.000000000               0.000000000               0.000033264               0.005018311               0.000026580              -0.000614813               0.001877691               0.001262878               0.000000000               0.000000000               0.000000000               0.000000000               0.001283435               0.011267005              -0.001655670              -0.000927086               0.004064659               0.003137573               0.000000000               0.000000000               0.000000000               0.000000000               0.001170604               0.009277618              -0.000986405              -0.000720724               0.003332750               0.002612025               0.000000000               0.000000000               0.000000000               0.000000000               0.001401302               0.007753008              -0.000307219              -0.000443637               0.002732189               0.002288552               0.000000000               0.000000000               0.000000000               0.000000000               0.001357608               0.006909037              -0.000008596              -0.000354526               0.002421165               0.002066639               0.000000000               0.000000000               0.000000000               0.000000000               0.001236712               0.006394322               0.000120240              -0.000335523               0.002243260               0.001907738               0.000000000               0.000000000               0.000000000               0.000000000               0.001105207               0.006055817               0.000172858              -0.000342524               0.002132760               0.001790236               0.000000000               0.000000000               0.000000000               0.000000000               0.000975517               0.005825752               0.000194960              -0.000362399               0.002062698               0.001700298               0.000000000               0.000000000               0.000000000               0.000000000               0.000848044               0.005662614               0.000203009              -0.000389809               0.002017456               0.001627646               0.000000000               0.000000000               0.000000000               0.000000000               0.000728068               0.005540753               0.000199492              -0.000419568               0.001986755               0.001567187               0.000000000               0.000000000               0.000000000               0.000000000               0.000615514               0.005445666               0.000188140              -0.000449889               0.001965167               0.001515278               0.000000000               0.000000000               0.000000000               0.000000000               0.000505890               0.005366907               0.000176076              -0.000481153               0.001949335               0.001468182               0.000000000               0.000000000               0.000000000               0.000000000               0.000401498               0.005302456               0.000165730              -0.000512244               0.001938216               0.001425972               0.000000000               0.000000000               0.000000000               0.000000000               0.000304121               0.005247095               0.000152814              -0.000541840               0.001929628               0.001387787               0.000000000               0.000000000               0.000000000               0.000000000               0.000213552               0.005193797               0.000133663              -0.000569141               0.001920962               0.001351821               0.000000000               0.000000000               0.000000000               0.000000000               0.000131046               0.005140471               0.000105495              -0.000593415               0.001911278               0.001317863               0.000000000               0.000000000               0.000000000               0.000000000               0.000058507               0.005085743               0.000061100              -0.000613776               0.001899823               0.001286047               0.000000000               0.000000000               0.000000000               0.000000000               0.000023534               0.005052332               0.000034871              -0.000622715               0.001891666               0.001268951               0.000000000               0.000000000               0.000000000               0.000000000               0.001476096               0.010291331              -0.002255994              -0.000732880               0.003674702               0.002941822               0.000000000               0.000000000               0.000000000               0.000000000               0.001159829               0.008620747              -0.001360091              -0.000642657               0.003087772               0.002445116               0.000000000               0.000000000               0.000000000               0.000000000               0.001172859               0.007419714              -0.000459832              -0.000487641               0.002635760               0.002148119               0.000000000               0.000000000               0.000000000               0.000000000               0.001056843               0.006727357              -0.000076249              -0.000444603               0.002390631               0.001946028               0.000000000               0.000000000               0.000000000               0.000000000               0.000925629               0.006285014               0.000088924              -0.000438515               0.002241155               0.001802641               0.000000000               0.000000000               0.000000000               0.000000000               0.000808385               0.005988897               0.000159255              -0.000445467               0.002144768               0.001699301               0.000000000               0.000000000               0.000000000               0.000000000               0.000701336               0.005782602               0.000190802              -0.000459823               0.002080789               0.001620966               0.000000000               0.000000000               0.000000000               0.000000000               0.000599847               0.005627608               0.000201034              -0.000478507               0.002035353               0.001556846               0.000000000               0.000000000               0.000000000               0.000000000               0.000506517               0.005503579               0.000197454              -0.000498002               0.002000509               0.001502507               0.000000000               0.000000000               0.000000000               0.000000000               0.000419961               0.005403448               0.000187435              -0.000517944               0.001973779               0.001455835               0.000000000               0.000000000               0.000000000               0.000000000               0.000337841               0.005324109               0.000178647              -0.000538822               0.001954293               0.001415471               0.000000000               0.000000000               0.000000000               0.000000000               0.000261886               0.005263446               0.000171274              -0.000559722               0.001941039               0.001381317               0.000000000               0.000000000               0.000000000               0.000000000               0.000190660               0.005210950               0.000157921              -0.000579870               0.001930256               0.001350386               0.000000000               0.000000000               0.000000000               0.000000000               0.000126756               0.005162845               0.000137829              -0.000597821               0.001920205               0.001322384               0.000000000               0.000000000               0.000000000               0.000000000               0.000075239               0.005121081               0.000107312              -0.000611919               0.001910983               0.001299064               0.000000000               0.000000000               0.000000000               0.000000000               0.000034317               0.005085208               0.000060297              -0.000622780               0.001902646               0.001279865               0.000000000               0.000000000               0.000000000               0.000000000               0.000015765               0.005068065               0.000033073              -0.000627595               0.001898536               0.001270942               0.000000000               0.000000000               0.000000000               0.000000000               0.001652085               0.009093356              -0.002635311              -0.000517139               0.003203468               0.002686329               0.000000000               0.000000000               0.000000000               0.000000000               0.001117622               0.007826959              -0.001619099              -0.000559261               0.002795380               0.002236119               0.000000000               0.000000000               0.000000000               0.000000000               0.000894741               0.007019249              -0.000606094              -0.000541877               0.002520352               0.001978475               0.000000000               0.000000000               0.000000000               0.000000000               0.000719097               0.006505884              -0.000186559              -0.000543573               0.002349797               0.001806224               0.000000000               0.000000000               0.000000000               0.000000000               0.000595100               0.006152869              -0.000001770              -0.000545945               0.002232917               0.001686972               0.000000000               0.000000000               0.000000000               0.000000000               0.000504929               0.005905789               0.000079900              -0.000548874               0.002151535               0.001602661               0.000000000               0.000000000               0.000000000               0.000000000               0.000426316               0.005719309               0.000116592              -0.000555044               0.002091432               0.001536388               0.000000000               0.000000000               0.000000000               0.000000000               0.000354621               0.005568326               0.000130896              -0.000563057               0.002043776               0.001480719               0.000000000               0.000000000               0.000000000               0.000000000               0.000295515               0.005446149               0.000133096              -0.000569949               0.002005348               0.001435399               0.000000000               0.000000000               0.000000000               0.000000000               0.000242515               0.005346333               0.000131851              -0.000577347               0.001974542               0.001397195               0.000000000               0.000000000               0.000000000               0.000000000               0.000192304               0.005268115               0.000134051              -0.000586399               0.001951487               0.001365088               0.000000000               0.000000000               0.000000000               0.000000000               0.000146220               0.005204571               0.000135762              -0.000595737               0.001933419               0.001337681               0.000000000               0.000000000               0.000000000               0.000000000               0.000104938               0.005149314               0.000127203              -0.000604311               0.001917858               0.001313547               0.000000000               0.000000000               0.000000000               0.000000000               0.000069893               0.005099350               0.000110976              -0.000611207               0.001903502               0.001292295               0.000000000               0.000000000               0.000000000               0.000000000               0.000041530               0.005055717               0.000084793              -0.000616389               0.001890685               0.001274296               0.000000000               0.000000000               0.000000000               0.000000000               0.000020131               0.005024567               0.000045473              -0.000620520               0.001881679               0.001261159               0.000000000               0.000000000               0.000000000               0.000000000               0.000011883               0.005014322               0.000023148              -0.000622332               0.001878868               0.001256536               0.000000000               0.000000000               0.000000000               0.000000000               0.001751883               0.007794007              -0.002781804              -0.000317297               0.002703741               0.002386444               0.000000000               0.000000000               0.000000000               0.000000000               0.001030377               0.006983628              -0.001759965              -0.000486562               0.002490040               0.002003477               0.000000000               0.000000000               0.000000000               0.000000000               0.000602561               0.006594407              -0.000743904              -0.000598339               0.002397560               0.001799221               0.000000000               0.000000000               0.000000000               0.000000000               0.000400131               0.006260695              -0.000330528              -0.000632536               0.002297723               0.001665187               0.000000000               0.000000000               0.000000000               0.000000000               0.000298249               0.005990301              -0.000142684              -0.000636943               0.002209061               0.001572119               0.000000000               0.000000000               0.000000000               0.000000000               0.000237917               0.005778671              -0.000053503              -0.000633113               0.002137242               0.001504129               0.000000000               0.000000000               0.000000000               0.000000000               0.000193938               0.005610338              -0.000009537              -0.000628564               0.002079615               0.001451051               0.000000000               0.000000000               0.000000000               0.000000000               0.000158494               0.005467925               0.000015941              -0.000624054               0.002030641               0.001406588               0.000000000               0.000000000               0.000000000               0.000000000               0.000134053               0.005348952               0.000032093              -0.000618347               0.001989082               0.001370735               0.000000000               0.000000000               0.000000000               0.000000000               0.000112722               0.005251304               0.000045748              -0.000614141               0.001955131               0.001340990               0.000000000               0.000000000               0.000000000               0.000000000               0.000091682               0.005172052               0.000060912              -0.000612124               0.001928042               0.001315917               0.000000000               0.000000000               0.000000000               0.000000000               0.000072046               0.005101775               0.000071820              -0.000610703               0.001904142               0.001293439               0.000000000               0.000000000               0.000000000               0.000000000               0.000052617               0.005033966               0.000070818              -0.000609513               0.001881143               0.001271630               0.000000000               0.000000000               0.000000000               0.000000000               0.000036926               0.004970058               0.000060786              -0.000607408               0.001859139               0.001251730               0.000000000               0.000000000               0.000000000               0.000000000               0.000023672               0.004914120               0.000043988              -0.000605387               0.001839819               0.001234433               0.000000000               0.000000000               0.000000000               0.000000000               0.000011298               0.004869730               0.000021172              -0.000604478               0.001824720               0.001220242               0.000000000               0.000000000               0.000000000               0.000000000               0.000003910               0.004847282               0.000010452              -0.000604443               0.001817225               0.001212783               0.000000000               0.000000000               0.000000000               0.000000000               0.001737608               0.006492903              -0.002722567              -0.000160013               0.002217616               0.002057603               0.000000000               0.000000000               0.000000000               0.000000000               0.000903066               0.006147603              -0.001807077              -0.000429801               0.002192447               0.001762646               0.000000000               0.000000000               0.000000000               0.000000000               0.000333150               0.006152683              -0.000885229              -0.000644153               0.002265591               0.001621438               0.000000000               0.000000000               0.000000000               0.000000000               0.000137428               0.005971876              -0.000503710              -0.000694947               0.002222254               0.001527307               0.000000000               0.000000000               0.000000000               0.000000000               0.000070330               0.005772580              -0.000316585              -0.000695197               0.002155906               0.001460709               0.000000000               0.000000000               0.000000000               0.000000000               0.000044284               0.005600826              -0.000212026              -0.000683495               0.002094755               0.001411260               0.000000000               0.000000000               0.000000000               0.000000000               0.000035936               0.005457126              -0.000151290              -0.000668663               0.002041912               0.001373249               0.000000000               0.000000000               0.000000000               0.000000000               0.000032874               0.005325501              -0.000110150              -0.000653358               0.001992935               0.001339577               0.000000000               0.000000000               0.000000000               0.000000000               0.000032831               0.005210570              -0.000076236              -0.000639008               0.001949842               0.001310834               0.000000000               0.000000000               0.000000000               0.000000000               0.000031528               0.005113973              -0.000045496              -0.000627422               0.001913782               0.001286359               0.000000000               0.000000000               0.000000000               0.000000000               0.000028981               0.005028153              -0.000015670              -0.000617650               0.001881917               0.001264268               0.000000000               0.000000000               0.000000000               0.000000000               0.000024388               0.004945142               0.000005700              -0.000608996               0.001851363               0.001242367               0.000000000               0.000000000               0.000000000               0.000000000               0.000017486               0.004861443               0.000013438              -0.000601122               0.001820839               0.001219717               0.000000000               0.000000000               0.000000000               0.000000000               0.000011543               0.004782620               0.000015393              -0.000593497               0.001792023               0.001198526               0.000000000               0.000000000               0.000000000               0.000000000               0.000005046               0.004712418               0.000013194              -0.000587159               0.001766510               0.001179351               0.000000000               0.000000000               0.000000000               0.000000000               0.000001684               0.004651517               0.000006307              -0.000580807               0.001744092               0.001163286               0.000000000               0.000000000               0.000000000               0.000000000              -0.000004632               0.004612334               0.000006776              -0.000578277               0.001730188               0.001151911               0.000000000               0.000000000               0.000000000               0.000000000               0.001616749               0.005257780              -0.002507463              -0.000050945               0.001769556               0.001718611               0.000000000               0.000000000               0.000000000               0.000000000               0.000749028               0.005358329              -0.001788765              -0.000388906               0.001915727               0.001526820               0.000000000               0.000000000               0.000000000               0.000000000               0.000114058               0.005699785              -0.001030248              -0.000669700               0.002123142               0.001453442               0.000000000               0.000000000               0.000000000               0.000000000              -0.000048149               0.005647775              -0.000681067              -0.000724026               0.002123915               0.001399889               0.000000000               0.000000000               0.000000000               0.000000000              -0.000073348               0.005523231              -0.000485897              -0.000717907               0.002080361               0.001362453               0.000000000               0.000000000               0.000000000               0.000000000              -0.000065644               0.005396490              -0.000361227              -0.000699176               0.002031871               0.001332695               0.000000000               0.000000000               0.000000000               0.000000000              -0.000049052               0.005272254              -0.000281578              -0.000677425               0.001983209               0.001305784               0.000000000               0.000000000               0.000000000               0.000000000              -0.000030531               0.005152643              -0.000223223              -0.000655528               0.001936040               0.001280512               0.000000000               0.000000000               0.000000000               0.000000000              -0.000015928               0.005045675              -0.000169474              -0.000636681               0.001894102               0.001257421               0.000000000               0.000000000               0.000000000               0.000000000              -0.000010014               0.004947419              -0.000120714              -0.000622181               0.001856517               0.001234336               0.000000000               0.000000000               0.000000000               0.000000000              -0.000008975               0.004851506              -0.000077359              -0.000609803               0.001820420               0.001210618               0.000000000               0.000000000               0.000000000               0.000000000              -0.000009982               0.004752342              -0.000043444              -0.000597784               0.001783360               0.001185575               0.000000000               0.000000000               0.000000000               0.000000000              -0.000013388               0.004654374              -0.000021518              -0.000586816               0.001747048               0.001160232               0.000000000               0.000000000               0.000000000               0.000000000              -0.000015906               0.004565504              -0.000005843              -0.000576651               0.001714036               0.001137385               0.000000000               0.000000000               0.000000000               0.000000000              -0.000017903               0.004484521               0.000004935              -0.000567277               0.001683918               0.001116641               0.000000000               0.000000000               0.000000000               0.000000000              -0.000012502               0.004412923               0.000006727              -0.000556302               0.001656394               0.001100091               0.000000000               0.000000000               0.000000000               0.000000000              -0.000011923               0.004367498               0.000009496              -0.000550407               0.001639287               0.001088880               0.000000000               0.000000000               0.000000000               0.000000000               0.001445535               0.004186246              -0.002192436               0.000018792               0.001389136               0.001407928               0.000000000               0.000000000               0.000000000               0.000000000               0.000615851               0.004648697              -0.001736205              -0.000350144               0.001666264               0.001316120               0.000000000               0.000000000               0.000000000               0.000000000              -0.000027139               0.005271235              -0.001190518              -0.000669080               0.001980087               0.001311007               0.000000000               0.000000000               0.000000000               0.000000000              -0.000150372               0.005354772              -0.000865208              -0.000725734               0.002026817               0.001301083               0.000000000               0.000000000               0.000000000               0.000000000              -0.000144207               0.005309882              -0.000656995              -0.000717811               0.002009213               0.001291402               0.000000000               0.000000000               0.000000000               0.000000000              -0.000114398               0.005225989              -0.000512879              -0.000696146               0.001974028               0.001277881               0.000000000               0.000000000               0.000000000               0.000000000              -0.000078169               0.005122050              -0.000411305              -0.000669568               0.001930522               0.001260954               0.000000000               0.000000000               0.000000000               0.000000000              -0.000043847               0.005019237              -0.000330883              -0.000643846               0.001887677               0.001243832               0.000000000               0.000000000               0.000000000               0.000000000              -0.000025243               0.004921000              -0.000258791              -0.000624590               0.001848513               0.001223924               0.000000000               0.000000000               0.000000000               0.000000000              -0.000020218               0.004824226              -0.000195199              -0.000610609               0.001811596               0.001200987               0.000000000               0.000000000               0.000000000               0.000000000              -0.000021343               0.004723371              -0.000139953              -0.000598424               0.001773916               0.001175492               0.000000000               0.000000000               0.000000000               0.000000000              -0.000024551               0.004615921              -0.000094282              -0.000586195               0.001734024               0.001147828               0.000000000               0.000000000               0.000000000               0.000000000              -0.000029499               0.004509510              -0.000056957              -0.000574749               0.001694738               0.001119989               0.000000000               0.000000000               0.000000000               0.000000000              -0.000038489               0.004409746              -0.000026879              -0.000565650               0.001658451               0.001092800               0.000000000               0.000000000               0.000000000               0.000000000              -0.000050039               0.004315372              -0.000006009              -0.000558185               0.001624505               0.001066320               0.000000000               0.000000000               0.000000000               0.000000000              -0.000057473               0.004225318               0.000003719              -0.000549716               0.001591664               0.001041948               0.000000000               0.000000000               0.000000000               0.000000000              -0.000057002               0.004176577               0.000006582              -0.000543447               0.001573327               0.001029881               0.000000000               0.000000000               0.000000000               0.000000000               0.001196938               0.003173443              -0.001830879               0.000052168               0.001040413               0.001092582               0.000000000               0.000000000               0.000000000               0.000000000               0.000529546               0.003835622              -0.001663726              -0.000280874               0.001372152               0.001091278               0.000000000               0.000000000               0.000000000               0.000000000              -0.000062539               0.004660785              -0.001368357              -0.000606050               0.001755596               0.001149546               0.000000000               0.000000000               0.000000000               0.000000000              -0.000174255               0.004918969              -0.001081285              -0.000680216               0.001866378               0.001186163               0.000000000               0.000000000               0.000000000               0.000000000              -0.000156752               0.004986099              -0.000863047              -0.000682043               0.001889364               0.001207321               0.000000000               0.000000000               0.000000000               0.000000000              -0.000118293               0.004976998              -0.000699491              -0.000666483               0.001881144               0.001214661               0.000000000               0.000000000               0.000000000               0.000000000              -0.000081591               0.004928356              -0.000573276              -0.000646639               0.001858315               0.001211676               0.000000000               0.000000000               0.000000000               0.000000000              -0.000046642               0.004860031              -0.000466649              -0.000624993               0.001828325               0.001203332               0.000000000               0.000000000               0.000000000               0.000000000              -0.000027074               0.004783149              -0.000374114              -0.000608045               0.001797049               0.001189004               0.000000000               0.000000000               0.000000000               0.000000000              -0.000024485               0.004705722              -0.000295724              -0.000597396               0.001767690               0.001170295               0.000000000               0.000000000               0.000000000               0.000000000              -0.000030159               0.004620567              -0.000229403              -0.000588879               0.001736467               0.001147587               0.000000000               0.000000000               0.000000000               0.000000000              -0.000037276               0.004529236              -0.000171303              -0.000580131               0.001703107               0.001122976               0.000000000               0.000000000               0.000000000               0.000000000              -0.000049106               0.004429981              -0.000117548              -0.000572161               0.001667366               0.001095205               0.000000000               0.000000000               0.000000000               0.000000000              -0.000066920               0.004331263              -0.000069716              -0.000566501               0.001632574               0.001066072               0.000000000               0.000000000               0.000000000               0.000000000              -0.000091393               0.004237056              -0.000031032              -0.000563903               0.001600306               0.001036403               0.000000000               0.000000000               0.000000000               0.000000000              -0.000119736               0.004141720              -0.000007343              -0.000562614               0.001568098               0.001005483               0.000000000               0.000000000               0.000000000               0.000000000              -0.000134267               0.004090620               0.000000972              -0.000561676               0.001550752               0.000989076               0.000000000               0.000000000               0.000000000               0.000000000               0.000808066               0.002235960              -0.001439650               0.000023527               0.000737469               0.000760997               0.000000000               0.000000000               0.000000000               0.000000000               0.000426776               0.003026123              -0.001542218              -0.000218226               0.001081439               0.000863213               0.000000000               0.000000000               0.000000000               0.000000000              -0.000028800               0.003978237              -0.001499897              -0.000508080               0.001495425               0.000987346               0.000000000               0.000000000               0.000000000               0.000000000              -0.000131337               0.004397223              -0.001285814              -0.000598904               0.001665361               0.001066457               0.000000000               0.000000000               0.000000000               0.000000000              -0.000120625               0.004588806              -0.001076639              -0.000618834               0.001735865               0.001117031               0.000000000               0.000000000               0.000000000               0.000000000              -0.000084124               0.004675116              -0.000900895              -0.000615935               0.001763668               0.001147733               0.000000000               0.000000000               0.000000000               0.000000000              -0.000055663               0.004700591              -0.000756268              -0.000608446               0.001769663               0.001161217               0.000000000               0.000000000               0.000000000               0.000000000              -0.000028398               0.004685000              -0.000630936              -0.000596273               0.001760408               0.001164136               0.000000000               0.000000000               0.000000000               0.000000000              -0.000007868               0.004648017              -0.000520111              -0.000583951               0.001743974               0.001160022               0.000000000               0.000000000               0.000000000               0.000000000              -0.000001068               0.004598477              -0.000428106              -0.000575209               0.001724547               0.001149338               0.000000000               0.000000000               0.000000000               0.000000000              -0.000004712               0.004536964              -0.000353454              -0.000568886               0.001701935               0.001133049               0.000000000               0.000000000               0.000000000               0.000000000              -0.000013958               0.004466458              -0.000285251              -0.000563540               0.001676651               0.001113111               0.000000000               0.000000000               0.000000000               0.000000000              -0.000031182               0.004385583              -0.000216723              -0.000559890               0.001648476               0.001088586               0.000000000               0.000000000               0.000000000               0.000000000              -0.000060867               0.004297350              -0.000149703              -0.000559993               0.001619100               0.001059107               0.000000000               0.000000000               0.000000000               0.000000000              -0.000103731               0.004208797              -0.000088396              -0.000564997               0.001591251               0.001026253               0.000000000               0.000000000               0.000000000               0.000000000              -0.000161063               0.004124365              -0.000037763              -0.000575943               0.001566756               0.000990813               0.000000000               0.000000000               0.000000000               0.000000000              -0.000204834               0.004073594              -0.000010733              -0.000586011               0.001553188               0.000967177               0.000000000               0.000000000               0.000000000               0.000000000               0.000310705               0.001431945              -0.001036281              -0.000062480               0.000498136               0.000435656               0.000000000               0.000000000               0.000000000               0.000000000               0.000267739               0.002258125              -0.001350527              -0.000181865               0.000813322               0.000631457               0.000000000               0.000000000               0.000000000               0.000000000               0.000035683               0.003225682              -0.001524059              -0.000389830               0.001205159               0.000815329               0.000000000               0.000000000               0.000000000               0.000000000              -0.000022820               0.003760206              -0.001402307              -0.000478583               0.001412917               0.000934333               0.000000000               0.000000000               0.000000000               0.000000000              -0.000016305               0.004069719              -0.001222944              -0.000514829               0.001528169               0.001013340               0.000000000               0.000000000               0.000000000               0.000000000               0.000007742               0.004255889              -0.001050757              -0.000529082               0.001594976               0.001065894               0.000000000               0.000000000               0.000000000               0.000000000               0.000025469               0.004365778              -0.000902162              -0.000536170               0.001633968               0.001097798               0.000000000               0.000000000               0.000000000               0.000000000               0.000040079               0.004420335              -0.000770764              -0.000537511               0.001652600               0.001115089               0.000000000               0.000000000               0.000000000               0.000000000               0.000054016               0.004433979              -0.000653671              -0.000533990               0.001655975               0.001121985               0.000000000               0.000000000               0.000000000               0.000000000               0.000062891               0.004423434              -0.000556437              -0.000529344               0.001650911               0.001121567               0.000000000               0.000000000               0.000000000               0.000000000               0.000062638               0.004398691              -0.000475919              -0.000526346               0.001641664               0.001115318               0.000000000               0.000000000               0.000000000               0.000000000               0.000051795               0.004362969              -0.000400104              -0.000525947               0.001629624               0.001103677               0.000000000               0.000000000               0.000000000               0.000000000               0.000032400               0.004316913              -0.000321007              -0.000527463               0.001614777               0.001087315               0.000000000               0.000000000               0.000000000               0.000000000              -0.000001519               0.004255147              -0.000239632              -0.000532462               0.001595856               0.001063394               0.000000000               0.000000000               0.000000000               0.000000000              -0.000054617               0.004182984              -0.000157328              -0.000543353               0.001575432               0.001032079               0.000000000               0.000000000               0.000000000               0.000000000              -0.000131882               0.004111967              -0.000075693              -0.000563450               0.001558459               0.000995009               0.000000000               0.000000000               0.000000000               0.000000000              -0.000197299               0.004064873              -0.000029063              -0.000582095               0.001548976               0.000966881               0.000000000               0.000000000               0.000000000               0.000000000              -0.000256199               0.000805039              -0.000664378              -0.000196705               0.000333911               0.000137207               0.000000000               0.000000000               0.000000000               0.000000000               0.000063307               0.001568115              -0.001104819              -0.000172275               0.000580124               0.000407849               0.000000000               0.000000000               0.000000000               0.000000000               0.000109868               0.002459168              -0.001426643              -0.000266196               0.000908446               0.000642250               0.000000000               0.000000000               0.000000000               0.000000000               0.000128252               0.003055203              -0.001393994              -0.000333806               0.001129659               0.000795853               0.000000000               0.000000000               0.000000000               0.000000000               0.000146080               0.003458189              -0.001258874              -0.000377494               0.001278549               0.000901055               0.000000000               0.000000000               0.000000000               0.000000000               0.000160334               0.003739401              -0.001105113              -0.000407300               0.001382221               0.000974921               0.000000000               0.000000000               0.000000000               0.000000000               0.000166597               0.003935929              -0.000965884              -0.000429517               0.001455135               0.001025618               0.000000000               0.000000000               0.000000000               0.000000000               0.000167608               0.004065459              -0.000842670              -0.000445329               0.001503582               0.001058253               0.000000000               0.000000000               0.000000000               0.000000000               0.000169335               0.004140297              -0.000732821              -0.000454036               0.001531430               0.001077394               0.000000000               0.000000000               0.000000000               0.000000000               0.000170637               0.004181666              -0.000640149              -0.000458719               0.001546781               0.001088062               0.000000000               0.000000000               0.000000000               0.000000000               0.000168455               0.004204161              -0.000559527              -0.000462348               0.001555489               0.001093141               0.000000000               0.000000000               0.000000000               0.000000000               0.000158406               0.004212503              -0.000482346              -0.000467160               0.001559873               0.001092714               0.000000000               0.000000000               0.000000000               0.000000000               0.000141959               0.004209502              -0.000401730              -0.000472952               0.001560804               0.001087852               0.000000000               0.000000000               0.000000000               0.000000000               0.000115953               0.004187907              -0.000314344              -0.000480005               0.001555957               0.001075952               0.000000000               0.000000000               0.000000000               0.000000000               0.000071847               0.004144766              -0.000218609              -0.000491152               0.001545292               0.001054140               0.000000000               0.000000000               0.000000000               0.000000000               0.000005526               0.004096499              -0.000112519              -0.000509989               0.001535482               0.001025493               0.000000000               0.000000000               0.000000000               0.000000000              -0.000055429               0.004061748              -0.000050342              -0.000528503               0.001530070               0.001001567               0.000000000               0.000000000               0.000000000               0.000000000              -0.000827072               0.000355189              -0.000364329              -0.000354550               0.000236578              -0.000117972               0.000000000               0.000000000               0.000000000               0.000000000              -0.000164369               0.000993423              -0.000826708              -0.000185816               0.000393076               0.000207259               0.000000000               0.000000000               0.000000000               0.000000000               0.000176856               0.001748603              -0.001203523              -0.000152255               0.000633613               0.000481358               0.000000000               0.000000000               0.000000000               0.000000000               0.000296245               0.002356662              -0.001237335              -0.000183492               0.000846709               0.000663218               0.000000000               0.000000000               0.000000000               0.000000000               0.000340140               0.002823621              -0.001151068              -0.000225401               0.001016331               0.000790930               0.000000000               0.000000000               0.000000000               0.000000000               0.000352545               0.003182762              -0.001029103              -0.000265641               0.001149457               0.000883816               0.000000000               0.000000000               0.000000000               0.000000000               0.000348986               0.003456926              -0.000911634              -0.000301246               0.001252712               0.000951466               0.000000000               0.000000000               0.000000000               0.000000000               0.000337428               0.003659025              -0.000806496              -0.000330842               0.001329944               0.000999101               0.000000000               0.000000000               0.000000000               0.000000000               0.000325555               0.003799879              -0.000712768              -0.000352901               0.001384247               0.001031346               0.000000000               0.000000000               0.000000000               0.000000000               0.000315429               0.003897111              -0.000633948              -0.000368852               0.001421975               0.001053122               0.000000000               0.000000000               0.000000000               0.000000000               0.000308628               0.003968553              -0.000563927              -0.000380333               0.001449615               0.001069282               0.000000000               0.000000000               0.000000000               0.000000000               0.000302751               0.004024270              -0.000494749              -0.000389501               0.001471244               0.001081742               0.000000000               0.000000000               0.000000000               0.000000000               0.000293977               0.004063640              -0.000421738              -0.000397713               0.001487104               0.001089391               0.000000000               0.000000000               0.000000000               0.000000000               0.000282117               0.004084875              -0.000340225              -0.000404815               0.001496550               0.001091735               0.000000000               0.000000000               0.000000000               0.000000000               0.000263705               0.004084016              -0.000245824              -0.000411612               0.001498529               0.001086917               0.000000000               0.000000000               0.000000000               0.000000000               0.000233613               0.004067721              -0.000131333              -0.000420859               0.001496180               0.001075321               0.000000000               0.000000000               0.000000000               0.000000000               0.000205169               0.004051699              -0.000064993              -0.000429523               0.001493727               0.001064204               0.000000000               0.000000000               0.000000000               0.000000000              -0.001317609               0.000073734              -0.000159791              -0.000503320               0.000192350              -0.000310970               0.000000000               0.000000000               0.000000000               0.000000000              -0.000377786               0.000570704              -0.000539722              -0.000213008               0.000261235               0.000048227               0.000000000               0.000000000               0.000000000               0.000000000               0.000225798               0.001172533              -0.000868883              -0.000061893               0.000411471               0.000349578               0.000000000               0.000000000               0.000000000               0.000000000               0.000450762               0.001760378              -0.000929913              -0.000051013               0.000603791               0.000552778               0.000000000               0.000000000               0.000000000               0.000000000               0.000527961               0.002260921              -0.000886081              -0.000084631               0.000781843               0.000697212               0.000000000               0.000000000               0.000000000               0.000000000               0.000546442               0.002671719              -0.000803900              -0.000129050               0.000933580               0.000804531               0.000000000               0.000000000               0.000000000               0.000000000               0.000538863               0.003004924              -0.000719147              -0.000173542               0.001059478               0.000885936               0.000000000               0.000000000               0.000000000               0.000000000               0.000518229               0.003266532              -0.000641909              -0.000213980               0.001160160               0.000946179               0.000000000               0.000000000               0.000000000               0.000000000               0.000495721               0.003465464              -0.000571965              -0.000247287               0.001237572               0.000990285               0.000000000               0.000000000               0.000000000               0.000000000               0.000474231               0.003614338              -0.000512838              -0.000273955               0.001296086               0.001022130               0.000000000               0.000000000               0.000000000               0.000000000               0.000457718               0.003732016              -0.000461030              -0.000294857               0.001342279               0.001047422               0.000000000               0.000000000               0.000000000               0.000000000               0.000450961               0.003831601              -0.000408940              -0.000309839               0.001380467               0.001070628               0.000000000               0.000000000               0.000000000               0.000000000               0.000451379               0.003914934              -0.000353604              -0.000320099               0.001411665               0.001091566               0.000000000               0.000000000               0.000000000               0.000000000               0.000458289               0.003980515              -0.000291805              -0.000325705               0.001435394               0.001109688               0.000000000               0.000000000               0.000000000               0.000000000               0.000471352               0.004021118              -0.000216164              -0.000325882               0.001448986               0.001123105               0.000000000               0.000000000               0.000000000               0.000000000               0.000493274               0.004039990              -0.000118850              -0.000320020               0.001453323               0.001133303               0.000000000               0.000000000               0.000000000               0.000000000               0.000514438               0.004047085              -0.000064321              -0.000312971               0.001453338               0.001140368               0.000000000               0.000000000               0.000000000               0.000000000              -0.001652645              -0.000073995              -0.000051828              -0.000610492               0.000178831              -0.000431661               0.000000000               0.000000000               0.000000000               0.000000000              -0.000530040               0.000315235              -0.000264075              -0.000238169               0.000184467              -0.000053703               0.000000000               0.000000000               0.000000000               0.000000000               0.000252605               0.000798108              -0.000453796              -0.000005037               0.000267712               0.000262675               0.000000000               0.000000000               0.000000000               0.000000000               0.000559079               0.001358049              -0.000498584               0.000039898               0.000439379               0.000479277               0.000000000               0.000000000               0.000000000               0.000000000               0.000665315               0.001871124              -0.000482738               0.000015602               0.000618501               0.000634103               0.000000000               0.000000000               0.000000000               0.000000000               0.000691657               0.002308937              -0.000442866              -0.000029246               0.000779386               0.000750140               0.000000000               0.000000000               0.000000000               0.000000000               0.000685477               0.002674928              -0.000398491              -0.000077312               0.000917404               0.000840092               0.000000000               0.000000000               0.000000000               0.000000000               0.000660626               0.002971095              -0.000357124              -0.000123652               0.001031572               0.000907921               0.000000000               0.000000000               0.000000000               0.000000000               0.000628165               0.003207817              -0.000318948              -0.000165415               0.001124400               0.000958985               0.000000000               0.000000000               0.000000000               0.000000000               0.000596313               0.003398266              -0.000285800              -0.000201165               0.001199799               0.000998634               0.000000000               0.000000000               0.000000000               0.000000000               0.000570023               0.003557907              -0.000258700              -0.000230979               0.001262950               0.001031971               0.000000000               0.000000000               0.000000000               0.000000000               0.000557564               0.003698929              -0.000231649              -0.000253279               0.001317390               0.001064111               0.000000000               0.000000000               0.000000000               0.000000000               0.000562490               0.003819790              -0.000201688              -0.000266539               0.001362097               0.001095558               0.000000000               0.000000000               0.000000000               0.000000000               0.000586690               0.003917376              -0.000168235              -0.000269663               0.001395666               0.001126004               0.000000000               0.000000000               0.000000000               0.000000000               0.000632559               0.003985049              -0.000126864              -0.000260921               0.001415310               0.001154389               0.000000000               0.000000000               0.000000000               0.000000000               0.000708716               0.004024534              -0.000071460              -0.000237298               0.001420597               0.001183299               0.000000000               0.000000000               0.000000000               0.000000000               0.000780337               0.004046899              -0.000040604              -0.000213235               0.001420031               0.001206796               0.000000000               0.000000000               0.000000000               0.000000000              -0.001772753              -0.000122261              -0.000000000              -0.000649499               0.000175745              -0.000473754               0.000000000               0.000000000               0.000000000               0.000000000              -0.000584844               0.000228247              -0.000000000              -0.000247847               0.000158697              -0.000089150               0.000000000               0.000000000               0.000000000               0.000000000               0.000260309               0.000668042              -0.000000000               0.000014110               0.000217975               0.000232085               0.000000000               0.000000000               0.000000000               0.000000000               0.000598145               0.001216516              -0.000000000               0.000072239               0.000381422               0.000453661               0.000000000               0.000000000               0.000000000               0.000000000               0.000716350               0.001732931              -0.000000000               0.000052014               0.000560300               0.000612314               0.000000000               0.000000000               0.000000000               0.000000000               0.000746375               0.002177450              -0.000000000               0.000007709               0.000723240               0.000730949               0.000000000               0.000000000               0.000000000               0.000000000               0.000739813               0.002550488               0.000000000              -0.000041381               0.000863948               0.000822567               0.000000000               0.000000000               0.000000000               0.000000000               0.000714542               0.002859556               0.000000000              -0.000089491               0.000983006               0.000893515               0.000000000               0.000000000               0.000000000               0.000000000               0.000678057               0.003111072              -0.000000000              -0.000134612               0.001081884               0.000947272               0.000000000               0.000000000               0.000000000               0.000000000               0.000642623               0.003319128              -0.000000000              -0.000173907               0.001164334               0.000990427               0.000000000               0.000000000               0.000000000               0.000000000               0.000612473               0.003495585              -0.000000000              -0.000207270               0.001234274               0.001027003               0.000000000               0.000000000               0.000000000               0.000000000               0.000594389               0.003650785               0.000000000              -0.000233452               0.001294733               0.001061282               0.000000000               0.000000000               0.000000000               0.000000000               0.000599758               0.003789617              -0.000000000              -0.000248792               0.001346124               0.001097332               0.000000000               0.000000000               0.000000000               0.000000000               0.000632740               0.003901492              -0.000000000              -0.000250408               0.001383954               0.001133545               0.000000000               0.000000000               0.000000000               0.000000000               0.000694961               0.003976429              -0.000000000              -0.000236443               0.001404277               0.001167835               0.000000000               0.000000000               0.000000000               0.000000000               0.000796686               0.004020810              -0.000000000              -0.000203844               0.001408204               0.001204361               0.000000000               0.000000000               0.000000000               0.000000000               0.000892014               0.004048153               0.000000000              -0.000171513               0.001406542               0.001235028               0.000000000               0.000000000               0.000000000               0.000000000               0.000000000               0.000000000               0.000000000               0.000000000               0.000000000               0.000000000               0.000000000               0.000000000               0.000000000               0.000000000               0.000000000               0.000000000               0.000000000               0.000000000               0.000000000               0.000000000               0.000000000               0.000000000               0.000000000               0.000000000               0.000000000               0.000000000               0.000000000               0.000000000               0.000000000               0.000000000               0.000000000               0.000000000               0.000000000               0.000000000               0.000000000               0.000000000               0.000000000               0.000000000               0.000000000               0.000000000               0.000000000               0.000000000               0.000000000               0.000000000               0.000000000               0.000000000               0.000000000               0.000000000               0.000000000               0.000000000               0.000000000               0.000000000               0.000000000               0.000000000               0.000000000               0.000000000               0.000000000               0.000000000               0.000000000               0.000000000               0.000000000               0.000000000               0.000000000               0.000000000               0.000000000               0.000000000               0.000000000               0.000000000               0.000000000               0.000000000               0.000000000               0.000000000               0.000000000               0.000000000               0.000000000               0.000000000               0.000000000               0.000000000               0.000000000               0.000000000               0.000000000               0.000000000               0.000000000               0.000000000               0.000000000               0.000000000               0.000000000               0.000000000               0.000000000               0.000000000               0.000000000               0.000000000               0.000000000               0.000000000               0.000000000               0.000000000               0.000000000               0.000000000               0.000000000               0.000000000               0.000000000               0.000000000               0.000000000               0.000000000               0.000000000               0.000000000               0.000000000               0.000000000               0.000000000               0.000000000               0.000000000               0.000000000               0.000000000               0.000000000               0.000000000               0.000000000               0.000000000               0.000000000               0.000000000               0.000000000               0.000000000               0.000000000               0.000000000               0.000000000               0.000000000               0.000000000               0.000000000               0.000000000               0.000000000               0.000000000               0.000000000               0.000000000               0.000000000               0.000000000               0.000000000               0.000000000               0.000000000               0.000000000               0.000000000               0.000000000               0.000000000               0.000000000               0.000000000               0.000000000               0.000000000               0.000000000               0.000000000               0.000000000               0.000000000               0.000000000               0.000000000               0.000000000               0.000000000               0.000000000               0.000000000               0.000000000               0.000000000               0.000000000               0.000000000               0.000000000               0.000000000               0.000000000               0.000000000               0.000000000               0.000000000               0.000000000               0.000000000               0.000000000               0.000000000               0.000000000               0.000000000               0.000000000               0.000000000               0.000000000               0.001136689               0.011904235               0.000878627              -0.001061768               0.004321961               0.003260193               0.000000000               0.000000000               0.000000000               0.000000000               0.001167812               0.009710295               0.000520651              -0.000775856               0.003495351               0.002719495               0.000000000               0.000000000               0.000000000               0.000000000               0.001553230               0.007972116               0.000154704              -0.000414052               0.002795363               0.002381311               0.000000000               0.000000000               0.000000000               0.000000000               0.001570121               0.007024309              -0.000009473              -0.000289242               0.002437827               0.002148585               0.000000000               0.000000000               0.000000000               0.000000000               0.001464814               0.006462070              -0.000081840              -0.000258453               0.002240153               0.001981700               0.000000000               0.000000000               0.000000000               0.000000000               0.001328614               0.006103005              -0.000111478              -0.000264645               0.002122529               0.001857885               0.000000000               0.000000000               0.000000000               0.000000000               0.001184253               0.005859599              -0.000124075              -0.000288354               0.002049298               0.001760944               0.000000000               0.000000000               0.000000000               0.000000000               0.001037621               0.005690004              -0.000129315              -0.000322142               0.002004030               0.001681888               0.000000000               0.000000000               0.000000000               0.000000000               0.000898098               0.005568860              -0.000127699              -0.000359320               0.001976041               0.001616722               0.000000000               0.000000000               0.000000000               0.000000000               0.000768323               0.005476197              -0.000122425              -0.000396403               0.001957515               0.001561112               0.000000000               0.000000000               0.000000000               0.000000000               0.000643913               0.005399005              -0.000116193              -0.000433407               0.001944119               0.001510712               0.000000000               0.000000000               0.000000000               0.000000000               0.000523857               0.005332950              -0.000109410              -0.000470171               0.001934356               0.001464185               0.000000000               0.000000000               0.000000000               0.000000000               0.000407469               0.005274100              -0.000101929              -0.000506460               0.001926836               0.001420376               0.000000000               0.000000000               0.000000000               0.000000000               0.000292435               0.005215283              -0.000091620              -0.000542246               0.001919159               0.001376913               0.000000000               0.000000000               0.000000000               0.000000000               0.000181357               0.005150293              -0.000075370              -0.000575776               0.001908673               0.001332896               0.000000000               0.000000000               0.000000000               0.000000000               0.000082708               0.005074387              -0.000045415              -0.000603282               0.001892539               0.001289258               0.000000000               0.000000000               0.000000000               0.000000000               0.000033264               0.005018311              -0.000026580              -0.000614813               0.001877691               0.001262878               0.000000000               0.000000000               0.000000000               0.000000000               0.001283435               0.011267005               0.001655670              -0.000927086               0.004064659               0.003137573               0.000000000               0.000000000               0.000000000               0.000000000               0.001170604               0.009277618               0.000986405              -0.000720724               0.003332750               0.002612025               0.000000000               0.000000000               0.000000000               0.000000000               0.001401302               0.007753008               0.000307219              -0.000443637               0.002732189               0.002288552               0.000000000               0.000000000               0.000000000               0.000000000               0.001357608               0.006909037               0.000008596              -0.000354526               0.002421165               0.002066639               0.000000000               0.000000000               0.000000000               0.000000000               0.001236712               0.006394322              -0.000120240              -0.000335523               0.002243260               0.001907738               0.000000000               0.000000000               0.000000000               0.000000000               0.001105207               0.006055817              -0.000172858              -0.000342524               0.002132760               0.001790236               0.000000000               0.000000000               0.000000000               0.000000000               0.000975517               0.005825752              -0.000194960              -0.000362399               0.002062698               0.001700298               0.000000000               0.000000000               0.000000000               0.000000000               0.000848044               0.005662614              -0.000203009              -0.000389809               0.002017456               0.001627646               0.000000000               0.000000000               0.000000000               0.000000000               0.000728068               0.005540753              -0.000199492              -0.000419568               0.001986755               0.001567187               0.000000000               0.000000000               0.000000000               0.000000000               0.000615514               0.005445666              -0.000188140              -0.000449889               0.001965167               0.001515278               0.000000000               0.000000000               0.000000000               0.000000000               0.000505890               0.005366907              -0.000176076              -0.000481153               0.001949335               0.001468182               0.000000000               0.000000000               0.000000000               0.000000000               0.000401498               0.005302456              -0.000165730              -0.000512244               0.001938216               0.001425972               0.000000000               0.000000000               0.000000000               0.000000000               0.000304121               0.005247095              -0.000152814              -0.000541840               0.001929628               0.001387787               0.000000000               0.000000000               0.000000000               0.000000000               0.000213552               0.005193797              -0.000133663              -0.000569141               0.001920962               0.001351821               0.000000000               0.000000000               0.000000000               0.000000000               0.000131046               0.005140471              -0.000105495              -0.000593415               0.001911278               0.001317863               0.000000000               0.000000000               0.000000000               0.000000000               0.000058507               0.005085743              -0.000061100              -0.000613776               0.001899823               0.001286047               0.000000000               0.000000000               0.000000000               0.000000000               0.000023534               0.005052332              -0.000034871              -0.000622715               0.001891666               0.001268951               0.000000000               0.000000000               0.000000000               0.000000000               0.001476096               0.010291331               0.002255994              -0.000732880               0.003674702               0.002941822               0.000000000               0.000000000               0.000000000               0.000000000               0.001159829               0.008620747               0.001360091              -0.000642657               0.003087772               0.002445116               0.000000000               0.000000000               0.000000000               0.000000000               0.001172859               0.007419714               0.000459832              -0.000487641               0.002635760               0.002148119               0.000000000               0.000000000               0.000000000               0.000000000               0.001056843               0.006727357               0.000076249              -0.000444603               0.002390631               0.001946028               0.000000000               0.000000000               0.000000000               0.000000000               0.000925629               0.006285014              -0.000088924              -0.000438515               0.002241155               0.001802641               0.000000000               0.000000000               0.000000000               0.000000000               0.000808385               0.005988897              -0.000159255              -0.000445467               0.002144768               0.001699301               0.000000000               0.000000000               0.000000000               0.000000000               0.000701336               0.005782602              -0.000190802              -0.000459823               0.002080789               0.001620966               0.000000000               0.000000000               0.000000000               0.000000000               0.000599847               0.005627608              -0.000201034              -0.000478507               0.002035353               0.001556846               0.000000000               0.000000000               0.000000000               0.000000000               0.000506517               0.005503579              -0.000197454              -0.000498002               0.002000509               0.001502507               0.000000000               0.000000000               0.000000000               0.000000000               0.000419961               0.005403448              -0.000187435              -0.000517944               0.001973779               0.001455835               0.000000000               0.000000000               0.000000000               0.000000000               0.000337841               0.005324109              -0.000178647              -0.000538822               0.001954293               0.001415471               0.000000000               0.000000000               0.000000000               0.000000000               0.000261886               0.005263446              -0.000171274              -0.000559722               0.001941039               0.001381317               0.000000000               0.000000000               0.000000000               0.000000000               0.000190660               0.005210950              -0.000157921              -0.000579870               0.001930256               0.001350386               0.000000000               0.000000000               0.000000000               0.000000000               0.000126756               0.005162845              -0.000137829              -0.000597821               0.001920205               0.001322384               0.000000000               0.000000000               0.000000000               0.000000000               0.000075239               0.005121081              -0.000107312              -0.000611919               0.001910983               0.001299064               0.000000000               0.000000000               0.000000000               0.000000000               0.000034317               0.005085208              -0.000060297              -0.000622780               0.001902646               0.001279865               0.000000000               0.000000000               0.000000000               0.000000000               0.000015765               0.005068065              -0.000033073              -0.000627595               0.001898536               0.001270942               0.000000000               0.000000000               0.000000000               0.000000000               0.001652085               0.009093356               0.002635311              -0.000517139               0.003203468               0.002686329               0.000000000               0.000000000               0.000000000               0.000000000               0.001117622               0.007826959               0.001619099              -0.000559261               0.002795380               0.002236119               0.000000000               0.000000000               0.000000000               0.000000000               0.000894741               0.007019249               0.000606094              -0.000541877               0.002520352               0.001978475               0.000000000               0.000000000               0.000000000               0.000000000               0.000719097               0.006505884               0.000186559              -0.000543573               0.002349797               0.001806224               0.000000000               0.000000000               0.000000000               0.000000000               0.000595100               0.006152869               0.000001770              -0.000545945               0.002232917               0.001686972               0.000000000               0.000000000               0.000000000               0.000000000               0.000504929               0.005905789              -0.000079900              -0.000548874               0.002151535               0.001602661               0.000000000               0.000000000               0.000000000               0.000000000               0.000426316               0.005719309              -0.000116592              -0.000555044               0.002091432               0.001536388               0.000000000               0.000000000               0.000000000               0.000000000               0.000354621               0.005568326              -0.000130896              -0.000563057               0.002043776               0.001480719               0.000000000               0.000000000               0.000000000               0.000000000               0.000295515               0.005446149              -0.000133096              -0.000569949               0.002005348               0.001435399               0.000000000               0.000000000               0.000000000               0.000000000               0.000242515               0.005346333              -0.000131851              -0.000577347               0.001974542               0.001397195               0.000000000               0.000000000               0.000000000               0.000000000               0.000192304               0.005268115              -0.000134051              -0.000586399               0.001951487               0.001365088               0.000000000               0.000000000               0.000000000               0.000000000               0.000146220               0.005204571              -0.000135762              -0.000595737               0.001933419               0.001337681               0.000000000               0.000000000               0.000000000               0.000000000               0.000104938               0.005149314              -0.000127203              -0.000604311               0.001917858               0.001313547               0.000000000               0.000000000               0.000000000               0.000000000               0.000069893               0.005099350              -0.000110976              -0.000611207               0.001903502               0.001292295               0.000000000               0.000000000               0.000000000               0.000000000               0.000041530               0.005055717              -0.000084793              -0.000616389               0.001890685               0.001274296               0.000000000               0.000000000               0.000000000               0.000000000               0.000020131               0.005024567              -0.000045473              -0.000620520               0.001881679               0.001261159               0.000000000               0.000000000               0.000000000               0.000000000               0.000011883               0.005014322              -0.000023148              -0.000622332               0.001878868               0.001256536               0.000000000               0.000000000               0.000000000               0.000000000               0.001751883               0.007794007               0.002781804              -0.000317297               0.002703741               0.002386444               0.000000000               0.000000000               0.000000000               0.000000000               0.001030377               0.006983628               0.001759965              -0.000486562               0.002490040               0.002003477               0.000000000               0.000000000               0.000000000               0.000000000               0.000602561               0.006594407               0.000743904              -0.000598339               0.002397560               0.001799221               0.000000000               0.000000000               0.000000000               0.000000000               0.000400131               0.006260695               0.000330528              -0.000632536               0.002297723               0.001665187               0.000000000               0.000000000               0.000000000               0.000000000               0.000298249               0.005990301               0.000142684              -0.000636943               0.002209061               0.001572119               0.000000000               0.000000000               0.000000000               0.000000000               0.000237917               0.005778671               0.000053503              -0.000633113               0.002137242               0.001504129               0.000000000               0.000000000               0.000000000               0.000000000               0.000193938               0.005610338               0.000009537              -0.000628564               0.002079615               0.001451051               0.000000000               0.000000000               0.000000000               0.000000000               0.000158494               0.005467925              -0.000015941              -0.000624054               0.002030641               0.001406588               0.000000000               0.000000000               0.000000000               0.000000000               0.000134053               0.005348952              -0.000032093              -0.000618347               0.001989082               0.001370735               0.000000000               0.000000000               0.000000000               0.000000000               0.000112722               0.005251304              -0.000045748              -0.000614141               0.001955131               0.001340990               0.000000000               0.000000000               0.000000000               0.000000000               0.000091682               0.005172052              -0.000060912              -0.000612124               0.001928042               0.001315917               0.000000000               0.000000000               0.000000000               0.000000000               0.000072046               0.005101775              -0.000071820              -0.000610703               0.001904142               0.001293439               0.000000000               0.000000000               0.000000000               0.000000000               0.000052617               0.005033966              -0.000070818              -0.000609513               0.001881143               0.001271630               0.000000000               0.000000000               0.000000000               0.000000000               0.000036926               0.004970058              -0.000060786              -0.000607408               0.001859139               0.001251730               0.000000000               0.000000000               0.000000000               0.000000000               0.000023672               0.004914120              -0.000043988              -0.000605387               0.001839819               0.001234433               0.000000000               0.000000000               0.000000000               0.000000000               0.000011298               0.004869730              -0.000021172              -0.000604478               0.001824720               0.001220242               0.000000000               0.000000000               0.000000000               0.000000000               0.000003910               0.004847282              -0.000010452              -0.000604443               0.001817225               0.001212783               0.000000000               0.000000000               0.000000000               0.000000000               0.001737608               0.006492903               0.002722567              -0.000160013               0.002217616               0.002057603               0.000000000               0.000000000               0.000000000               0.000000000               0.000903066               0.006147603               0.001807077              -0.000429801               0.002192447               0.001762646               0.000000000               0.000000000               0.000000000               0.000000000               0.000333150               0.006152683               0.000885229              -0.000644153               0.002265591               0.001621438               0.000000000               0.000000000               0.000000000               0.000000000               0.000137428               0.005971876               0.000503710              -0.000694947               0.002222254               0.001527307               0.000000000               0.000000000               0.000000000               0.000000000               0.000070330               0.005772580               0.000316585              -0.000695197               0.002155906               0.001460709               0.000000000               0.000000000               0.000000000               0.000000000               0.000044284               0.005600826               0.000212026              -0.000683495               0.002094755               0.001411260               0.000000000               0.000000000               0.000000000               0.000000000               0.000035936               0.005457126               0.000151290              -0.000668663               0.002041912               0.001373249               0.000000000               0.000000000               0.000000000               0.000000000               0.000032874               0.005325501               0.000110150              -0.000653358               0.001992935               0.001339577               0.000000000               0.000000000               0.000000000               0.000000000               0.000032831               0.005210570               0.000076236              -0.000639008               0.001949842               0.001310834               0.000000000               0.000000000               0.000000000               0.000000000               0.000031528               0.005113973               0.000045496              -0.000627422               0.001913782               0.001286359               0.000000000               0.000000000               0.000000000               0.000000000               0.000028981               0.005028153               0.000015670              -0.000617650               0.001881917               0.001264268               0.000000000               0.000000000               0.000000000               0.000000000               0.000024388               0.004945142              -0.000005700              -0.000608996               0.001851363               0.001242367               0.000000000               0.000000000               0.000000000               0.000000000               0.000017486               0.004861443              -0.000013438              -0.000601122               0.001820839               0.001219717               0.000000000               0.000000000               0.000000000               0.000000000               0.000011543               0.004782620              -0.000015393              -0.000593497               0.001792023               0.001198526               0.000000000               0.000000000               0.000000000               0.000000000               0.000005046               0.004712418              -0.000013194              -0.000587159               0.001766510               0.001179351               0.000000000               0.000000000               0.000000000               0.000000000               0.000001684               0.004651517              -0.000006307              -0.000580807               0.001744092               0.001163286               0.000000000               0.000000000               0.000000000               0.000000000              -0.000004632               0.004612334              -0.000006776              -0.000578277               0.001730188               0.001151911               0.000000000               0.000000000               0.000000000               0.000000000               0.001616749               0.005257780               0.002507463              -0.000050945               0.001769556               0.001718611               0.000000000               0.000000000               0.000000000               0.000000000               0.000749028               0.005358329               0.001788765              -0.000388906               0.001915727               0.001526820               0.000000000               0.000000000               0.000000000               0.000000000               0.000114058               0.005699785               0.001030248              -0.000669700               0.002123142               0.001453442               0.000000000               0.000000000               0.000000000               0.000000000              -0.000048149               0.005647775               0.000681067              -0.000724026               0.002123915               0.001399889               0.000000000               0.000000000               0.000000000               0.000000000              -0.000073348               0.005523231               0.000485897              -0.000717907               0.002080361               0.001362453               0.000000000               0.000000000               0.000000000               0.000000000              -0.000065644               0.005396490               0.000361227              -0.000699176               0.002031871               0.001332695               0.000000000               0.000000000               0.000000000               0.000000000              -0.000049052               0.005272254               0.000281578              -0.000677425               0.001983209               0.001305784               0.000000000               0.000000000               0.000000000               0.000000000              -0.000030531               0.005152643               0.000223223              -0.000655528               0.001936040               0.001280512               0.000000000               0.000000000               0.000000000               0.000000000              -0.000015928               0.005045675               0.000169474              -0.000636681               0.001894102               0.001257421               0.000000000               0.000000000               0.000000000               0.000000000              -0.000010014               0.004947419               0.000120714              -0.000622181               0.001856517               0.001234336               0.000000000               0.000000000               0.000000000               0.000000000              -0.000008975               0.004851506               0.000077359              -0.000609803               0.001820420               0.001210618               0.000000000               0.000000000               0.000000000               0.000000000              -0.000009982               0.004752342               0.000043444              -0.000597784               0.001783360               0.001185575               0.000000000               0.000000000               0.000000000               0.000000000              -0.000013388               0.004654374               0.000021518              -0.000586816               0.001747048               0.001160232               0.000000000               0.000000000               0.000000000               0.000000000              -0.000015906               0.004565504               0.000005843              -0.000576651               0.001714036               0.001137385               0.000000000               0.000000000               0.000000000               0.000000000              -0.000017903               0.004484521              -0.000004935              -0.000567277               0.001683918               0.001116641               0.000000000               0.000000000               0.000000000               0.000000000              -0.000012502               0.004412923              -0.000006727              -0.000556302               0.001656394               0.001100091               0.000000000               0.000000000               0.000000000               0.000000000              -0.000011923               0.004367498              -0.000009496              -0.000550407               0.001639287               0.001088880               0.000000000               0.000000000               0.000000000               0.000000000               0.001445535               0.004186246               0.002192436               0.000018792               0.001389136               0.001407928               0.000000000               0.000000000               0.000000000               0.000000000               0.000615851               0.004648697               0.001736205              -0.000350144               0.001666264               0.001316120               0.000000000               0.000000000               0.000000000               0.000000000              -0.000027139               0.005271235               0.001190518              -0.000669080               0.001980087               0.001311007               0.000000000               0.000000000               0.000000000               0.000000000              -0.000150372               0.005354772               0.000865208              -0.000725734               0.002026817               0.001301083               0.000000000               0.000000000               0.000000000               0.000000000              -0.000144207               0.005309882               0.000656995              -0.000717811               0.002009213               0.001291402               0.000000000               0.000000000               0.000000000               0.000000000              -0.000114398               0.005225989               0.000512879              -0.000696146               0.001974028               0.001277881               0.000000000               0.000000000               0.000000000               0.000000000              -0.000078169               0.005122050               0.000411305              -0.000669568               0.001930522               0.001260954               0.000000000               0.000000000               0.000000000               0.000000000              -0.000043847               0.005019237               0.000330883              -0.000643846               0.001887677               0.001243832               0.000000000               0.000000000               0.000000000               0.000000000              -0.000025243               0.004921000               0.000258791              -0.000624590               0.001848513               0.001223924               0.000000000               0.000000000               0.000000000               0.000000000              -0.000020218               0.004824226               0.000195199              -0.000610609               0.001811596               0.001200987               0.000000000               0.000000000               0.000000000               0.000000000              -0.000021343               0.004723371               0.000139953              -0.000598424               0.001773916               0.001175492               0.000000000               0.000000000               0.000000000               0.000000000              -0.000024551               0.004615921               0.000094282              -0.000586195               0.001734024               0.001147828               0.000000000               0.000000000               0.000000000               0.000000000              -0.000029499               0.004509510               0.000056957              -0.000574749               0.001694738               0.001119989               0.000000000               0.000000000               0.000000000               0.000000000              -0.000038489               0.004409746               0.000026879              -0.000565650               0.001658451               0.001092800               0.000000000               0.000000000               0.000000000               0.000000000              -0.000050039               0.004315372               0.000006009              -0.000558185               0.001624505               0.001066320               0.000000000               0.000000000               0.000000000               0.000000000              -0.000057473               0.004225318              -0.000003719              -0.000549716               0.001591664               0.001041948               0.000000000               0.000000000               0.000000000               0.000000000              -0.000057002               0.004176577              -0.000006582              -0.000543447               0.001573327               0.001029881               0.000000000               0.000000000               0.000000000               0.000000000               0.001196938               0.003173443               0.001830879               0.000052168               0.001040413               0.001092582               0.000000000               0.000000000               0.000000000               0.000000000               0.000529546               0.003835622               0.001663726              -0.000280874               0.001372152               0.001091278               0.000000000               0.000000000               0.000000000               0.000000000              -0.000062539               0.004660785               0.001368357              -0.000606050               0.001755596               0.001149546               0.000000000               0.000000000               0.000000000               0.000000000              -0.000174255               0.004918969               0.001081285              -0.000680216               0.001866378               0.001186163               0.000000000               0.000000000               0.000000000               0.000000000              -0.000156752               0.004986099               0.000863047              -0.000682043               0.001889364               0.001207321               0.000000000               0.000000000               0.000000000               0.000000000              -0.000118293               0.004976998               0.000699491              -0.000666483               0.001881144               0.001214661               0.000000000               0.000000000               0.000000000               0.000000000              -0.000081591               0.004928356               0.000573276              -0.000646639               0.001858315               0.001211676               0.000000000               0.000000000               0.000000000               0.000000000              -0.000046642               0.004860031               0.000466649              -0.000624993               0.001828325               0.001203332               0.000000000               0.000000000               0.000000000               0.000000000              -0.000027074               0.004783149               0.000374114              -0.000608045               0.001797049               0.001189004               0.000000000               0.000000000               0.000000000               0.000000000              -0.000024485               0.004705722               0.000295724              -0.000597396               0.001767690               0.001170295               0.000000000               0.000000000               0.000000000               0.000000000              -0.000030159               0.004620567               0.000229403              -0.000588879               0.001736467               0.001147587               0.000000000               0.000000000               0.000000000               0.000000000              -0.000037276               0.004529236               0.000171303              -0.000580131               0.001703107               0.001122976               0.000000000               0.000000000               0.000000000               0.000000000              -0.000049106               0.004429981               0.000117548              -0.000572161               0.001667366               0.001095205               0.000000000               0.000000000               0.000000000               0.000000000              -0.000066920               0.004331263               0.000069716              -0.000566501               0.001632574               0.001066072               0.000000000               0.000000000               0.000000000               0.000000000              -0.000091393               0.004237056               0.000031032              -0.000563903               0.001600306               0.001036403               0.000000000               0.000000000               0.000000000               0.000000000              -0.000119736               0.004141720               0.000007343              -0.000562614               0.001568098               0.001005483               0.000000000               0.000000000               0.000000000               0.000000000              -0.000134267               0.004090620              -0.000000972              -0.000561676               0.001550752               0.000989076               0.000000000               0.000000000               0.000000000               0.000000000               0.000808066               0.002235960               0.001439650               0.000023527               0.000737469               0.000760997               0.000000000               0.000000000               0.000000000               0.000000000               0.000426776               0.003026123               0.001542218              -0.000218226               0.001081439               0.000863213               0.000000000               0.000000000               0.000000000               0.000000000              -0.000028800               0.003978237               0.001499897              -0.000508080               0.001495425               0.000987346               0.000000000               0.000000000               0.000000000               0.000000000              -0.000131337               0.004397223               0.001285814              -0.000598904               0.001665361               0.001066457               0.000000000               0.000000000               0.000000000               0.000000000              -0.000120625               0.004588806               0.001076639              -0.000618834               0.001735865               0.001117031               0.000000000               0.000000000               0.000000000               0.000000000              -0.000084124               0.004675116               0.000900895              -0.000615935               0.001763668               0.001147733               0.000000000               0.000000000               0.000000000               0.000000000              -0.000055663               0.004700591               0.000756268              -0.000608446               0.001769663               0.001161217               0.000000000               0.000000000               0.000000000               0.000000000              -0.000028398               0.004685000               0.000630936              -0.000596273               0.001760408               0.001164136               0.000000000               0.000000000               0.000000000               0.000000000              -0.000007868               0.004648017               0.000520111              -0.000583951               0.001743974               0.001160022               0.000000000               0.000000000               0.000000000               0.000000000              -0.000001068               0.004598477               0.000428106              -0.000575209               0.001724547               0.001149338               0.000000000               0.000000000               0.000000000               0.000000000              -0.000004712               0.004536964               0.000353454              -0.000568886               0.001701935               0.001133049               0.000000000               0.000000000               0.000000000               0.000000000              -0.000013958               0.004466458               0.000285251              -0.000563540               0.001676651               0.001113111               0.000000000               0.000000000               0.000000000               0.000000000              -0.000031182               0.004385583               0.000216723              -0.000559890               0.001648476               0.001088586               0.000000000               0.000000000               0.000000000               0.000000000              -0.000060867               0.004297350               0.000149703              -0.000559993               0.001619100               0.001059107               0.000000000               0.000000000               0.000000000               0.000000000              -0.000103731               0.004208797               0.000088396              -0.000564997               0.001591251               0.001026253               0.000000000               0.000000000               0.000000000               0.000000000              -0.000161063               0.004124365               0.000037763              -0.000575943               0.001566756               0.000990813               0.000000000               0.000000000               0.000000000               0.000000000              -0.000204834               0.004073594               0.000010733              -0.000586011               0.001553188               0.000967177               0.000000000               0.000000000               0.000000000               0.000000000               0.000310705               0.001431945               0.001036281              -0.000062480               0.000498136               0.000435656               0.000000000               0.000000000               0.000000000               0.000000000               0.000267739               0.002258125               0.001350527              -0.000181865               0.000813322               0.000631457               0.000000000               0.000000000               0.000000000               0.000000000               0.000035683               0.003225682               0.001524059              -0.000389830               0.001205159               0.000815329               0.000000000               0.000000000               0.000000000               0.000000000              -0.000022820               0.003760206               0.001402307              -0.000478583               0.001412917               0.000934333               0.000000000               0.000000000               0.000000000               0.000000000              -0.000016305               0.004069719               0.001222944              -0.000514829               0.001528169               0.001013340               0.000000000               0.000000000               0.000000000               0.000000000               0.000007742               0.004255889               0.001050757              -0.000529082               0.001594976               0.001065894               0.000000000               0.000000000               0.000000000               0.000000000               0.000025469               0.004365778               0.000902162              -0.000536170               0.001633968               0.001097798               0.000000000               0.000000000               0.000000000               0.000000000               0.000040079               0.004420335               0.000770764              -0.000537511               0.001652600               0.001115089               0.000000000               0.000000000               0.000000000               0.000000000               0.000054016               0.004433979               0.000653671              -0.000533990               0.001655975               0.001121985               0.000000000               0.000000000               0.000000000               0.000000000               0.000062891               0.004423434               0.000556437              -0.000529344               0.001650911               0.001121567               0.000000000               0.000000000               0.000000000               0.000000000               0.000062638               0.004398691               0.000475919              -0.000526346               0.001641664               0.001115318               0.000000000               0.000000000               0.000000000               0.000000000               0.000051795               0.004362969               0.000400104              -0.000525947               0.001629624               0.001103677               0.000000000               0.000000000               0.000000000               0.000000000               0.000032400               0.004316913               0.000321007              -0.000527463               0.001614777               0.001087315               0.000000000               0.000000000               0.000000000               0.000000000              -0.000001519               0.004255147               0.000239632              -0.000532462               0.001595856               0.001063394               0.000000000               0.000000000               0.000000000               0.000000000              -0.000054617               0.004182984               0.000157328              -0.000543353               0.001575432               0.001032079               0.000000000               0.000000000               0.000000000               0.000000000              -0.000131882               0.004111967               0.000075693              -0.000563450               0.001558459               0.000995009               0.000000000               0.000000000               0.000000000               0.000000000              -0.000197299               0.004064873               0.000029063              -0.000582095               0.001548976               0.000966881               0.000000000               0.000000000               0.000000000               0.000000000              -0.000256199               0.000805039               0.000664378              -0.000196705               0.000333911               0.000137207               0.000000000               0.000000000               0.000000000               0.000000000               0.000063307               0.001568115               0.001104819              -0.000172275               0.000580124               0.000407849               0.000000000               0.000000000               0.000000000               0.000000000               0.000109868               0.002459168               0.001426643              -0.000266196               0.000908446               0.000642250               0.000000000               0.000000000               0.000000000               0.000000000               0.000128252               0.003055203               0.001393994              -0.000333806               0.001129659               0.000795853               0.000000000               0.000000000               0.000000000               0.000000000               0.000146080               0.003458189               0.001258874              -0.000377494               0.001278549               0.000901055               0.000000000               0.000000000               0.000000000               0.000000000               0.000160334               0.003739401               0.001105113              -0.000407300               0.001382221               0.000974921               0.000000000               0.000000000               0.000000000               0.000000000               0.000166597               0.003935929               0.000965884              -0.000429517               0.001455135               0.001025618               0.000000000               0.000000000               0.000000000               0.000000000               0.000167608               0.004065459               0.000842670              -0.000445329               0.001503582               0.001058253               0.000000000               0.000000000               0.000000000               0.000000000               0.000169335               0.004140297               0.000732821              -0.000454036               0.001531430               0.001077394               0.000000000               0.000000000               0.000000000               0.000000000               0.000170637               0.004181666               0.000640149              -0.000458719               0.001546781               0.001088062               0.000000000               0.000000000               0.000000000               0.000000000               0.000168455               0.004204161               0.000559527              -0.000462348               0.001555489               0.001093141               0.000000000               0.000000000               0.000000000               0.000000000               0.000158406               0.004212503               0.000482346              -0.000467160               0.001559873               0.001092714               0.000000000               0.000000000               0.000000000               0.000000000               0.000141959               0.004209502               0.000401730              -0.000472952               0.001560804               0.001087852               0.000000000               0.000000000               0.000000000               0.000000000               0.000115953               0.004187907               0.000314344              -0.000480005               0.001555957               0.001075952               0.000000000               0.000000000               0.000000000               0.000000000               0.000071847               0.004144766               0.000218609              -0.000491152               0.001545292               0.001054140               0.000000000               0.000000000               0.000000000               0.000000000               0.000005526               0.004096499               0.000112519              -0.000509989               0.001535482               0.001025493               0.000000000               0.000000000               0.000000000               0.000000000              -0.000055429               0.004061748               0.000050342              -0.000528503               0.001530070               0.001001567               0.000000000               0.000000000               0.000000000               0.000000000              -0.000827072               0.000355189               0.000364329              -0.000354550               0.000236578              -0.000117972               0.000000000               0.000000000               0.000000000               0.000000000              -0.000164369               0.000993423               0.000826708              -0.000185816               0.000393076               0.000207259               0.000000000               0.000000000               0.000000000               0.000000000               0.000176856               0.001748603               0.001203523              -0.000152255               0.000633613               0.000481358               0.000000000               0.000000000               0.000000000               0.000000000               0.000296245               0.002356662               0.001237335              -0.000183492               0.000846709               0.000663218               0.000000000               0.000000000               0.000000000               0.000000000               0.000340140               0.002823621               0.001151068              -0.000225401               0.001016331               0.000790930               0.000000000               0.000000000               0.000000000               0.000000000               0.000352545               0.003182762               0.001029103              -0.000265641               0.001149457               0.000883816               0.000000000               0.000000000               0.000000000               0.000000000               0.000348986               0.003456926               0.000911634              -0.000301246               0.001252712               0.000951466               0.000000000               0.000000000               0.000000000               0.000000000               0.000337428               0.003659025               0.000806496              -0.000330842               0.001329944               0.000999101               0.000000000               0.000000000               0.000000000               0.000000000               0.000325555               0.003799879               0.000712768              -0.000352901               0.001384247               0.001031346               0.000000000               0.000000000               0.000000000               0.000000000               0.000315429               0.003897111               0.000633948              -0.000368852               0.001421975               0.001053122               0.000000000               0.000000000               0.000000000               0.000000000               0.000308628               0.003968553               0.000563927              -0.000380333               0.001449615               0.001069282               0.000000000               0.000000000               0.000000000               0.000000000               0.000302751               0.004024270               0.000494749              -0.000389501               0.001471244               0.001081742               0.000000000               0.000000000               0.000000000               0.000000000               0.000293977               0.004063640               0.000421738              -0.000397713               0.001487104               0.001089391               0.000000000               0.000000000               0.000000000               0.000000000               0.000282117               0.004084875               0.000340225              -0.000404815               0.001496550               0.001091735               0.000000000               0.000000000               0.000000000               0.000000000               0.000263705               0.004084016               0.000245824              -0.000411612               0.001498529               0.001086917               0.000000000               0.000000000               0.000000000               0.000000000               0.000233613               0.004067721               0.000131333              -0.000420859               0.001496180               0.001075321               0.000000000               0.000000000               0.000000000               0.000000000               0.000205169               0.004051699               0.000064993              -0.000429523               0.001493727               0.001064204               0.000000000               0.000000000               0.000000000               0.000000000              -0.001317609               0.000073734               0.000159791              -0.000503320               0.000192350              -0.000310970               0.000000000               0.000000000               0.000000000               0.000000000              -0.000377786               0.000570704               0.000539722              -0.000213008               0.000261235               0.000048227               0.000000000               0.000000000               0.000000000               0.000000000               0.000225798               0.001172533               0.000868883              -0.000061893               0.000411471               0.000349578               0.000000000               0.000000000               0.000000000               0.000000000               0.000450762               0.001760378               0.000929913              -0.000051013               0.000603791               0.000552778               0.000000000               0.000000000               0.000000000               0.000000000               0.000527961               0.002260921               0.000886081              -0.000084631               0.000781843               0.000697212               0.000000000               0.000000000               0.000000000               0.000000000               0.000546442               0.002671719               0.000803900              -0.000129050               0.000933580               0.000804531               0.000000000               0.000000000               0.000000000               0.000000000               0.000538863               0.003004924               0.000719147              -0.000173542               0.001059478               0.000885936               0.000000000               0.000000000               0.000000000               0.000000000               0.000518229               0.003266532               0.000641909              -0.000213980               0.001160160               0.000946179               0.000000000               0.000000000               0.000000000               0.000000000               0.000495721               0.003465464               0.000571965              -0.000247287               0.001237572               0.000990285               0.000000000               0.000000000               0.000000000               0.000000000               0.000474231               0.003614338               0.000512838              -0.000273955               0.001296086               0.001022130               0.000000000               0.000000000               0.000000000               0.000000000               0.000457718               0.003732016               0.000461030              -0.000294857               0.001342279               0.001047422               0.000000000               0.000000000               0.000000000               0.000000000               0.000450961               0.003831601               0.000408940              -0.000309839               0.001380467               0.001070628               0.000000000               0.000000000               0.000000000               0.000000000               0.000451379               0.003914934               0.000353604              -0.000320099               0.001411665               0.001091566               0.000000000               0.000000000               0.000000000               0.000000000               0.000458289               0.003980515               0.000291805              -0.000325705               0.001435394               0.001109688               0.000000000               0.000000000               0.000000000               0.000000000               0.000471352               0.004021118               0.000216164              -0.000325882               0.001448986               0.001123105               0.000000000               0.000000000               0.000000000               0.000000000               0.000493274               0.004039990               0.000118850              -0.000320020               0.001453323               0.001133303               0.000000000               0.000000000               0.000000000               0.000000000               0.000514438               0.004047085               0.000064321              -0.000312971               0.001453338               0.001140368               0.000000000               0.000000000               0.000000000               0.000000000              -0.001652645              -0.000073995               0.000051828              -0.000610492               0.000178831              -0.000431661               0.000000000               0.000000000               0.000000000               0.000000000              -0.000530040               0.000315235               0.000264075              -0.000238169               0.000184467              -0.000053703               0.000000000               0.000000000               0.000000000               0.000000000               0.000252605               0.000798108               0.000453796              -0.000005037               0.000267712               0.000262675               0.000000000               0.000000000               0.000000000               0.000000000               0.000559079               0.001358049               0.000498584               0.000039898               0.000439379               0.000479277               0.000000000               0.000000000               0.000000000               0.000000000               0.000665315               0.001871124               0.000482738               0.000015602               0.000618501               0.000634103               0.000000000               0.000000000               0.000000000               0.000000000               0.000691657               0.002308937               0.000442866              -0.000029246               0.000779386               0.000750140               0.000000000               0.000000000               0.000000000               0.000000000               0.000685477               0.002674928               0.000398491              -0.000077312               0.000917404               0.000840092               0.000000000               0.000000000               0.000000000               0.000000000               0.000660626               0.002971095               0.000357124              -0.000123652               0.001031572               0.000907921               0.000000000               0.000000000               0.000000000               0.000000000               0.000628165               0.003207817               0.000318948              -0.000165415               0.001124400               0.000958985               0.000000000               0.000000000               0.000000000               0.000000000               0.000596313               0.003398266               0.000285800              -0.000201165               0.001199799               0.000998634               0.000000000               0.000000000               0.000000000               0.000000000               0.000570023               0.003557907               0.000258700              -0.000230979               0.001262950               0.001031971               0.000000000               0.000000000               0.000000000               0.000000000               0.000557564               0.003698929               0.000231649              -0.000253279               0.001317390               0.001064111               0.000000000               0.000000000               0.000000000               0.000000000               0.000562490               0.003819790               0.000201688              -0.000266539               0.001362097               0.001095558               0.000000000               0.000000000               0.000000000               0.000000000               0.000586690               0.003917376               0.000168235              -0.000269663               0.001395666               0.001126004               0.000000000               0.000000000               0.000000000               0.000000000               0.000632559               0.003985049               0.000126864              -0.000260921               0.001415310               0.001154389               0.000000000               0.000000000               0.000000000               0.000000000               0.000708716               0.004024534               0.000071460              -0.000237298               0.001420597               0.001183299               0.000000000               0.000000000               0.000000000               0.000000000               0.000780337               0.004046899               0.000040604              -0.000213235               0.001420031               0.001206796               0.000000000               0.000000000               0.000000000               0.000000000              -0.001772753              -0.000122261               0.000000000              -0.000649499               0.000175745              -0.000473754               0.000000000               0.000000000               0.000000000               0.000000000              -0.000584844               0.000228247               0.000000000              -0.000247847               0.000158697              -0.000089150               0.000000000               0.000000000               0.000000000               0.000000000               0.000260309               0.000668042              -0.000000000               0.000014110               0.000217975               0.000232085               0.000000000               0.000000000               0.000000000               0.000000000               0.000598145               0.001216516               0.000000000               0.000072239               0.000381422               0.000453661               0.000000000               0.000000000               0.000000000               0.000000000               0.000716350               0.001732931               0.000000000               0.000052014               0.000560300               0.000612314               0.000000000               0.000000000               0.000000000               0.000000000               0.000746375               0.002177450               0.000000000               0.000007709               0.000723240               0.000730949               0.000000000               0.000000000               0.000000000               0.000000000               0.000739813               0.002550488               0.000000000              -0.000041381               0.000863948               0.000822567               0.000000000               0.000000000               0.000000000               0.000000000               0.000714542               0.002859556              -0.000000000              -0.000089491               0.000983006               0.000893515               0.000000000               0.000000000               0.000000000               0.000000000               0.000678057               0.003111072               0.000000000              -0.000134612               0.001081884               0.000947272               0.000000000               0.000000000               0.000000000               0.000000000               0.000642623               0.003319128               0.000000000              -0.000173907               0.001164334               0.000990427               0.000000000               0.000000000               0.000000000               0.000000000               0.000612473               0.003495585               0.000000000              -0.000207270               0.001234274               0.001027003               0.000000000               0.000000000               0.000000000               0.000000000               0.000594389               0.003650785               0.000000000              -0.000233452               0.001294733               0.001061282               0.000000000               0.000000000               0.000000000               0.000000000               0.000599758               0.003789617              -0.000000000              -0.000248792               0.001346124               0.001097332               0.000000000               0.000000000               0.000000000               0.000000000               0.000632740               0.003901492               0.000000000              -0.000250408               0.001383954               0.001133545               0.000000000               0.000000000               0.000000000               0.000000000               0.000694961               0.003976429               0.000000000              -0.000236443               0.001404277               0.001167835               0.000000000               0.000000000               0.000000000               0.000000000               0.000796686               0.004020810              -0.000000000              -0.000203844               0.001408204               0.001204361               0.000000000               0.000000000               0.000000000               0.000000000               0.000892014               0.004048153               0.000000000              -0.000171513               0.001406542               0.001235028               0.000000000               0.000000000               0.000000000               0.000000000               0.001081000               0.012124888              -0.000000000              -0.001110233               0.004411667               0.003301434               0.000000000               0.000000000               0.000000000               0.000000000               0.001164249               0.009860990              -0.000000000              -0.000796028               0.003552306               0.002756278               0.000000000               0.000000000               0.000000000               0.000000000               0.001607620               0.008048966              -0.000000000              -0.000403262               0.002817383               0.002414120               0.000000000               0.000000000               0.000000000               0.000000000               0.001648500               0.007064735              -0.000000000              -0.000264904               0.002443189               0.002178286               0.000000000               0.000000000               0.000000000               0.000000000               0.001548150               0.006485636               0.000000000              -0.000230148               0.002238573               0.002008425               0.000000000               0.000000000               0.000000000               0.000000000               0.001410811               0.006121183              -0.000000000              -0.000236093               0.002119072               0.001882979               0.000000000               0.000000000               0.000000000               0.000000000               0.001261623               0.005874540               0.000000000              -0.000261208               0.002045230               0.001784022               0.000000000               0.000000000               0.000000000               0.000000000               0.001107669               0.005703568               0.000000000              -0.000297569               0.002000360               0.001702791               0.000000000               0.000000000               0.000000000               0.000000000               0.000960137               0.005580345               0.000000000              -0.000337491               0.001972593               0.001635102               0.000000000               0.000000000               0.000000000               0.000000000               0.000825001               0.005486494               0.000000000              -0.000376435               0.001954291               0.001577856               0.000000000               0.000000000               0.000000000               0.000000000               0.000696998               0.005410490               0.000000000              -0.000414936               0.001941791               0.001526855               0.000000000               0.000000000               0.000000000               0.000000000               0.000570959               0.005344608              -0.000000000              -0.000453965               0.001932840               0.001478875               0.000000000               0.000000000               0.000000000               0.000000000               0.000447253               0.005283873              -0.000000000              -0.000492763               0.001925528               0.001432765               0.000000000               0.000000000               0.000000000               0.000000000               0.000323345               0.005223230               0.000000000              -0.000531648               0.001918275               0.001386627               0.000000000               0.000000000               0.000000000               0.000000000               0.000201447               0.005154631              -0.000000000              -0.000568785               0.001907788               0.001339003               0.000000000               0.000000000               0.000000000               0.000000000               0.000093150               0.005068814               0.000000000              -0.000598669               0.001889144               0.001290475               0.000000000               0.000000000               0.000000000               0.000000000               0.000037157               0.004998423               0.000000000              -0.000610868               0.001869747               0.001258879               0.000000000               0.000000000               0.000000000               0.000000000               0.001136689               0.011904235              -0.000878627              -0.001061768               0.004321961               0.003260193               0.000000000               0.000000000               0.000000000               0.000000000               0.001167812               0.009710295              -0.000520651              -0.000775856               0.003495351               0.002719495               0.000000000               0.000000000               0.000000000               0.000000000               0.001553230               0.007972116              -0.000154704              -0.000414052               0.002795363               0.002381311               0.000000000               0.000000000               0.000000000               0.000000000               0.001570121               0.007024309               0.000009473              -0.000289242               0.002437827               0.002148585               0.000000000               0.000000000               0.000000000               0.000000000               0.001464814               0.006462070               0.000081840              -0.000258453               0.002240153               0.001981700               0.000000000               0.000000000               0.000000000               0.000000000               0.001328614               0.006103005               0.000111478              -0.000264645               0.002122529               0.001857885               0.000000000               0.000000000               0.000000000               0.000000000               0.001184253               0.005859599               0.000124075              -0.000288354               0.002049298               0.001760944               0.000000000               0.000000000               0.000000000               0.000000000               0.001037621               0.005690004               0.000129315              -0.000322142               0.002004030               0.001681888               0.000000000               0.000000000               0.000000000               0.000000000               0.000898098               0.005568860               0.000127699              -0.000359320               0.001976041               0.001616722               0.000000000               0.000000000               0.000000000               0.000000000               0.000768323               0.005476197               0.000122425              -0.000396403               0.001957515               0.001561112               0.000000000               0.000000000               0.000000000               0.000000000               0.000643913               0.005399005               0.000116193              -0.000433407               0.001944119               0.001510712               0.000000000               0.000000000               0.000000000               0.000000000               0.000523857               0.005332950               0.000109410              -0.000470171               0.001934356               0.001464185               0.000000000               0.000000000               0.000000000               0.000000000               0.000407469               0.005274100               0.000101929              -0.000506460               0.001926836               0.001420376               0.000000000               0.000000000               0.000000000               0.000000000               0.000292435               0.005215283               0.000091620              -0.000542246               0.001919159               0.001376913               0.000000000               0.000000000               0.000000000               0.000000000               0.000181357               0.005150293               0.000075370              -0.000575776               0.001908673               0.001332896               0.000000000               0.000000000               0.000000000               0.000000000               0.000082708               0.005074387               0.000045415              -0.000603282               0.001892539               0.001289258               0.000000000               0.000000000               0.000000000               0.000000000               0.000033264               0.005018311               0.000026580              -0.000614813               0.001877691               0.001262878               0.000000000               0.000000000               0.000000000               0.000000000               0.001283435               0.011267005              -0.001655670              -0.000927086               0.004064659               0.003137573               0.000000000               0.000000000               0.000000000               0.000000000               0.001170604               0.009277618              -0.000986405              -0.000720724               0.003332750               0.002612025               0.000000000               0.000000000               0.000000000               0.000000000               0.001401302               0.007753008              -0.000307219              -0.000443637               0.002732189               0.002288552               0.000000000               0.000000000               0.000000000               0.000000000               0.001357608               0.006909037              -0.000008596              -0.000354526               0.002421165               0.002066639               0.000000000               0.000000000               0.000000000               0.000000000               0.001236712               0.006394322               0.000120240              -0.000335523               0.002243260               0.001907738               0.000000000               0.000000000               0.000000000               0.000000000               0.001105207               0.006055817               0.000172858              -0.000342524               0.002132760               0.001790236               0.000000000               0.000000000               0.000000000               0.000000000               0.000975517               0.005825752               0.000194960              -0.000362399               0.002062698               0.001700298               0.000000000               0.000000000               0.000000000               0.000000000               0.000848044               0.005662614               0.000203009              -0.000389809               0.002017456               0.001627646               0.000000000               0.000000000               0.000000000               0.000000000               0.000728068               0.005540753               0.000199492              -0.000419568               0.001986755               0.001567187               0.000000000               0.000000000               0.000000000               0.000000000               0.000615514               0.005445666               0.000188140              -0.000449889               0.001965167               0.001515278               0.000000000               0.000000000               0.000000000               0.000000000               0.000505890               0.005366907               0.000176076              -0.000481153               0.001949335               0.001468182               0.000000000               0.000000000               0.000000000               0.000000000               0.000401498               0.005302456               0.000165730              -0.000512244               0.001938216               0.001425972               0.000000000               0.000000000               0.000000000               0.000000000               0.000304121               0.005247095               0.000152814              -0.000541840               0.001929628               0.001387787               0.000000000               0.000000000               0.000000000               0.000000000               0.000213552               0.005193797               0.000133663              -0.000569141               0.001920962               0.001351821               0.000000000               0.000000000               0.000000000               0.000000000               0.000131046               0.005140471               0.000105495              -0.000593415               0.001911278               0.001317863               0.000000000               0.000000000               0.000000000               0.000000000               0.000058507               0.005085743               0.000061100              -0.000613776               0.001899823               0.001286047               0.000000000               0.000000000               0.000000000               0.000000000               0.000023534               0.005052332               0.000034871              -0.000622715               0.001891666               0.001268951               0.000000000               0.000000000               0.000000000               0.000000000               0.001476096               0.010291331              -0.002255994              -0.000732880               0.003674702               0.002941822               0.000000000               0.000000000               0.000000000               0.000000000               0.001159829               0.008620747              -0.001360091              -0.000642657               0.003087772               0.002445116               0.000000000               0.000000000               0.000000000               0.000000000               0.001172859               0.007419714              -0.000459832              -0.000487641               0.002635760               0.002148119               0.000000000               0.000000000               0.000000000               0.000000000               0.001056843               0.006727357              -0.000076249              -0.000444603               0.002390631               0.001946028               0.000000000               0.000000000               0.000000000               0.000000000               0.000925629               0.006285014               0.000088924              -0.000438515               0.002241155               0.001802641               0.000000000               0.000000000               0.000000000               0.000000000               0.000808385               0.005988897               0.000159255              -0.000445467               0.002144768               0.001699301               0.000000000               0.000000000               0.000000000               0.000000000               0.000701336               0.005782602               0.000190802              -0.000459823               0.002080789               0.001620966               0.000000000               0.000000000               0.000000000               0.000000000               0.000599847               0.005627608               0.000201034              -0.000478507               0.002035353               0.001556846               0.000000000               0.000000000               0.000000000               0.000000000               0.000506517               0.005503579               0.000197454              -0.000498002               0.002000509               0.001502507               0.000000000               0.000000000               0.000000000               0.000000000               0.000419961               0.005403448               0.000187435              -0.000517944               0.001973779               0.001455835               0.000000000               0.000000000               0.000000000               0.000000000               0.000337841               0.005324109               0.000178647              -0.000538822               0.001954293               0.001415471               0.000000000               0.000000000               0.000000000               0.000000000               0.000261886               0.005263446               0.000171274              -0.000559722               0.001941039               0.001381317               0.000000000               0.000000000               0.000000000               0.000000000               0.000190660               0.005210950               0.000157921              -0.000579870               0.001930256               0.001350386               0.000000000               0.000000000               0.000000000               0.000000000               0.000126756               0.005162845               0.000137829              -0.000597821               0.001920205               0.001322384               0.000000000               0.000000000               0.000000000               0.000000000               0.000075239               0.005121081               0.000107312              -0.000611919               0.001910983               0.001299064               0.000000000               0.000000000               0.000000000               0.000000000               0.000034317               0.005085208               0.000060297              -0.000622780               0.001902646               0.001279865               0.000000000               0.000000000               0.000000000               0.000000000               0.000015765               0.005068065               0.000033073              -0.000627595               0.001898536               0.001270942               0.000000000               0.000000000               0.000000000               0.000000000               0.001652085               0.009093356              -0.002635311              -0.000517139               0.003203468               0.002686329               0.000000000               0.000000000               0.000000000               0.000000000               0.001117622               0.007826959              -0.001619099              -0.000559261               0.002795380               0.002236119               0.000000000               0.000000000               0.000000000               0.000000000               0.000894741               0.007019249              -0.000606094              -0.000541877               0.002520352               0.001978475               0.000000000               0.000000000               0.000000000               0.000000000               0.000719097               0.006505884              -0.000186559              -0.000543573               0.002349797               0.001806224               0.000000000               0.000000000               0.000000000               0.000000000               0.000595100               0.006152869              -0.000001770              -0.000545945               0.002232917               0.001686972               0.000000000               0.000000000               0.000000000               0.000000000               0.000504929               0.005905789               0.000079900              -0.000548874               0.002151535               0.001602661               0.000000000               0.000000000               0.000000000               0.000000000               0.000426316               0.005719309               0.000116592              -0.000555044               0.002091432               0.001536388               0.000000000               0.000000000               0.000000000               0.000000000               0.000354621               0.005568326               0.000130896              -0.000563057               0.002043776               0.001480719               0.000000000               0.000000000               0.000000000               0.000000000               0.000295515               0.005446149               0.000133096              -0.000569949               0.002005348               0.001435399               0.000000000               0.000000000               0.000000000               0.000000000               0.000242515               0.005346333               0.000131851              -0.000577347               0.001974542               0.001397195               0.000000000               0.000000000               0.000000000               0.000000000               0.000192304               0.005268115               0.000134051              -0.000586399               0.001951487               0.001365088               0.000000000               0.000000000               0.000000000               0.000000000               0.000146220               0.005204571               0.000135762              -0.000595737               0.001933419               0.001337681               0.000000000               0.000000000               0.000000000               0.000000000               0.000104938               0.005149314               0.000127203              -0.000604311               0.001917858               0.001313547               0.000000000               0.000000000               0.000000000               0.000000000               0.000069893               0.005099350               0.000110976              -0.000611207               0.001903502               0.001292295               0.000000000               0.000000000               0.000000000               0.000000000               0.000041530               0.005055717               0.000084793              -0.000616389               0.001890685               0.001274296               0.000000000               0.000000000               0.000000000               0.000000000               0.000020131               0.005024567               0.000045473              -0.000620520               0.001881679               0.001261159               0.000000000               0.000000000               0.000000000               0.000000000               0.000011883               0.005014322               0.000023148              -0.000622332               0.001878868               0.001256536               0.000000000               0.000000000               0.000000000               0.000000000               0.001751883               0.007794007              -0.002781804              -0.000317297               0.002703741               0.002386444               0.000000000               0.000000000               0.000000000               0.000000000               0.001030377               0.006983628              -0.001759965              -0.000486562               0.002490040               0.002003477               0.000000000               0.000000000               0.000000000               0.000000000               0.000602561               0.006594407              -0.000743904              -0.000598339               0.002397560               0.001799221               0.000000000               0.000000000               0.000000000               0.000000000               0.000400131               0.006260695              -0.000330528              -0.000632536               0.002297723               0.001665187               0.000000000               0.000000000               0.000000000               0.000000000               0.000298249               0.005990301              -0.000142684              -0.000636943               0.002209061               0.001572119               0.000000000               0.000000000               0.000000000               0.000000000               0.000237917               0.005778671              -0.000053503              -0.000633113               0.002137242               0.001504129               0.000000000               0.000000000               0.000000000               0.000000000               0.000193938               0.005610338              -0.000009537              -0.000628564               0.002079615               0.001451051               0.000000000               0.000000000               0.000000000               0.000000000               0.000158494               0.005467925               0.000015941              -0.000624054               0.002030641               0.001406588               0.000000000               0.000000000               0.000000000               0.000000000               0.000134053               0.005348952               0.000032093              -0.000618347               0.001989082               0.001370735               0.000000000               0.000000000               0.000000000               0.000000000               0.000112722               0.005251304               0.000045748              -0.000614141               0.001955131               0.001340990               0.000000000               0.000000000               0.000000000               0.000000000               0.000091682               0.005172052               0.000060912              -0.000612124               0.001928042               0.001315917               0.000000000               0.000000000               0.000000000               0.000000000               0.000072046               0.005101775               0.000071820              -0.000610703               0.001904142               0.001293439               0.000000000               0.000000000               0.000000000               0.000000000               0.000052617               0.005033966               0.000070818              -0.000609513               0.001881143               0.001271630               0.000000000               0.000000000               0.000000000               0.000000000               0.000036926               0.004970058               0.000060786              -0.000607408               0.001859139               0.001251730               0.000000000               0.000000000               0.000000000               0.000000000               0.000023672               0.004914120               0.000043988              -0.000605387               0.001839819               0.001234433               0.000000000               0.000000000               0.000000000               0.000000000               0.000011298               0.004869730               0.000021172              -0.000604478               0.001824720               0.001220242               0.000000000               0.000000000               0.000000000               0.000000000               0.000003910               0.004847282               0.000010452              -0.000604443               0.001817225               0.001212783               0.000000000               0.000000000               0.000000000               0.000000000               0.001737608               0.006492903              -0.002722567              -0.000160013               0.002217616               0.002057603               0.000000000               0.000000000               0.000000000               0.000000000               0.000903066               0.006147603              -0.001807077              -0.000429801               0.002192447               0.001762646               0.000000000               0.000000000               0.000000000               0.000000000               0.000333150               0.006152683              -0.000885229              -0.000644153               0.002265591               0.001621438               0.000000000               0.000000000               0.000000000               0.000000000               0.000137428               0.005971876              -0.000503710              -0.000694947               0.002222254               0.001527307               0.000000000               0.000000000               0.000000000               0.000000000               0.000070330               0.005772580              -0.000316585              -0.000695197               0.002155906               0.001460709               0.000000000               0.000000000               0.000000000               0.000000000               0.000044284               0.005600826              -0.000212026              -0.000683495               0.002094755               0.001411260               0.000000000               0.000000000               0.000000000               0.000000000               0.000035936               0.005457126              -0.000151290              -0.000668663               0.002041912               0.001373249               0.000000000               0.000000000               0.000000000               0.000000000               0.000032874               0.005325501              -0.000110150              -0.000653358               0.001992935               0.001339577               0.000000000               0.000000000               0.000000000               0.000000000               0.000032831               0.005210570              -0.000076236              -0.000639008               0.001949842               0.001310834               0.000000000               0.000000000               0.000000000               0.000000000               0.000031528               0.005113973              -0.000045496              -0.000627422               0.001913782               0.001286359               0.000000000               0.000000000               0.000000000               0.000000000               0.000028981               0.005028153              -0.000015670              -0.000617650               0.001881917               0.001264268               0.000000000               0.000000000               0.000000000               0.000000000               0.000024388               0.004945142               0.000005700              -0.000608996               0.001851363               0.001242367               0.000000000               0.000000000               0.000000000               0.000000000               0.000017486               0.004861443               0.000013438              -0.000601122               0.001820839               0.001219717               0.000000000               0.000000000               0.000000000               0.000000000               0.000011543               0.004782620               0.000015393              -0.000593497               0.001792023               0.001198526               0.000000000               0.000000000               0.000000000               0.000000000               0.000005046               0.004712418               0.000013194              -0.000587159               0.001766510               0.001179351               0.000000000               0.000000000               0.000000000               0.000000000               0.000001684               0.004651517               0.000006307              -0.000580807               0.001744092               0.001163286               0.000000000               0.000000000               0.000000000               0.000000000              -0.000004632               0.004612334               0.000006776              -0.000578277               0.001730188               0.001151911               0.000000000               0.000000000               0.000000000               0.000000000               0.001616749               0.005257780              -0.002507463              -0.000050945               0.001769556               0.001718611               0.000000000               0.000000000               0.000000000               0.000000000               0.000749028               0.005358329              -0.001788765              -0.000388906               0.001915727               0.001526820               0.000000000               0.000000000               0.000000000               0.000000000               0.000114058               0.005699785              -0.001030248              -0.000669700               0.002123142               0.001453442               0.000000000               0.000000000               0.000000000               0.000000000              -0.000048149               0.005647775              -0.000681067              -0.000724026               0.002123915               0.001399889               0.000000000               0.000000000               0.000000000               0.000000000              -0.000073348               0.005523231              -0.000485897              -0.000717907               0.002080361               0.001362453               0.000000000               0.000000000               0.000000000               0.000000000              -0.000065644               0.005396490              -0.000361227              -0.000699176               0.002031871               0.001332695               0.000000000               0.000000000               0.000000000               0.000000000              -0.000049052               0.005272254              -0.000281578              -0.000677425               0.001983209               0.001305784               0.000000000               0.000000000               0.000000000               0.000000000              -0.000030531               0.005152643              -0.000223223              -0.000655528               0.001936040               0.001280512               0.000000000               0.000000000               0.000000000               0.000000000              -0.000015928               0.005045675              -0.000169474              -0.000636681               0.001894102               0.001257421               0.000000000               0.000000000               0.000000000               0.000000000              -0.000010014               0.004947419              -0.000120714              -0.000622181               0.001856517               0.001234336               0.000000000               0.000000000               0.000000000               0.000000000              -0.000008975               0.004851506              -0.000077359              -0.000609803               0.001820420               0.001210618               0.000000000               0.000000000               0.000000000               0.000000000              -0.000009982               0.004752342              -0.000043444              -0.000597784               0.001783360               0.001185575               0.000000000               0.000000000               0.000000000               0.000000000              -0.000013388               0.004654374              -0.000021518              -0.000586816               0.001747048               0.001160232               0.000000000               0.000000000               0.000000000               0.000000000              -0.000015906               0.004565504              -0.000005843              -0.000576651               0.001714036               0.001137385               0.000000000               0.000000000               0.000000000               0.000000000              -0.000017903               0.004484521               0.000004935              -0.000567277               0.001683918               0.001116641               0.000000000               0.000000000               0.000000000               0.000000000              -0.000012502               0.004412923               0.000006727              -0.000556302               0.001656394               0.001100091               0.000000000               0.000000000               0.000000000               0.000000000              -0.000011923               0.004367498               0.000009496              -0.000550407               0.001639287               0.001088880               0.000000000               0.000000000               0.000000000               0.000000000               0.001445535               0.004186246              -0.002192436               0.000018792               0.001389136               0.001407928               0.000000000               0.000000000               0.000000000               0.000000000               0.000615851               0.004648697              -0.001736205              -0.000350144               0.001666264               0.001316120               0.000000000               0.000000000               0.000000000               0.000000000              -0.000027139               0.005271235              -0.001190518              -0.000669080               0.001980087               0.001311007               0.000000000               0.000000000               0.000000000               0.000000000              -0.000150372               0.005354772              -0.000865208              -0.000725734               0.002026817               0.001301083               0.000000000               0.000000000               0.000000000               0.000000000              -0.000144207               0.005309882              -0.000656995              -0.000717811               0.002009213               0.001291402               0.000000000               0.000000000               0.000000000               0.000000000              -0.000114398               0.005225989              -0.000512879              -0.000696146               0.001974028               0.001277881               0.000000000               0.000000000               0.000000000               0.000000000              -0.000078169               0.005122050              -0.000411305              -0.000669568               0.001930522               0.001260954               0.000000000               0.000000000               0.000000000               0.000000000              -0.000043847               0.005019237              -0.000330883              -0.000643846               0.001887677               0.001243832               0.000000000               0.000000000               0.000000000               0.000000000              -0.000025243               0.004921000              -0.000258791              -0.000624590               0.001848513               0.001223924               0.000000000               0.000000000               0.000000000               0.000000000              -0.000020218               0.004824226              -0.000195199              -0.000610609               0.001811596               0.001200987               0.000000000               0.000000000               0.000000000               0.000000000              -0.000021343               0.004723371              -0.000139953              -0.000598424               0.001773916               0.001175492               0.000000000               0.000000000               0.000000000               0.000000000              -0.000024551               0.004615921              -0.000094282              -0.000586195               0.001734024               0.001147828               0.000000000               0.000000000               0.000000000               0.000000000              -0.000029499               0.004509510              -0.000056957              -0.000574749               0.001694738               0.001119989               0.000000000               0.000000000               0.000000000               0.000000000              -0.000038489               0.004409746              -0.000026879              -0.000565650               0.001658451               0.001092800               0.000000000               0.000000000               0.000000000               0.000000000              -0.000050039               0.004315372              -0.000006009              -0.000558185               0.001624505               0.001066320               0.000000000               0.000000000               0.000000000               0.000000000              -0.000057473               0.004225318               0.000003719              -0.000549716               0.001591664               0.001041948               0.000000000               0.000000000               0.000000000               0.000000000              -0.000057002               0.004176577               0.000006582              -0.000543447               0.001573327               0.001029881               0.000000000               0.000000000               0.000000000               0.000000000               0.001196938               0.003173443              -0.001830879               0.000052168               0.001040413               0.001092582               0.000000000               0.000000000               0.000000000               0.000000000               0.000529546               0.003835622              -0.001663726              -0.000280874               0.001372152               0.001091278               0.000000000               0.000000000               0.000000000               0.000000000              -0.000062539               0.004660785              -0.001368357              -0.000606050               0.001755596               0.001149546               0.000000000               0.000000000               0.000000000               0.000000000              -0.000174255               0.004918969              -0.001081285              -0.000680216               0.001866378               0.001186163               0.000000000               0.000000000               0.000000000               0.000000000              -0.000156752               0.004986099              -0.000863047              -0.000682043               0.001889364               0.001207321               0.000000000               0.000000000               0.000000000               0.000000000              -0.000118293               0.004976998              -0.000699491              -0.000666483               0.001881144               0.001214661               0.000000000               0.000000000               0.000000000               0.000000000              -0.000081591               0.004928356              -0.000573276              -0.000646639               0.001858315               0.001211676               0.000000000               0.000000000               0.000000000               0.000000000              -0.000046642               0.004860031              -0.000466649              -0.000624993               0.001828325               0.001203332               0.000000000               0.000000000               0.000000000               0.000000000              -0.000027074               0.004783149              -0.000374114              -0.000608045               0.001797049               0.001189004               0.000000000               0.000000000               0.000000000               0.000000000              -0.000024485               0.004705722              -0.000295724              -0.000597396               0.001767690               0.001170295               0.000000000               0.000000000               0.000000000               0.000000000              -0.000030159               0.004620567              -0.000229403              -0.000588879               0.001736467               0.001147587               0.000000000               0.000000000               0.000000000               0.000000000              -0.000037276               0.004529236              -0.000171303              -0.000580131               0.001703107               0.001122976               0.000000000               0.000000000               0.000000000               0.000000000              -0.000049106               0.004429981              -0.000117548              -0.000572161               0.001667366               0.001095205               0.000000000               0.000000000               0.000000000               0.000000000              -0.000066920               0.004331263              -0.000069716              -0.000566501               0.001632574               0.001066072               0.000000000               0.000000000               0.000000000               0.000000000              -0.000091393               0.004237056              -0.000031032              -0.000563903               0.001600306               0.001036403               0.000000000               0.000000000               0.000000000               0.000000000              -0.000119736               0.004141720              -0.000007343              -0.000562614               0.001568098               0.001005483               0.000000000               0.000000000               0.000000000               0.000000000              -0.000134267               0.004090620               0.000000972              -0.000561676               0.001550752               0.000989076               0.000000000               0.000000000               0.000000000               0.000000000               0.000808066               0.002235960              -0.001439650               0.000023527               0.000737469               0.000760997               0.000000000               0.000000000               0.000000000               0.000000000               0.000426776               0.003026123              -0.001542218              -0.000218226               0.001081439               0.000863213               0.000000000               0.000000000               0.000000000               0.000000000              -0.000028800               0.003978237              -0.001499897              -0.000508080               0.001495425               0.000987346               0.000000000               0.000000000               0.000000000               0.000000000              -0.000131337               0.004397223              -0.001285814              -0.000598904               0.001665361               0.001066457               0.000000000               0.000000000               0.000000000               0.000000000              -0.000120625               0.004588806              -0.001076639              -0.000618834               0.001735865               0.001117031               0.000000000               0.000000000               0.000000000               0.000000000              -0.000084124               0.004675116              -0.000900895              -0.000615935               0.001763668               0.001147733               0.000000000               0.000000000               0.000000000               0.000000000              -0.000055663               0.004700591              -0.000756268              -0.000608446               0.001769663               0.001161217               0.000000000               0.000000000               0.000000000               0.000000000              -0.000028398               0.004685000              -0.000630936              -0.000596273               0.001760408               0.001164136               0.000000000               0.000000000               0.000000000               0.000000000              -0.000007868               0.004648017              -0.000520111              -0.000583951               0.001743974               0.001160022               0.000000000               0.000000000               0.000000000               0.000000000              -0.000001068               0.004598477              -0.000428106              -0.000575209               0.001724547               0.001149338               0.000000000               0.000000000               0.000000000               0.000000000              -0.000004712               0.004536964              -0.000353454              -0.000568886               0.001701935               0.001133049               0.000000000               0.000000000               0.000000000               0.000000000              -0.000013958               0.004466458              -0.000285251              -0.000563540               0.001676651               0.001113111               0.000000000               0.000000000               0.000000000               0.000000000              -0.000031182               0.004385583              -0.000216723              -0.000559890               0.001648476               0.001088586               0.000000000               0.000000000               0.000000000               0.000000000              -0.000060867               0.004297350              -0.000149703              -0.000559993               0.001619100               0.001059107               0.000000000               0.000000000               0.000000000               0.000000000              -0.000103731               0.004208797              -0.000088396              -0.000564997               0.001591251               0.001026253               0.000000000               0.000000000               0.000000000               0.000000000              -0.000161063               0.004124365              -0.000037763              -0.000575943               0.001566756               0.000990813               0.000000000               0.000000000               0.000000000               0.000000000              -0.000204834               0.004073594              -0.000010733              -0.000586011               0.001553188               0.000967177               0.000000000               0.000000000               0.000000000               0.000000000               0.000310705               0.001431945              -0.001036281              -0.000062480               0.000498136               0.000435656               0.000000000               0.000000000               0.000000000               0.000000000               0.000267739               0.002258125              -0.001350527              -0.000181865               0.000813322               0.000631457               0.000000000               0.000000000               0.000000000               0.000000000               0.000035683               0.003225682              -0.001524059              -0.000389830               0.001205159               0.000815329               0.000000000               0.000000000               0.000000000               0.000000000              -0.000022820               0.003760206              -0.001402307              -0.000478583               0.001412917               0.000934333               0.000000000               0.000000000               0.000000000               0.000000000              -0.000016305               0.004069719              -0.001222944              -0.000514829               0.001528169               0.001013340               0.000000000               0.000000000               0.000000000               0.000000000               0.000007742               0.004255889              -0.001050757              -0.000529082               0.001594976               0.001065894               0.000000000               0.000000000               0.000000000               0.000000000               0.000025469               0.004365778              -0.000902162              -0.000536170               0.001633968               0.001097798               0.000000000               0.000000000               0.000000000               0.000000000               0.000040079               0.004420335              -0.000770764              -0.000537511               0.001652600               0.001115089               0.000000000               0.000000000               0.000000000               0.000000000               0.000054016               0.004433979              -0.000653671              -0.000533990               0.001655975               0.001121985               0.000000000               0.000000000               0.000000000               0.000000000               0.000062891               0.004423434              -0.000556437              -0.000529344               0.001650911               0.001121567               0.000000000               0.000000000               0.000000000               0.000000000               0.000062638               0.004398691              -0.000475919              -0.000526346               0.001641664               0.001115318               0.000000000               0.000000000               0.000000000               0.000000000               0.000051795               0.004362969              -0.000400104              -0.000525947               0.001629624               0.001103677               0.000000000               0.000000000               0.000000000               0.000000000               0.000032400               0.004316913              -0.000321007              -0.000527463               0.001614777               0.001087315               0.000000000               0.000000000               0.000000000               0.000000000              -0.000001519               0.004255147              -0.000239632              -0.000532462               0.001595856               0.001063394               0.000000000               0.000000000               0.000000000               0.000000000              -0.000054617               0.004182984              -0.000157328              -0.000543353               0.001575432               0.001032079               0.000000000               0.000000000               0.000000000               0.000000000              -0.000131882               0.004111967              -0.000075693              -0.000563450               0.001558459               0.000995009               0.000000000               0.000000000               0.000000000               0.000000000              -0.000197299               0.004064873              -0.000029063              -0.000582095               0.001548976               0.000966881               0.000000000               0.000000000               0.000000000               0.000000000              -0.000256199               0.000805039              -0.000664378              -0.000196705               0.000333911               0.000137207               0.000000000               0.000000000               0.000000000               0.000000000               0.000063307               0.001568115              -0.001104819              -0.000172275               0.000580124               0.000407849               0.000000000               0.000000000               0.000000000               0.000000000               0.000109868               0.002459168              -0.001426643              -0.000266196               0.000908446               0.000642250               0.000000000               0.000000000               0.000000000               0.000000000               0.000128252               0.003055203              -0.001393994              -0.000333806               0.001129659               0.000795853               0.000000000               0.000000000               0.000000000               0.000000000               0.000146080               0.003458189              -0.001258874              -0.000377494               0.001278549               0.000901055               0.000000000               0.000000000               0.000000000               0.000000000               0.000160334               0.003739401              -0.001105113              -0.000407300               0.001382221               0.000974921               0.000000000               0.000000000               0.000000000               0.000000000               0.000166597               0.003935929              -0.000965884              -0.000429517               0.001455135               0.001025618               0.000000000               0.000000000               0.000000000               0.000000000               0.000167608               0.004065459              -0.000842670              -0.000445329               0.001503582               0.001058253               0.000000000               0.000000000               0.000000000               0.000000000               0.000169335               0.004140297              -0.000732821              -0.000454036               0.001531430               0.001077394               0.000000000               0.000000000               0.000000000               0.000000000               0.000170637               0.004181666              -0.000640149              -0.000458719               0.001546781               0.001088062               0.000000000               0.000000000               0.000000000               0.000000000               0.000168455               0.004204161              -0.000559527              -0.000462348               0.001555489               0.001093141               0.000000000               0.000000000               0.000000000               0.000000000               0.000158406               0.004212503              -0.000482346              -0.000467160               0.001559873               0.001092714               0.000000000               0.000000000               0.000000000               0.000000000               0.000141959               0.004209502              -0.000401730              -0.000472952               0.001560804               0.001087852               0.000000000               0.000000000               0.000000000               0.000000000               0.000115953               0.004187907              -0.000314344              -0.000480005               0.001555957               0.001075952               0.000000000               0.000000000               0.000000000               0.000000000               0.000071847               0.004144766              -0.000218609              -0.000491152               0.001545292               0.001054140               0.000000000               0.000000000               0.000000000               0.000000000               0.000005526               0.004096499              -0.000112519              -0.000509989               0.001535482               0.001025493               0.000000000               0.000000000               0.000000000               0.000000000              -0.000055429               0.004061748              -0.000050342              -0.000528503               0.001530070               0.001001567               0.000000000               0.000000000               0.000000000               0.000000000              -0.000827072               0.000355189              -0.000364329              -0.000354550               0.000236578              -0.000117972               0.000000000               0.000000000               0.000000000               0.000000000              -0.000164369               0.000993423              -0.000826708              -0.000185816               0.000393076               0.000207259               0.000000000               0.000000000               0.000000000               0.000000000               0.000176856               0.001748603              -0.001203523              -0.000152255               0.000633613               0.000481358               0.000000000               0.000000000               0.000000000               0.000000000               0.000296245               0.002356662              -0.001237335              -0.000183492               0.000846709               0.000663218               0.000000000               0.000000000               0.000000000               0.000000000               0.000340140               0.002823621              -0.001151068              -0.000225401               0.001016331               0.000790930               0.000000000               0.000000000               0.000000000               0.000000000               0.000352545               0.003182762              -0.001029103              -0.000265641               0.001149457               0.000883816               0.000000000               0.000000000               0.000000000               0.000000000               0.000348986               0.003456926              -0.000911634              -0.000301246               0.001252712               0.000951466               0.000000000               0.000000000               0.000000000               0.000000000               0.000337428               0.003659025              -0.000806496              -0.000330842               0.001329944               0.000999101               0.000000000               0.000000000               0.000000000               0.000000000               0.000325555               0.003799879              -0.000712768              -0.000352901               0.001384247               0.001031346               0.000000000               0.000000000               0.000000000               0.000000000               0.000315429               0.003897111              -0.000633948              -0.000368852               0.001421975               0.001053122               0.000000000               0.000000000               0.000000000               0.000000000               0.000308628               0.003968553              -0.000563927              -0.000380333               0.001449615               0.001069282               0.000000000               0.000000000               0.000000000               0.000000000               0.000302751               0.004024270              -0.000494749              -0.000389501               0.001471244               0.001081742               0.000000000               0.000000000               0.000000000               0.000000000               0.000293977               0.004063640              -0.000421738              -0.000397713               0.001487104               0.001089391               0.000000000               0.000000000               0.000000000               0.000000000               0.000282117               0.004084875              -0.000340225              -0.000404815               0.001496550               0.001091735               0.000000000               0.000000000               0.000000000               0.000000000               0.000263705               0.004084016              -0.000245824              -0.000411612               0.001498529               0.001086917               0.000000000               0.000000000               0.000000000               0.000000000               0.000233613               0.004067721              -0.000131333              -0.000420859               0.001496180               0.001075321               0.000000000               0.000000000               0.000000000               0.000000000               0.000205169               0.004051699              -0.000064993              -0.000429523               0.001493727               0.001064204               0.000000000               0.000000000               0.000000000               0.000000000              -0.001317609               0.000073734              -0.000159791              -0.000503320               0.000192350              -0.000310970               0.000000000               0.000000000               0.000000000               0.000000000              -0.000377786               0.000570704              -0.000539722              -0.000213008               0.000261235               0.000048227               0.000000000               0.000000000               0.000000000               0.000000000               0.000225798               0.001172533              -0.000868883              -0.000061893               0.000411471               0.000349578               0.000000000               0.000000000               0.000000000               0.000000000               0.000450762               0.001760378              -0.000929913              -0.000051013               0.000603791               0.000552778               0.000000000               0.000000000               0.000000000               0.000000000               0.000527961               0.002260921              -0.000886081              -0.000084631               0.000781843               0.000697212               0.000000000               0.000000000               0.000000000               0.000000000               0.000546442               0.002671719              -0.000803900              -0.000129050               0.000933580               0.000804531               0.000000000               0.000000000               0.000000000               0.000000000               0.000538863               0.003004924              -0.000719147              -0.000173542               0.001059478               0.000885936               0.000000000               0.000000000               0.000000000               0.000000000               0.000518229               0.003266532              -0.000641909              -0.000213980               0.001160160               0.000946179               0.000000000               0.000000000               0.000000000               0.000000000               0.000495721               0.003465464              -0.000571965              -0.000247287               0.001237572               0.000990285               0.000000000               0.000000000               0.000000000               0.000000000               0.000474231               0.003614338              -0.000512838              -0.000273955               0.001296086               0.001022130               0.000000000               0.000000000               0.000000000               0.000000000               0.000457718               0.003732016              -0.000461030              -0.000294857               0.001342279               0.001047422               0.000000000               0.000000000               0.000000000               0.000000000               0.000450961               0.003831601              -0.000408940              -0.000309839               0.001380467               0.001070628               0.000000000               0.000000000               0.000000000               0.000000000               0.000451379               0.003914934              -0.000353604              -0.000320099               0.001411665               0.001091566               0.000000000               0.000000000               0.000000000               0.000000000               0.000458289               0.003980515              -0.000291805              -0.000325705               0.001435394               0.001109688               0.000000000               0.000000000               0.000000000               0.000000000               0.000471352               0.004021118              -0.000216164              -0.000325882               0.001448986               0.001123105               0.000000000               0.000000000               0.000000000               0.000000000               0.000493274               0.004039990              -0.000118850              -0.000320020               0.001453323               0.001133303               0.000000000               0.000000000               0.000000000               0.000000000               0.000514438               0.004047085              -0.000064321              -0.000312971               0.001453338               0.001140368               0.000000000               0.000000000               0.000000000               0.000000000              -0.001652645              -0.000073995              -0.000051828              -0.000610492               0.000178831              -0.000431661               0.000000000               0.000000000               0.000000000               0.000000000              -0.000530040               0.000315235              -0.000264075              -0.000238169               0.000184467              -0.000053703               0.000000000               0.000000000               0.000000000               0.000000000               0.000252605               0.000798108              -0.000453796              -0.000005037               0.000267712               0.000262675               0.000000000               0.000000000               0.000000000               0.000000000               0.000559079               0.001358049              -0.000498584               0.000039898               0.000439379               0.000479277               0.000000000               0.000000000               0.000000000               0.000000000               0.000665315               0.001871124              -0.000482738               0.000015602               0.000618501               0.000634103               0.000000000               0.000000000               0.000000000               0.000000000               0.000691657               0.002308937              -0.000442866              -0.000029246               0.000779386               0.000750140               0.000000000               0.000000000               0.000000000               0.000000000               0.000685477               0.002674928              -0.000398491              -0.000077312               0.000917404               0.000840092               0.000000000               0.000000000               0.000000000               0.000000000               0.000660626               0.002971095              -0.000357124              -0.000123652               0.001031572               0.000907921               0.000000000               0.000000000               0.000000000               0.000000000               0.000628165               0.003207817              -0.000318948              -0.000165415               0.001124400               0.000958985               0.000000000               0.000000000               0.000000000               0.000000000               0.000596313               0.003398266              -0.000285800              -0.000201165               0.001199799               0.000998634               0.000000000               0.000000000               0.000000000               0.000000000               0.000570023               0.003557907              -0.000258700              -0.000230979               0.001262950               0.001031971               0.000000000               0.000000000               0.000000000               0.000000000               0.000557564               0.003698929              -0.000231649              -0.000253279               0.001317390               0.001064111               0.000000000               0.000000000               0.000000000               0.000000000               0.000562490               0.003819790              -0.000201688              -0.000266539               0.001362097               0.001095558               0.000000000               0.000000000               0.000000000               0.000000000               0.000586690               0.003917376              -0.000168235              -0.000269663               0.001395666               0.001126004               0.000000000               0.000000000               0.000000000               0.000000000               0.000632559               0.003985049              -0.000126864              -0.000260921               0.001415310               0.001154389               0.000000000               0.000000000               0.000000000               0.000000000               0.000708716               0.004024534              -0.000071460              -0.000237298               0.001420597               0.001183299               0.000000000               0.000000000               0.000000000               0.000000000               0.000780337               0.004046899              -0.000040604              -0.000213235               0.001420031               0.001206796               0.000000000               0.000000000               0.000000000               0.000000000               0.000000000               0.000000000               0.000000000               0.000000000               0.000000000               0.000000000               0.000000000               0.000000000               0.000000000               0.000000000               0.000000000               0.000000000               0.000000000               0.000000000               0.000000000               0.000000000               0.000000000               0.000000000               0.000000000               0.000000000               0.000000000               0.000000000               0.000000000               0.000000000               0.000000000               0.000000000               0.000000000               0.000000000               0.000000000               0.000000000               0.000000000               0.000000000               0.000000000               0.000000000               0.000000000               0.000000000               0.000000000               0.000000000               0.000000000               0.000000000               0.000000000               0.000000000               0.000000000               0.000000000               0.000000000               0.000000000               0.000000000               0.000000000               0.000000000               0.000000000               0.000000000               0.000000000               0.000000000               0.000000000               0.000000000               0.000000000               0.000000000               0.000000000               0.000000000               0.000000000               0.000000000               0.000000000               0.000000000               0.000000000               0.000000000               0.000000000               0.000000000               0.000000000               0.000000000               0.000000000               0.000000000               0.000000000               0.000000000               0.000000000               0.000000000               0.000000000               0.000000000               0.000000000               0.000000000               0.000000000               0.000000000               0.000000000               0.000000000               0.000000000               0.000000000               0.000000000               0.000000000               0.000000000               0.000000000               0.000000000               0.000000000               0.000000000               0.000000000               0.000000000               0.000000000               0.000000000               0.000000000               0.000000000               0.000000000               0.000000000               0.000000000               0.000000000               0.000000000               0.000000000               0.000000000               0.000000000               0.000000000               0.000000000               0.000000000               0.000000000               0.000000000               0.000000000               0.000000000               0.000000000               0.000000000               0.000000000               0.000000000               0.000000000               0.000000000               0.000000000               0.000000000               0.000000000               0.000000000               0.000000000               0.000000000               0.000000000               0.000000000               0.000000000               0.000000000               0.000000000               0.000000000               0.000000000               0.000000000               0.000000000               0.000000000               0.000000000               0.000000000               0.000000000               0.000000000               0.000000000               0.000000000               0.000000000               0.000000000               0.000000000               0.000000000               0.000000000               0.000000000               0.000000000               0.000000000               0.000000000               0.000000000               0.000000000               0.000000000               0.000000000               0.000000000               0.000000000               0.000000000               0.000000000               0.000000000               0.000000000               0.000000000               0.000000000               0.000000000               0.000000000               0.000000000               0.000000000               0.000000000               0.000000000               0.000000000               0.000000000               0.000000000               0.000000000               0.000000000               0.000000000               0.000000000               0.000000000               0.000000000               0.000000000               0.000000000               0.000000000               0.000000000               0.000000000               0.000000000               0.000000000               0.000000000               0.000000000               0.000000000               0.000000000               0.000000000               0.000000000               0.000000000               0.000000000               0.000000000               0.000000000               0.000000000               0.000000000               0.000000000               0.000000000               0.000000000               0.000000000               0.000000000               0.000000000               0.000000000               0.000000000               0.000000000               0.000000000               0.000000000               0.000000000               0.000000000               0.000000000               0.000000000               0.000000000               0.000000000               0.000000000               0.000000000               0.000000000               0.000000000               0.000000000               0.000000000               0.000000000               0.000000000               0.000000000               0.000000000               0.000000000               0.000000000               0.000000000               0.000000000               0.000000000               0.000000000               0.000000000               0.000000000               0.000000000               0.000000000               0.000000000               0.000000000               0.000000000               0.000000000               0.000000000               0.000000000               0.000000000               0.000000000               0.000000000               0.000000000               0.000000000               0.000000000               0.000000000               0.000000000               0.000000000               0.000000000               0.000000000               0.000000000               0.000000000               0.000000000               0.000000000               0.000000000               0.000000000               0.000000000               0.000000000               0.000000000               0.000000000               0.000000000               0.000000000               0.000000000               0.000000000               0.000000000               0.000000000               0.000000000               0.000000000               0.000000000               0.000000000               0.000000000               0.000000000               0.000000000               0.000000000               0.000000000               0.000000000               0.000000000               0.000000000               0.000000000               0.000000000               0.000000000               0.000000000               0.000000000               0.000000000               0.000000000               0.000000000               0.000000000               0.000000000               0.000000000               0.000000000               0.000000000               0.000000000               0.000000000               0.000000000               0.000000000               0.000000000               0.000000000               0.000000000               0.000000000               0.000000000               0.000000000               0.000000000               0.000000000               0.000000000               0.000000000               0.000000000               0.000000000               0.000000000               0.000000000               0.000000000               0.000000000               0.000000000               0.000000000               0.000000000               0.000000000               0.000000000               0.000000000               0.000000000               0.000000000               0.000000000               0.000000000               0.000000000               0.000000000               0.000000000               0.000000000               0.000000000               0.000000000               0.000000000               0.000000000               0.000000000               0.000000000               0.000000000               0.000000000               0.000000000               0.000000000               0.000000000               0.000000000               0.000000000               0.000000000               0.000000000               0.001136689               0.011904235               0.000878627              -0.001061768               0.004321961               0.003260193               0.000000000               0.000000000               0.000000000               0.000000000               0.001167812               0.009710295               0.000520651              -0.000775856               0.003495351               0.002719495               0.000000000               0.000000000               0.000000000               0.000000000               0.001553230               0.007972116               0.000154704              -0.000414052               0.002795363               0.002381311               0.000000000               0.000000000               0.000000000               0.000000000               0.001570121               0.007024309              -0.000009473              -0.000289242               0.002437827               0.002148585               0.000000000               0.000000000               0.000000000               0.000000000               0.001464814               0.006462070              -0.000081840              -0.000258453               0.002240153               0.001981700               0.000000000               0.000000000               0.000000000               0.000000000               0.001328614               0.006103005              -0.000111478              -0.000264645               0.002122529               0.001857885               0.000000000               0.000000000               0.000000000               0.000000000               0.001184253               0.005859599              -0.000124075              -0.000288354               0.002049298               0.001760944               0.000000000               0.000000000               0.000000000               0.000000000               0.001037621               0.005690004              -0.000129315              -0.000322142               0.002004030               0.001681888               0.000000000               0.000000000               0.000000000               0.000000000               0.000898098               0.005568860              -0.000127699              -0.000359320               0.001976041               0.001616722               0.000000000               0.000000000               0.000000000               0.000000000               0.000768323               0.005476197              -0.000122425              -0.000396403               0.001957515               0.001561112               0.000000000               0.000000000               0.000000000               0.000000000               0.000643913               0.005399005              -0.000116193              -0.000433407               0.001944119               0.001510712               0.000000000               0.000000000               0.000000000               0.000000000               0.000523857               0.005332950              -0.000109410              -0.000470171               0.001934356               0.001464185               0.000000000               0.000000000               0.000000000               0.000000000               0.000407469               0.005274100              -0.000101929              -0.000506460               0.001926836               0.001420376               0.000000000               0.000000000               0.000000000               0.000000000               0.000292435               0.005215283              -0.000091620              -0.000542246               0.001919159               0.001376913               0.000000000               0.000000000               0.000000000               0.000000000               0.000181357               0.005150293              -0.000075370              -0.000575776               0.001908673               0.001332896               0.000000000               0.000000000               0.000000000               0.000000000               0.000082708               0.005074387              -0.000045415              -0.000603282               0.001892539               0.001289258               0.000000000               0.000000000               0.000000000               0.000000000               0.000033264               0.005018311              -0.000026580              -0.000614813               0.001877691               0.001262878               0.000000000               0.000000000               0.000000000               0.000000000               0.001283435               0.011267005               0.001655670              -0.000927086               0.004064659               0.003137573               0.000000000               0.000000000               0.000000000               0.000000000               0.001170604               0.009277618               0.000986405              -0.000720724               0.003332750               0.002612025               0.000000000               0.000000000               0.000000000               0.000000000               0.001401302               0.007753008               0.000307219              -0.000443637               0.002732189               0.002288552               0.000000000               0.000000000               0.000000000               0.000000000               0.001357608               0.006909037               0.000008596              -0.000354526               0.002421165               0.002066639               0.000000000               0.000000000               0.000000000               0.000000000               0.001236712               0.006394322              -0.000120240              -0.000335523               0.002243260               0.001907738               0.000000000               0.000000000               0.000000000               0.000000000               0.001105207               0.006055817              -0.000172858              -0.000342524               0.002132760               0.001790236               0.000000000               0.000000000               0.000000000               0.000000000               0.000975517               0.005825752              -0.000194960              -0.000362399               0.002062698               0.001700298               0.000000000               0.000000000               0.000000000               0.000000000               0.000848044               0.005662614              -0.000203009              -0.000389809               0.002017456               0.001627646               0.000000000               0.000000000               0.000000000               0.000000000               0.000728068               0.005540753              -0.000199492              -0.000419568               0.001986755               0.001567187               0.000000000               0.000000000               0.000000000               0.000000000               0.000615514               0.005445666              -0.000188140              -0.000449889               0.001965167               0.001515278               0.000000000               0.000000000               0.000000000               0.000000000               0.000505890               0.005366907              -0.000176076              -0.000481153               0.001949335               0.001468182               0.000000000               0.000000000               0.000000000               0.000000000               0.000401498               0.005302456              -0.000165730              -0.000512244               0.001938216               0.001425972               0.000000000               0.000000000               0.000000000               0.000000000               0.000304121               0.005247095              -0.000152814              -0.000541840               0.001929628               0.001387787               0.000000000               0.000000000               0.000000000               0.000000000               0.000213552               0.005193797              -0.000133663              -0.000569141               0.001920962               0.001351821               0.000000000               0.000000000               0.000000000               0.000000000               0.000131046               0.005140471              -0.000105495              -0.000593415               0.001911278               0.001317863               0.000000000               0.000000000               0.000000000               0.000000000               0.000058507               0.005085743              -0.000061100              -0.000613776               0.001899823               0.001286047               0.000000000               0.000000000               0.000000000               0.000000000               0.000023534               0.005052332              -0.000034871              -0.000622715               0.001891666               0.001268951               0.000000000               0.000000000               0.000000000               0.000000000               0.001476096               0.010291331               0.002255994              -0.000732880               0.003674702               0.002941822               0.000000000               0.000000000               0.000000000               0.000000000               0.001159829               0.008620747               0.001360091              -0.000642657               0.003087772               0.002445116               0.000000000               0.000000000               0.000000000               0.000000000               0.001172859               0.007419714               0.000459832              -0.000487641               0.002635760               0.002148119               0.000000000               0.000000000               0.000000000               0.000000000               0.001056843               0.006727357               0.000076249              -0.000444603               0.002390631               0.001946028               0.000000000               0.000000000               0.000000000               0.000000000               0.000925629               0.006285014              -0.000088924              -0.000438515               0.002241155               0.001802641               0.000000000               0.000000000               0.000000000               0.000000000               0.000808385               0.005988897              -0.000159255              -0.000445467               0.002144768               0.001699301               0.000000000               0.000000000               0.000000000               0.000000000               0.000701336               0.005782602              -0.000190802              -0.000459823               0.002080789               0.001620966               0.000000000               0.000000000               0.000000000               0.000000000               0.000599847               0.005627608              -0.000201034              -0.000478507               0.002035353               0.001556846               0.000000000               0.000000000               0.000000000               0.000000000               0.000506517               0.005503579              -0.000197454              -0.000498002               0.002000509               0.001502507               0.000000000               0.000000000               0.000000000               0.000000000               0.000419961               0.005403448              -0.000187435              -0.000517944               0.001973779               0.001455835               0.000000000               0.000000000               0.000000000               0.000000000               0.000337841               0.005324109              -0.000178647              -0.000538822               0.001954293               0.001415471               0.000000000               0.000000000               0.000000000               0.000000000               0.000261886               0.005263446              -0.000171274              -0.000559722               0.001941039               0.001381317               0.000000000               0.000000000               0.000000000               0.000000000               0.000190660               0.005210950              -0.000157921              -0.000579870               0.001930256               0.001350386               0.000000000               0.000000000               0.000000000               0.000000000               0.000126756               0.005162845              -0.000137829              -0.000597821               0.001920205               0.001322384               0.000000000               0.000000000               0.000000000               0.000000000               0.000075239               0.005121081              -0.000107312              -0.000611919               0.001910983               0.001299064               0.000000000               0.000000000               0.000000000               0.000000000               0.000034317               0.005085208              -0.000060297              -0.000622780               0.001902646               0.001279865               0.000000000               0.000000000               0.000000000               0.000000000               0.000015765               0.005068065              -0.000033073              -0.000627595               0.001898536               0.001270942               0.000000000               0.000000000               0.000000000               0.000000000               0.001652085               0.009093356               0.002635311              -0.000517139               0.003203468               0.002686329               0.000000000               0.000000000               0.000000000               0.000000000               0.001117622               0.007826959               0.001619099              -0.000559261               0.002795380               0.002236119               0.000000000               0.000000000               0.000000000               0.000000000               0.000894741               0.007019249               0.000606094              -0.000541877               0.002520352               0.001978475               0.000000000               0.000000000               0.000000000               0.000000000               0.000719097               0.006505884               0.000186559              -0.000543573               0.002349797               0.001806224               0.000000000               0.000000000               0.000000000               0.000000000               0.000595100               0.006152869               0.000001770              -0.000545945               0.002232917               0.001686972               0.000000000               0.000000000               0.000000000               0.000000000               0.000504929               0.005905789              -0.000079900              -0.000548874               0.002151535               0.001602661               0.000000000               0.000000000               0.000000000               0.000000000               0.000426316               0.005719309              -0.000116592              -0.000555044               0.002091432               0.001536388               0.000000000               0.000000000               0.000000000               0.000000000               0.000354621               0.005568326              -0.000130896              -0.000563057               0.002043776               0.001480719               0.000000000               0.000000000               0.000000000               0.000000000               0.000295515               0.005446149              -0.000133096              -0.000569949               0.002005348               0.001435399               0.000000000               0.000000000               0.000000000               0.000000000               0.000242515               0.005346333              -0.000131851              -0.000577347               0.001974542               0.001397195               0.000000000               0.000000000               0.000000000               0.000000000               0.000192304               0.005268115              -0.000134051              -0.000586399               0.001951487               0.001365088               0.000000000               0.000000000               0.000000000               0.000000000               0.000146220               0.005204571              -0.000135762              -0.000595737               0.001933419               0.001337681               0.000000000               0.000000000               0.000000000               0.000000000               0.000104938               0.005149314              -0.000127203              -0.000604311               0.001917858               0.001313547               0.000000000               0.000000000               0.000000000               0.000000000               0.000069893               0.005099350              -0.000110976              -0.000611207               0.001903502               0.001292295               0.000000000               0.000000000               0.000000000               0.000000000               0.000041530               0.005055717              -0.000084793              -0.000616389               0.001890685               0.001274296               0.000000000               0.000000000               0.000000000               0.000000000               0.000020131               0.005024567              -0.000045473              -0.000620520               0.001881679               0.001261159               0.000000000               0.000000000               0.000000000               0.000000000               0.000011883               0.005014322              -0.000023148              -0.000622332               0.001878868               0.001256536               0.000000000               0.000000000               0.000000000               0.000000000               0.001751883               0.007794007               0.002781804              -0.000317297               0.002703741               0.002386444               0.000000000               0.000000000               0.000000000               0.000000000               0.001030377               0.006983628               0.001759965              -0.000486562               0.002490040               0.002003477               0.000000000               0.000000000               0.000000000               0.000000000               0.000602561               0.006594407               0.000743904              -0.000598339               0.002397560               0.001799221               0.000000000               0.000000000               0.000000000               0.000000000               0.000400131               0.006260695               0.000330528              -0.000632536               0.002297723               0.001665187               0.000000000               0.000000000               0.000000000               0.000000000               0.000298249               0.005990301               0.000142684              -0.000636943               0.002209061               0.001572119               0.000000000               0.000000000               0.000000000               0.000000000               0.000237917               0.005778671               0.000053503              -0.000633113               0.002137242               0.001504129               0.000000000               0.000000000               0.000000000               0.000000000               0.000193938               0.005610338               0.000009537              -0.000628564               0.002079615               0.001451051               0.000000000               0.000000000               0.000000000               0.000000000               0.000158494               0.005467925              -0.000015941              -0.000624054               0.002030641               0.001406588               0.000000000               0.000000000               0.000000000               0.000000000               0.000134053               0.005348952              -0.000032093              -0.000618347               0.001989082               0.001370735               0.000000000               0.000000000               0.000000000               0.000000000               0.000112722               0.005251304              -0.000045748              -0.000614141               0.001955131               0.001340990               0.000000000               0.000000000               0.000000000               0.000000000               0.000091682               0.005172052              -0.000060912              -0.000612124               0.001928042               0.001315917               0.000000000               0.000000000               0.000000000               0.000000000               0.000072046               0.005101775              -0.000071820              -0.000610703               0.001904142               0.001293439               0.000000000               0.000000000               0.000000000               0.000000000               0.000052617               0.005033966              -0.000070818              -0.000609513               0.001881143               0.001271630               0.000000000               0.000000000               0.000000000               0.000000000               0.000036926               0.004970058              -0.000060786              -0.000607408               0.001859139               0.001251730               0.000000000               0.000000000               0.000000000               0.000000000               0.000023672               0.004914120              -0.000043988              -0.000605387               0.001839819               0.001234433               0.000000000               0.000000000               0.000000000               0.000000000               0.000011298               0.004869730              -0.000021172              -0.000604478               0.001824720               0.001220242               0.000000000               0.000000000               0.000000000               0.000000000               0.000003910               0.004847282              -0.000010452              -0.000604443               0.001817225               0.001212783               0.000000000               0.000000000               0.000000000               0.000000000               0.001737608               0.006492903               0.002722567              -0.000160013               0.002217616               0.002057603               0.000000000               0.000000000               0.000000000               0.000000000               0.000903066               0.006147603               0.001807077              -0.000429801               0.002192447               0.001762646               0.000000000               0.000000000               0.000000000               0.000000000               0.000333150               0.006152683               0.000885229              -0.000644153               0.002265591               0.001621438               0.000000000               0.000000000               0.000000000               0.000000000               0.000137428               0.005971876               0.000503710              -0.000694947               0.002222254               0.001527307               0.000000000               0.000000000               0.000000000               0.000000000               0.000070330               0.005772580               0.000316585              -0.000695197               0.002155906               0.001460709               0.000000000               0.000000000               0.000000000               0.000000000               0.000044284               0.005600826               0.000212026              -0.000683495               0.002094755               0.001411260               0.000000000               0.000000000               0.000000000               0.000000000               0.000035936               0.005457126               0.000151290              -0.000668663               0.002041912               0.001373249               0.000000000               0.000000000               0.000000000               0.000000000               0.000032874               0.005325501               0.000110150              -0.000653358               0.001992935               0.001339577               0.000000000               0.000000000               0.000000000               0.000000000               0.000032831               0.005210570               0.000076236              -0.000639008               0.001949842               0.001310834               0.000000000               0.000000000               0.000000000               0.000000000               0.000031528               0.005113973               0.000045496              -0.000627422               0.001913782               0.001286359               0.000000000               0.000000000               0.000000000               0.000000000               0.000028981               0.005028153               0.000015670              -0.000617650               0.001881917               0.001264268               0.000000000               0.000000000               0.000000000               0.000000000               0.000024388               0.004945142              -0.000005700              -0.000608996               0.001851363               0.001242367               0.000000000               0.000000000               0.000000000               0.000000000               0.000017486               0.004861443              -0.000013438              -0.000601122               0.001820839               0.001219717               0.000000000               0.000000000               0.000000000               0.000000000               0.000011543               0.004782620              -0.000015393              -0.000593497               0.001792023               0.001198526               0.000000000               0.000000000               0.000000000               0.000000000               0.000005046               0.004712418              -0.000013194              -0.000587159               0.001766510               0.001179351               0.000000000               0.000000000               0.000000000               0.000000000               0.000001684               0.004651517              -0.000006307              -0.000580807               0.001744092               0.001163286               0.000000000               0.000000000               0.000000000               0.000000000              -0.000004632               0.004612334              -0.000006776              -0.000578277               0.001730188               0.001151911               0.000000000               0.000000000               0.000000000               0.000000000               0.001616749               0.005257780               0.002507463              -0.000050945               0.001769556               0.001718611               0.000000000               0.000000000               0.000000000               0.000000000               0.000749028               0.005358329               0.001788765              -0.000388906               0.001915727               0.001526820               0.000000000               0.000000000               0.000000000               0.000000000               0.000114058               0.005699785               0.001030248              -0.000669700               0.002123142               0.001453442               0.000000000               0.000000000               0.000000000               0.000000000              -0.000048149               0.005647775               0.000681067              -0.000724026               0.002123915               0.001399889               0.000000000               0.000000000               0.000000000               0.000000000              -0.000073348               0.005523231               0.000485897              -0.000717907               0.002080361               0.001362453               0.000000000               0.000000000               0.000000000               0.000000000              -0.000065644               0.005396490               0.000361227              -0.000699176               0.002031871               0.001332695               0.000000000               0.000000000               0.000000000               0.000000000              -0.000049052               0.005272254               0.000281578              -0.000677425               0.001983209               0.001305784               0.000000000               0.000000000               0.000000000               0.000000000              -0.000030531               0.005152643               0.000223223              -0.000655528               0.001936040               0.001280512               0.000000000               0.000000000               0.000000000               0.000000000              -0.000015928               0.005045675               0.000169474              -0.000636681               0.001894102               0.001257421               0.000000000               0.000000000               0.000000000               0.000000000              -0.000010014               0.004947419               0.000120714              -0.000622181               0.001856517               0.001234336               0.000000000               0.000000000               0.000000000               0.000000000              -0.000008975               0.004851506               0.000077359              -0.000609803               0.001820420               0.001210618               0.000000000               0.000000000               0.000000000               0.000000000              -0.000009982               0.004752342               0.000043444              -0.000597784               0.001783360               0.001185575               0.000000000               0.000000000               0.000000000               0.000000000              -0.000013388               0.004654374               0.000021518              -0.000586816               0.001747048               0.001160232               0.000000000               0.000000000               0.000000000               0.000000000              -0.000015906               0.004565504               0.000005843              -0.000576651               0.001714036               0.001137385               0.000000000               0.000000000               0.000000000               0.000000000              -0.000017903               0.004484521              -0.000004935              -0.000567277               0.001683918               0.001116641               0.000000000               0.000000000               0.000000000               0.000000000              -0.000012502               0.004412923              -0.000006727              -0.000556302               0.001656394               0.001100091               0.000000000               0.000000000               0.000000000               0.000000000              -0.000011923               0.004367498              -0.000009496              -0.000550407               0.001639287               0.001088880               0.000000000               0.000000000               0.000000000               0.000000000               0.001445535               0.004186246               0.002192436               0.000018792               0.001389136               0.001407928               0.000000000               0.000000000               0.000000000               0.000000000               0.000615851               0.004648697               0.001736205              -0.000350144               0.001666264               0.001316120               0.000000000               0.000000000               0.000000000               0.000000000              -0.000027139               0.005271235               0.001190518              -0.000669080               0.001980087               0.001311007               0.000000000               0.000000000               0.000000000               0.000000000              -0.000150372               0.005354772               0.000865208              -0.000725734               0.002026817               0.001301083               0.000000000               0.000000000               0.000000000               0.000000000              -0.000144207               0.005309882               0.000656995              -0.000717811               0.002009213               0.001291402               0.000000000               0.000000000               0.000000000               0.000000000              -0.000114398               0.005225989               0.000512879              -0.000696146               0.001974028               0.001277881               0.000000000               0.000000000               0.000000000               0.000000000              -0.000078169               0.005122050               0.000411305              -0.000669568               0.001930522               0.001260954               0.000000000               0.000000000               0.000000000               0.000000000              -0.000043847               0.005019237               0.000330883              -0.000643846               0.001887677               0.001243832               0.000000000               0.000000000               0.000000000               0.000000000              -0.000025243               0.004921000               0.000258791              -0.000624590               0.001848513               0.001223924               0.000000000               0.000000000               0.000000000               0.000000000              -0.000020218               0.004824226               0.000195199              -0.000610609               0.001811596               0.001200987               0.000000000               0.000000000               0.000000000               0.000000000              -0.000021343               0.004723371               0.000139953              -0.000598424               0.001773916               0.001175492               0.000000000               0.000000000               0.000000000               0.000000000              -0.000024551               0.004615921               0.000094282              -0.000586195               0.001734024               0.001147828               0.000000000               0.000000000               0.000000000               0.000000000              -0.000029499               0.004509510               0.000056957              -0.000574749               0.001694738               0.001119989               0.000000000               0.000000000               0.000000000               0.000000000              -0.000038489               0.004409746               0.000026879              -0.000565650               0.001658451               0.001092800               0.000000000               0.000000000               0.000000000               0.000000000              -0.000050039               0.004315372               0.000006009              -0.000558185               0.001624505               0.001066320               0.000000000               0.000000000               0.000000000               0.000000000              -0.000057473               0.004225318              -0.000003719              -0.000549716               0.001591664               0.001041948               0.000000000               0.000000000               0.000000000               0.000000000              -0.000057002               0.004176577              -0.000006582              -0.000543447               0.001573327               0.001029881               0.000000000               0.000000000               0.000000000               0.000000000               0.001196938               0.003173443               0.001830879               0.000052168               0.001040413               0.001092582               0.000000000               0.000000000               0.000000000               0.000000000               0.000529546               0.003835622               0.001663726              -0.000280874               0.001372152               0.001091278               0.000000000               0.000000000               0.000000000               0.000000000              -0.000062539               0.004660785               0.001368357              -0.000606050               0.001755596               0.001149546               0.000000000               0.000000000               0.000000000               0.000000000              -0.000174255               0.004918969               0.001081285              -0.000680216               0.001866378               0.001186163               0.000000000               0.000000000               0.000000000               0.000000000              -0.000156752               0.004986099               0.000863047              -0.000682043               0.001889364               0.001207321               0.000000000               0.000000000               0.000000000               0.000000000              -0.000118293               0.004976998               0.000699491              -0.000666483               0.001881144               0.001214661               0.000000000               0.000000000               0.000000000               0.000000000              -0.000081591               0.004928356               0.000573276              -0.000646639               0.001858315               0.001211676               0.000000000               0.000000000               0.000000000               0.000000000              -0.000046642               0.004860031               0.000466649              -0.000624993               0.001828325               0.001203332               0.000000000               0.000000000               0.000000000               0.000000000              -0.000027074               0.004783149               0.000374114              -0.000608045               0.001797049               0.001189004               0.000000000               0.000000000               0.000000000               0.000000000              -0.000024485               0.004705722               0.000295724              -0.000597396               0.001767690               0.001170295               0.000000000               0.000000000               0.000000000               0.000000000              -0.000030159               0.004620567               0.000229403              -0.000588879               0.001736467               0.001147587               0.000000000               0.000000000               0.000000000               0.000000000              -0.000037276               0.004529236               0.000171303              -0.000580131               0.001703107               0.001122976               0.000000000               0.000000000               0.000000000               0.000000000              -0.000049106               0.004429981               0.000117548              -0.000572161               0.001667366               0.001095205               0.000000000               0.000000000               0.000000000               0.000000000              -0.000066920               0.004331263               0.000069716              -0.000566501               0.001632574               0.001066072               0.000000000               0.000000000               0.000000000               0.000000000              -0.000091393               0.004237056               0.000031032              -0.000563903               0.001600306               0.001036403               0.000000000               0.000000000               0.000000000               0.000000000              -0.000119736               0.004141720               0.000007343              -0.000562614               0.001568098               0.001005483               0.000000000               0.000000000               0.000000000               0.000000000              -0.000134267               0.004090620              -0.000000972              -0.000561676               0.001550752               0.000989076               0.000000000               0.000000000               0.000000000               0.000000000               0.000808066               0.002235960               0.001439650               0.000023527               0.000737469               0.000760997               0.000000000               0.000000000               0.000000000               0.000000000               0.000426776               0.003026123               0.001542218              -0.000218226               0.001081439               0.000863213               0.000000000               0.000000000               0.000000000               0.000000000              -0.000028800               0.003978237               0.001499897              -0.000508080               0.001495425               0.000987346               0.000000000               0.000000000               0.000000000               0.000000000              -0.000131337               0.004397223               0.001285814              -0.000598904               0.001665361               0.001066457               0.000000000               0.000000000               0.000000000               0.000000000              -0.000120625               0.004588806               0.001076639              -0.000618834               0.001735865               0.001117031               0.000000000               0.000000000               0.000000000               0.000000000              -0.000084124               0.004675116               0.000900895              -0.000615935               0.001763668               0.001147733               0.000000000               0.000000000               0.000000000               0.000000000              -0.000055663               0.004700591               0.000756268              -0.000608446               0.001769663               0.001161217               0.000000000               0.000000000               0.000000000               0.000000000              -0.000028398               0.004685000               0.000630936              -0.000596273               0.001760408               0.001164136               0.000000000               0.000000000               0.000000000               0.000000000              -0.000007868               0.004648017               0.000520111              -0.000583951               0.001743974               0.001160022               0.000000000               0.000000000               0.000000000               0.000000000              -0.000001068               0.004598477               0.000428106              -0.000575209               0.001724547               0.001149338               0.000000000               0.000000000               0.000000000               0.000000000              -0.000004712               0.004536964               0.000353454              -0.000568886               0.001701935               0.001133049               0.000000000               0.000000000               0.000000000               0.000000000              -0.000013958               0.004466458               0.000285251              -0.000563540               0.001676651               0.001113111               0.000000000               0.000000000               0.000000000               0.000000000              -0.000031182               0.004385583               0.000216723              -0.000559890               0.001648476               0.001088586               0.000000000               0.000000000               0.000000000               0.000000000              -0.000060867               0.004297350               0.000149703              -0.000559993               0.001619100               0.001059107               0.000000000               0.000000000               0.000000000               0.000000000              -0.000103731               0.004208797               0.000088396              -0.000564997               0.001591251               0.001026253               0.000000000               0.000000000               0.000000000               0.000000000              -0.000161063               0.004124365               0.000037763              -0.000575943               0.001566756               0.000990813               0.000000000               0.000000000               0.000000000               0.000000000              -0.000204834               0.004073594               0.000010733              -0.000586011               0.001553188               0.000967177               0.000000000               0.000000000               0.000000000               0.000000000               0.000310705               0.001431945               0.001036281              -0.000062480               0.000498136               0.000435656               0.000000000               0.000000000               0.000000000               0.000000000               0.000267739               0.002258125               0.001350527              -0.000181865               0.000813322               0.000631457               0.000000000               0.000000000               0.000000000               0.000000000               0.000035683               0.003225682               0.001524059              -0.000389830               0.001205159               0.000815329               0.000000000               0.000000000               0.000000000               0.000000000              -0.000022820               0.003760206               0.001402307              -0.000478583               0.001412917               0.000934333               0.000000000               0.000000000               0.000000000               0.000000000              -0.000016305               0.004069719               0.001222944              -0.000514829               0.001528169               0.001013340               0.000000000               0.000000000               0.000000000               0.000000000               0.000007742               0.004255889               0.001050757              -0.000529082               0.001594976               0.001065894               0.000000000               0.000000000               0.000000000               0.000000000               0.000025469               0.004365778               0.000902162              -0.000536170               0.001633968               0.001097798               0.000000000               0.000000000               0.000000000               0.000000000               0.000040079               0.004420335               0.000770764              -0.000537511               0.001652600               0.001115089               0.000000000               0.000000000               0.000000000               0.000000000               0.000054016               0.004433979               0.000653671              -0.000533990               0.001655975               0.001121985               0.000000000               0.000000000               0.000000000               0.000000000               0.000062891               0.004423434               0.000556437              -0.000529344               0.001650911               0.001121567               0.000000000               0.000000000               0.000000000               0.000000000               0.000062638               0.004398691               0.000475919              -0.000526346               0.001641664               0.001115318               0.000000000               0.000000000               0.000000000               0.000000000               0.000051795               0.004362969               0.000400104              -0.000525947               0.001629624               0.001103677               0.000000000               0.000000000               0.000000000               0.000000000               0.000032400               0.004316913               0.000321007              -0.000527463               0.001614777               0.001087315               0.000000000               0.000000000               0.000000000               0.000000000              -0.000001519               0.004255147               0.000239632              -0.000532462               0.001595856               0.001063394               0.000000000               0.000000000               0.000000000               0.000000000              -0.000054617               0.004182984               0.000157328              -0.000543353               0.001575432               0.001032079               0.000000000               0.000000000               0.000000000               0.000000000              -0.000131882               0.004111967               0.000075693              -0.000563450               0.001558459               0.000995009               0.000000000               0.000000000               0.000000000               0.000000000              -0.000197299               0.004064873               0.000029063              -0.000582095               0.001548976               0.000966881               0.000000000               0.000000000               0.000000000               0.000000000              -0.000256199               0.000805039               0.000664378              -0.000196705               0.000333911               0.000137207               0.000000000               0.000000000               0.000000000               0.000000000               0.000063307               0.001568115               0.001104819              -0.000172275               0.000580124               0.000407849               0.000000000               0.000000000               0.000000000               0.000000000               0.000109868               0.002459168               0.001426643              -0.000266196               0.000908446               0.000642250               0.000000000               0.000000000               0.000000000               0.000000000               0.000128252               0.003055203               0.001393994              -0.000333806               0.001129659               0.000795853               0.000000000               0.000000000               0.000000000               0.000000000               0.000146080               0.003458189               0.001258874              -0.000377494               0.001278549               0.000901055               0.000000000               0.000000000               0.000000000               0.000000000               0.000160334               0.003739401               0.001105113              -0.000407300               0.001382221               0.000974921               0.000000000               0.000000000               0.000000000               0.000000000               0.000166597               0.003935929               0.000965884              -0.000429517               0.001455135               0.001025618               0.000000000               0.000000000               0.000000000               0.000000000               0.000167608               0.004065459               0.000842670              -0.000445329               0.001503582               0.001058253               0.000000000               0.000000000               0.000000000               0.000000000               0.000169335               0.004140297               0.000732821              -0.000454036               0.001531430               0.001077394               0.000000000               0.000000000               0.000000000               0.000000000               0.000170637               0.004181666               0.000640149              -0.000458719               0.001546781               0.001088062               0.000000000               0.000000000               0.000000000               0.000000000               0.000168455               0.004204161               0.000559527              -0.000462348               0.001555489               0.001093141               0.000000000               0.000000000               0.000000000               0.000000000               0.000158406               0.004212503               0.000482346              -0.000467160               0.001559873               0.001092714               0.000000000               0.000000000               0.000000000               0.000000000               0.000141959               0.004209502               0.000401730              -0.000472952               0.001560804               0.001087852               0.000000000               0.000000000               0.000000000               0.000000000               0.000115953               0.004187907               0.000314344              -0.000480005               0.001555957               0.001075952               0.000000000               0.000000000               0.000000000               0.000000000               0.000071847               0.004144766               0.000218609              -0.000491152               0.001545292               0.001054140               0.000000000               0.000000000               0.000000000               0.000000000               0.000005526               0.004096499               0.000112519              -0.000509989               0.001535482               0.001025493               0.000000000               0.000000000               0.000000000               0.000000000              -0.000055429               0.004061748               0.000050342              -0.000528503               0.001530070               0.001001567               0.000000000               0.000000000               0.000000000               0.000000000              -0.000827072               0.000355189               0.000364329              -0.000354550               0.000236578              -0.000117972               0.000000000               0.000000000               0.000000000               0.000000000              -0.000164369               0.000993423               0.000826708              -0.000185816               0.000393076               0.000207259               0.000000000               0.000000000               0.000000000               0.000000000               0.000176856               0.001748603               0.001203523              -0.000152255               0.000633613               0.000481358               0.000000000               0.000000000               0.000000000               0.000000000               0.000296245               0.002356662               0.001237335              -0.000183492               0.000846709               0.000663218               0.000000000               0.000000000               0.000000000               0.000000000               0.000340140               0.002823621               0.001151068              -0.000225401               0.001016331               0.000790930               0.000000000               0.000000000               0.000000000               0.000000000               0.000352545               0.003182762               0.001029103              -0.000265641               0.001149457               0.000883816               0.000000000               0.000000000               0.000000000               0.000000000               0.000348986               0.003456926               0.000911634              -0.000301246               0.001252712               0.000951466               0.000000000               0.000000000               0.000000000               0.000000000               0.000337428               0.003659025               0.000806496              -0.000330842               0.001329944               0.000999101               0.000000000               0.000000000               0.000000000               0.000000000               0.000325555               0.003799879               0.000712768              -0.000352901               0.001384247               0.001031346               0.000000000               0.000000000               0.000000000               0.000000000               0.000315429               0.003897111               0.000633948              -0.000368852               0.001421975               0.001053122               0.000000000               0.000000000               0.000000000               0.000000000               0.000308628               0.003968553               0.000563927              -0.000380333               0.001449615               0.001069282               0.000000000               0.000000000               0.000000000               0.000000000               0.000302751               0.004024270               0.000494749              -0.000389501               0.001471244               0.001081742               0.000000000               0.000000000               0.000000000               0.000000000               0.000293977               0.004063640               0.000421738              -0.000397713               0.001487104               0.001089391               0.000000000               0.000000000               0.000000000               0.000000000               0.000282117               0.004084875               0.000340225              -0.000404815               0.001496550               0.001091735               0.000000000               0.000000000               0.000000000               0.000000000               0.000263705               0.004084016               0.000245824              -0.000411612               0.001498529               0.001086917               0.000000000               0.000000000               0.000000000               0.000000000               0.000233613               0.004067721               0.000131333              -0.000420859               0.001496180               0.001075321               0.000000000               0.000000000               0.000000000               0.000000000               0.000205169               0.004051699               0.000064993              -0.000429523               0.001493727               0.001064204               0.000000000               0.000000000               0.000000000               0.000000000              -0.001317609               0.000073734               0.000159791              -0.000503320               0.000192350              -0.000310970               0.000000000               0.000000000               0.000000000               0.000000000              -0.000377786               0.000570704               0.000539722              -0.000213008               0.000261235               0.000048227               0.000000000               0.000000000               0.000000000               0.000000000               0.000225798               0.001172533               0.000868883              -0.000061893               0.000411471               0.000349578               0.000000000               0.000000000               0.000000000               0.000000000               0.000450762               0.001760378               0.000929913              -0.000051013               0.000603791               0.000552778               0.000000000               0.000000000               0.000000000               0.000000000               0.000527961               0.002260921               0.000886081              -0.000084631               0.000781843               0.000697212               0.000000000               0.000000000               0.000000000               0.000000000               0.000546442               0.002671719               0.000803900              -0.000129050               0.000933580               0.000804531               0.000000000               0.000000000               0.000000000               0.000000000               0.000538863               0.003004924               0.000719147              -0.000173542               0.001059478               0.000885936               0.000000000               0.000000000               0.000000000               0.000000000               0.000518229               0.003266532               0.000641909              -0.000213980               0.001160160               0.000946179               0.000000000               0.000000000               0.000000000               0.000000000               0.000495721               0.003465464               0.000571965              -0.000247287               0.001237572               0.000990285               0.000000000               0.000000000               0.000000000               0.000000000               0.000474231               0.003614338               0.000512838              -0.000273955               0.001296086               0.001022130               0.000000000               0.000000000               0.000000000               0.000000000               0.000457718               0.003732016               0.000461030              -0.000294857               0.001342279               0.001047422               0.000000000               0.000000000               0.000000000               0.000000000               0.000450961               0.003831601               0.000408940              -0.000309839               0.001380467               0.001070628               0.000000000               0.000000000               0.000000000               0.000000000               0.000451379               0.003914934               0.000353604              -0.000320099               0.001411665               0.001091566               0.000000000               0.000000000               0.000000000               0.000000000               0.000458289               0.003980515               0.000291805              -0.000325705               0.001435394               0.001109688               0.000000000               0.000000000               0.000000000               0.000000000               0.000471352               0.004021118               0.000216164              -0.000325882               0.001448986               0.001123105               0.000000000               0.000000000               0.000000000               0.000000000               0.000493274               0.004039990               0.000118850              -0.000320020               0.001453323               0.001133303               0.000000000               0.000000000               0.000000000               0.000000000               0.000514438               0.004047085               0.000064321              -0.000312971               0.001453338               0.001140368               0.000000000               0.000000000               0.000000000               0.000000000              -0.001652645              -0.000073995               0.000051828              -0.000610492               0.000178831              -0.000431661               0.000000000               0.000000000               0.000000000               0.000000000              -0.000530040               0.000315235               0.000264075              -0.000238169               0.000184467              -0.000053703               0.000000000               0.000000000               0.000000000               0.000000000               0.000252605               0.000798108               0.000453796              -0.000005037               0.000267712               0.000262675               0.000000000               0.000000000               0.000000000               0.000000000               0.000559079               0.001358049               0.000498584               0.000039898               0.000439379               0.000479277               0.000000000               0.000000000               0.000000000               0.000000000               0.000665315               0.001871124               0.000482738               0.000015602               0.000618501               0.000634103               0.000000000               0.000000000               0.000000000               0.000000000               0.000691657               0.002308937               0.000442866              -0.000029246               0.000779386               0.000750140               0.000000000               0.000000000               0.000000000               0.000000000               0.000685477               0.002674928               0.000398491              -0.000077312               0.000917404               0.000840092               0.000000000               0.000000000               0.000000000               0.000000000               0.000660626               0.002971095               0.000357124              -0.000123652               0.001031572               0.000907921               0.000000000               0.000000000               0.000000000               0.000000000               0.000628165               0.003207817               0.000318948              -0.000165415               0.001124400               0.000958985               0.000000000               0.000000000               0.000000000               0.000000000               0.000596313               0.003398266               0.000285800              -0.000201165               0.001199799               0.000998634               0.000000000               0.000000000               0.000000000               0.000000000               0.000570023               0.003557907               0.000258700              -0.000230979               0.001262950               0.001031971               0.000000000               0.000000000               0.000000000               0.000000000               0.000557564               0.003698929               0.000231649              -0.000253279               0.001317390               0.001064111               0.000000000               0.000000000               0.000000000               0.000000000               0.000562490               0.003819790               0.000201688              -0.000266539               0.001362097               0.001095558               0.000000000               0.000000000               0.000000000               0.000000000               0.000586690               0.003917376               0.000168235              -0.000269663               0.001395666               0.001126004               0.000000000               0.000000000               0.000000000               0.000000000               0.000632559               0.003985049               0.000126864              -0.000260921               0.001415310               0.001154389               0.000000000               0.000000000               0.000000000               0.000000000               0.000708716               0.004024534               0.000071460              -0.000237298               0.001420597               0.001183299               0.000000000               0.000000000               0.000000000               0.000000000               0.000780337               0.004046899               0.000040604              -0.000213235               0.001420031               0.001206796               0.000000000               0.000000000               0.000000000               0.000000000               0.000000000               0.000000000               0.000000000               0.000000000               0.000000000               0.000000000               0.000000000               0.000000000               0.000000000               0.000000000               0.000000000               0.000000000               0.000000000               0.000000000               0.000000000               0.000000000               0.000000000               0.000000000               0.000000000               0.000000000               0.000000000               0.000000000               0.000000000               0.000000000               0.000000000               0.000000000               0.000000000               0.000000000               0.000000000               0.000000000               0.000000000               0.000000000               0.000000000               0.000000000               0.000000000               0.000000000               0.000000000               0.000000000               0.000000000               0.000000000               0.000000000               0.000000000               0.000000000               0.000000000               0.000000000               0.000000000               0.000000000               0.000000000               0.000000000               0.000000000               0.000000000               0.000000000               0.000000000               0.000000000               0.000000000               0.000000000               0.000000000               0.000000000               0.000000000               0.000000000               0.000000000               0.000000000               0.000000000               0.000000000               0.000000000               0.000000000               0.000000000               0.000000000               0.000000000               0.000000000               0.000000000               0.000000000               0.000000000               0.000000000               0.000000000               0.000000000               0.000000000               0.000000000               0.000000000               0.000000000               0.000000000               0.000000000               0.000000000               0.000000000               0.000000000               0.000000000               0.000000000               0.000000000               0.000000000               0.000000000               0.000000000               0.000000000               0.000000000               0.000000000               0.000000000               0.000000000               0.000000000               0.000000000               0.000000000               0.000000000               0.000000000               0.000000000               0.000000000               0.000000000               0.000000000               0.000000000               0.000000000               0.000000000               0.000000000               0.000000000               0.000000000               0.000000000               0.000000000               0.000000000               0.000000000               0.000000000               0.000000000               0.000000000               0.000000000               0.000000000               0.000000000               0.000000000               0.000000000               0.000000000               0.000000000               0.000000000               0.000000000               0.000000000               0.000000000               0.000000000               0.000000000               0.000000000               0.000000000               0.000000000               0.000000000               0.000000000               0.000000000               0.000000000               0.000000000               0.000000000               0.000000000               0.000000000               0.000000000               0.000000000               0.000000000               0.000000000               0.000000000               0.000000000               0.000000000               0.000000000               0.000000000               0.000000000               0.000000000               0.000000000               0.000000000               0.000000000               0.000000000               0.000000000               0.000000000               0.000000000               0.000000000               0.000000000               0.000000000               0.000000000               0.000000000               0.000000000               0.000000000               0.000000000               0.000000000               0.000000000 </DataArray>
</PointData>
</Piece>
</UnstructuredGrid> </VTKFile>
