<?xml version="1.0"?>
<VTKFile type="UnstructuredGrid" version="0.1">
<UnstructuredGrid>
<Piece NumberOfPoints="      1156" NumberOfCells="      1024">
<Points>
<DataArray type="Float64"                                    Name="coordinates"                                                      NumberOfComponents=" 3" format="ascii">
              0.133000000               0.000000000               0.000000000               0.155937500               0.000000000               0.000000000               0.178875000               0.000000000               0.000000000               0.201812500               0.000000000               0.000000000               0.224750000               0.000000000               0.000000000               0.247687500               0.000000000               0.000000000               0.270625000               0.000000000               0.000000000               0.293562500               0.000000000               0.000000000               0.316500000               0.000000000               0.000000000               0.339437500               0.000000000               0.000000000               0.362375000               0.000000000               0.000000000               0.385312500               0.000000000               0.000000000               0.408250000               0.000000000               0.000000000               0.431187500               0.000000000               0.000000000               0.454125000               0.000000000               0.000000000               0.477062500               0.000000000               0.000000000               0.500000000               0.000000000               0.000000000               0.132359569               0.013036280               0.000000000               0.155337096               0.016127762               0.000000000               0.178314623               0.019219245               0.000000000               0.201292150               0.022310727               0.000000000               0.224269676               0.025402210               0.000000000               0.247247203               0.028493692               0.000000000               0.270224730               0.031585175               0.000000000               0.293202257               0.034676657               0.000000000               0.316179784               0.037768140               0.000000000               0.339157311               0.040859622               0.000000000               0.362134838               0.043951105               0.000000000               0.385112365               0.047042587               0.000000000               0.408089892               0.050134070               0.000000000               0.431067419               0.053225552               0.000000000               0.454044946               0.056317035               0.000000000               0.477022473               0.059408517               0.000000000               0.500000000               0.062500000               0.000000000               0.130444442               0.025947013               0.000000000               0.153541665               0.032137825               0.000000000               0.176638887               0.038328636               0.000000000               0.199736109               0.044519448               0.000000000               0.222833332               0.050710260               0.000000000               0.245930554               0.056901071               0.000000000               0.269027776               0.063091883               0.000000000               0.292124999               0.069282695               0.000000000               0.315222221               0.075473506               0.000000000               0.338319444               0.081664318               0.000000000               0.361416666               0.087855130               0.000000000               0.384513888               0.094045942               0.000000000               0.407611111               0.100236753               0.000000000               0.430708333               0.106427565               0.000000000               0.453805555               0.112618377               0.000000000               0.476902778               0.118809188               0.000000000               0.500000000               0.125000000               0.000000000               0.127273065               0.038607862               0.000000000               0.150568498               0.047913621               0.000000000               0.173863932               0.057219379               0.000000000               0.197159365               0.066525138               0.000000000               0.220454798               0.075830897               0.000000000               0.243750232               0.085136655               0.000000000               0.267045665               0.094442414               0.000000000               0.290341099               0.103748172               0.000000000               0.313636532               0.113053931               0.000000000               0.336931966               0.122359690               0.000000000               0.360227399               0.131665448               0.000000000               0.383522833               0.140971207               0.000000000               0.406818266               0.150276966               0.000000000               0.430113700               0.159582724               0.000000000               0.453409133               0.168888483               0.000000000               0.476704567               0.178194241               0.000000000               0.500000000               0.187500000               0.000000000               0.122875978               0.050896897               0.000000000               0.146446229               0.063340840               0.000000000               0.170016481               0.075784784               0.000000000               0.193586732               0.088228728               0.000000000               0.217156983               0.100672672               0.000000000               0.240727235               0.113116616               0.000000000               0.264297486               0.125560560               0.000000000               0.287867738               0.138004504               0.000000000               0.311437989               0.150448448               0.000000000               0.335008240               0.162892392               0.000000000               0.358578492               0.175336336               0.000000000               0.382148743               0.187780280               0.000000000               0.405718994               0.200224224               0.000000000               0.429289246               0.212668168               0.000000000               0.452859497               0.225112112               0.000000000               0.476429749               0.237556056               0.000000000               0.500000000               0.250000000               0.000000000               0.117295528               0.062695766               0.000000000               0.141214558               0.078308531               0.000000000               0.165133587               0.093921295               0.000000000               0.189052617               0.109534060               0.000000000               0.212971646               0.125146824               0.000000000               0.236890676               0.140759589               0.000000000               0.260809705               0.156372354               0.000000000               0.284728735               0.171985118               0.000000000               0.308647764               0.187597883               0.000000000               0.332566794               0.203210648               0.000000000               0.356485823               0.218823412               0.000000000               0.380404853               0.234436177               0.000000000               0.404323882               0.250048941               0.000000000               0.428242912               0.265661706               0.000000000               0.452161941               0.281274471               0.000000000               0.476080971               0.296887235               0.000000000               0.500000000               0.312500000               0.000000000               0.110585458               0.073890841               0.000000000               0.134923867               0.092710163               0.000000000               0.159262276               0.111529486               0.000000000               0.183600685               0.130348808               0.000000000               0.207939094               0.149168131               0.000000000               0.232277503               0.167987453               0.000000000               0.256615912               0.186806776               0.000000000               0.280954320               0.205626098               0.000000000               0.305292729               0.224445420               0.000000000               0.329631138               0.243264743               0.000000000               0.353969547               0.262084065               0.000000000               0.378307956               0.280903388               0.000000000               0.402646365               0.299722710               0.000000000               0.426984773               0.318542033               0.000000000               0.451323182               0.337361355               0.000000000               0.475661591               0.356180678               0.000000000               0.500000000               0.375000000               0.000000000               0.102810390               0.084374307               0.000000000               0.127634741               0.106444663               0.000000000               0.152459092               0.128515018               0.000000000               0.177283442               0.150585374               0.000000000               0.202107793               0.172655730               0.000000000               0.226932143               0.194726086               0.000000000               0.251756494               0.216796442               0.000000000               0.276580845               0.238866798               0.000000000               0.301405195               0.260937153               0.000000000               0.326229546               0.283007509               0.000000000               0.351053896               0.305077865               0.000000000               0.375878247               0.327148221               0.000000000               0.400702598               0.349218577               0.000000000               0.425526948               0.371288933               0.000000000               0.450351299               0.393359288               0.000000000               0.475175649               0.415429644               0.000000000               0.500000000               0.437500000               0.000000000               0.094045202               0.094045202               0.000000000               0.119417377               0.119417377               0.000000000               0.144789552               0.144789552               0.000000000               0.170161727               0.170161727               0.000000000               0.195533901               0.195533901               0.000000000               0.220906076               0.220906076               0.000000000               0.246278251               0.246278251               0.000000000               0.271650426               0.271650426               0.000000000               0.297022601               0.297022601               0.000000000               0.322394776               0.322394776               0.000000000               0.347766951               0.347766951               0.000000000               0.373139126               0.373139126               0.000000000               0.398511300               0.398511300               0.000000000               0.423883475               0.423883475               0.000000000               0.449255650               0.449255650               0.000000000               0.474627825               0.474627825               0.000000000               0.500000000               0.500000000               0.000000000               0.084374307               0.102810390               0.000000000               0.106444663               0.127634741               0.000000000               0.128515018               0.152459092               0.000000000               0.150585374               0.177283442               0.000000000               0.172655730               0.202107793               0.000000000               0.194726086               0.226932143               0.000000000               0.216796442               0.251756494               0.000000000               0.238866798               0.276580845               0.000000000               0.260937153               0.301405195               0.000000000               0.283007509               0.326229546               0.000000000               0.305077865               0.351053896               0.000000000               0.327148221               0.375878247               0.000000000               0.349218577               0.400702598               0.000000000               0.371288933               0.425526948               0.000000000               0.393359288               0.450351299               0.000000000               0.415429644               0.475175649               0.000000000               0.437500000               0.500000000               0.000000000               0.073890841               0.110585458               0.000000000               0.092710163               0.134923867               0.000000000               0.111529486               0.159262276               0.000000000               0.130348808               0.183600685               0.000000000               0.149168131               0.207939094               0.000000000               0.167987453               0.232277503               0.000000000               0.186806776               0.256615912               0.000000000               0.205626098               0.280954320               0.000000000               0.224445420               0.305292729               0.000000000               0.243264743               0.329631138               0.000000000               0.262084065               0.353969547               0.000000000               0.280903388               0.378307956               0.000000000               0.299722710               0.402646365               0.000000000               0.318542033               0.426984773               0.000000000               0.337361355               0.451323182               0.000000000               0.356180678               0.475661591               0.000000000               0.375000000               0.500000000               0.000000000               0.062695766               0.117295528               0.000000000               0.078308531               0.141214558               0.000000000               0.093921295               0.165133587               0.000000000               0.109534060               0.189052617               0.000000000               0.125146824               0.212971646               0.000000000               0.140759589               0.236890676               0.000000000               0.156372354               0.260809705               0.000000000               0.171985118               0.284728735               0.000000000               0.187597883               0.308647764               0.000000000               0.203210648               0.332566794               0.000000000               0.218823412               0.356485823               0.000000000               0.234436177               0.380404853               0.000000000               0.250048941               0.404323882               0.000000000               0.265661706               0.428242912               0.000000000               0.281274471               0.452161941               0.000000000               0.296887235               0.476080971               0.000000000               0.312500000               0.500000000               0.000000000               0.050896897               0.122875978               0.000000000               0.063340840               0.146446229               0.000000000               0.075784784               0.170016481               0.000000000               0.088228728               0.193586732               0.000000000               0.100672672               0.217156983               0.000000000               0.113116616               0.240727235               0.000000000               0.125560560               0.264297486               0.000000000               0.138004504               0.287867738               0.000000000               0.150448448               0.311437989               0.000000000               0.162892392               0.335008240               0.000000000               0.175336336               0.358578492               0.000000000               0.187780280               0.382148743               0.000000000               0.200224224               0.405718994               0.000000000               0.212668168               0.429289246               0.000000000               0.225112112               0.452859497               0.000000000               0.237556056               0.476429749               0.000000000               0.250000000               0.500000000               0.000000000               0.038607862               0.127273065               0.000000000               0.047913621               0.150568498               0.000000000               0.057219379               0.173863932               0.000000000               0.066525138               0.197159365               0.000000000               0.075830897               0.220454798               0.000000000               0.085136655               0.243750232               0.000000000               0.094442414               0.267045665               0.000000000               0.103748172               0.290341099               0.000000000               0.113053931               0.313636532               0.000000000               0.122359690               0.336931966               0.000000000               0.131665448               0.360227399               0.000000000               0.140971207               0.383522833               0.000000000               0.150276966               0.406818266               0.000000000               0.159582724               0.430113700               0.000000000               0.168888483               0.453409133               0.000000000               0.178194241               0.476704567               0.000000000               0.187500000               0.500000000               0.000000000               0.025947013               0.130444442               0.000000000               0.032137825               0.153541665               0.000000000               0.038328636               0.176638887               0.000000000               0.044519448               0.199736109               0.000000000               0.050710260               0.222833332               0.000000000               0.056901071               0.245930554               0.000000000               0.063091883               0.269027776               0.000000000               0.069282695               0.292124999               0.000000000               0.075473506               0.315222221               0.000000000               0.081664318               0.338319444               0.000000000               0.087855130               0.361416666               0.000000000               0.094045942               0.384513888               0.000000000               0.100236753               0.407611111               0.000000000               0.106427565               0.430708333               0.000000000               0.112618377               0.453805555               0.000000000               0.118809188               0.476902778               0.000000000               0.125000000               0.500000000               0.000000000               0.013036280               0.132359569               0.000000000               0.016127762               0.155337096               0.000000000               0.019219245               0.178314623               0.000000000               0.022310727               0.201292150               0.000000000               0.025402210               0.224269676               0.000000000               0.028493692               0.247247203               0.000000000               0.031585175               0.270224730               0.000000000               0.034676657               0.293202257               0.000000000               0.037768140               0.316179784               0.000000000               0.040859622               0.339157311               0.000000000               0.043951105               0.362134838               0.000000000               0.047042587               0.385112365               0.000000000               0.050134070               0.408089892               0.000000000               0.053225552               0.431067419               0.000000000               0.056317035               0.454044946               0.000000000               0.059408517               0.477022473               0.000000000               0.062500000               0.500000000               0.000000000               0.000000000               0.133000000               0.000000000               0.000000000               0.155937500               0.000000000               0.000000000               0.178875000               0.000000000               0.000000000               0.201812500               0.000000000               0.000000000               0.224750000               0.000000000               0.000000000               0.247687500               0.000000000               0.000000000               0.270625000               0.000000000               0.000000000               0.293562500               0.000000000               0.000000000               0.316500000               0.000000000               0.000000000               0.339437500               0.000000000               0.000000000               0.362375000               0.000000000               0.000000000               0.385312500               0.000000000               0.000000000               0.408250000               0.000000000               0.000000000               0.431187500               0.000000000               0.000000000               0.454125000               0.000000000               0.000000000               0.477062500               0.000000000               0.000000000               0.500000000               0.000000000               0.133000000               0.000000000               0.000000000               0.155937500               0.000000000               0.000000000               0.178875000               0.000000000               0.000000000               0.201812500               0.000000000               0.000000000               0.224750000               0.000000000               0.000000000               0.247687500               0.000000000               0.000000000               0.270625000               0.000000000               0.000000000               0.293562500               0.000000000               0.000000000               0.316500000               0.000000000               0.000000000               0.339437500               0.000000000               0.000000000               0.362375000               0.000000000               0.000000000               0.385312500               0.000000000               0.000000000               0.408250000               0.000000000               0.000000000               0.431187500               0.000000000               0.000000000               0.454125000               0.000000000               0.000000000               0.477062500               0.000000000               0.000000000               0.500000000               0.000000000               0.000000000               0.132359569              -0.013036280               0.000000000               0.155337096              -0.016127762               0.000000000               0.178314623              -0.019219245               0.000000000               0.201292150              -0.022310727               0.000000000               0.224269676              -0.025402210               0.000000000               0.247247203              -0.028493692               0.000000000               0.270224730              -0.031585175               0.000000000               0.293202257              -0.034676657               0.000000000               0.316179784              -0.037768140               0.000000000               0.339157311              -0.040859622               0.000000000               0.362134838              -0.043951105               0.000000000               0.385112365              -0.047042587               0.000000000               0.408089892              -0.050134070               0.000000000               0.431067419              -0.053225552               0.000000000               0.454044946              -0.056317035               0.000000000               0.477022473              -0.059408517               0.000000000               0.500000000              -0.062500000               0.000000000               0.130444442              -0.025947013               0.000000000               0.153541665              -0.032137825               0.000000000               0.176638887              -0.038328636               0.000000000               0.199736109              -0.044519448               0.000000000               0.222833332              -0.050710260               0.000000000               0.245930554              -0.056901071               0.000000000               0.269027776              -0.063091883               0.000000000               0.292124999              -0.069282695               0.000000000               0.315222221              -0.075473506               0.000000000               0.338319444              -0.081664318               0.000000000               0.361416666              -0.087855130               0.000000000               0.384513888              -0.094045942               0.000000000               0.407611111              -0.100236753               0.000000000               0.430708333              -0.106427565               0.000000000               0.453805555              -0.112618377               0.000000000               0.476902778              -0.118809188               0.000000000               0.500000000              -0.125000000               0.000000000               0.127273065              -0.038607862               0.000000000               0.150568498              -0.047913621               0.000000000               0.173863932              -0.057219379               0.000000000               0.197159365              -0.066525138               0.000000000               0.220454798              -0.075830897               0.000000000               0.243750232              -0.085136655               0.000000000               0.267045665              -0.094442414               0.000000000               0.290341099              -0.103748172               0.000000000               0.313636532              -0.113053931               0.000000000               0.336931966              -0.122359690               0.000000000               0.360227399              -0.131665448               0.000000000               0.383522833              -0.140971207               0.000000000               0.406818266              -0.150276966               0.000000000               0.430113700              -0.159582724               0.000000000               0.453409133              -0.168888483               0.000000000               0.476704567              -0.178194241               0.000000000               0.500000000              -0.187500000               0.000000000               0.122875978              -0.050896897               0.000000000               0.146446229              -0.063340840               0.000000000               0.170016481              -0.075784784               0.000000000               0.193586732              -0.088228728               0.000000000               0.217156983              -0.100672672               0.000000000               0.240727235              -0.113116616               0.000000000               0.264297486              -0.125560560               0.000000000               0.287867738              -0.138004504               0.000000000               0.311437989              -0.150448448               0.000000000               0.335008240              -0.162892392               0.000000000               0.358578492              -0.175336336               0.000000000               0.382148743              -0.187780280               0.000000000               0.405718994              -0.200224224               0.000000000               0.429289246              -0.212668168               0.000000000               0.452859497              -0.225112112               0.000000000               0.476429749              -0.237556056               0.000000000               0.500000000              -0.250000000               0.000000000               0.117295528              -0.062695766               0.000000000               0.141214558              -0.078308531               0.000000000               0.165133587              -0.093921295               0.000000000               0.189052617              -0.109534060               0.000000000               0.212971646              -0.125146824               0.000000000               0.236890676              -0.140759589               0.000000000               0.260809705              -0.156372354               0.000000000               0.284728735              -0.171985118               0.000000000               0.308647764              -0.187597883               0.000000000               0.332566794              -0.203210648               0.000000000               0.356485823              -0.218823412               0.000000000               0.380404853              -0.234436177               0.000000000               0.404323882              -0.250048941               0.000000000               0.428242912              -0.265661706               0.000000000               0.452161941              -0.281274471               0.000000000               0.476080971              -0.296887235               0.000000000               0.500000000              -0.312500000               0.000000000               0.110585458              -0.073890841               0.000000000               0.134923867              -0.092710163               0.000000000               0.159262276              -0.111529486               0.000000000               0.183600685              -0.130348808               0.000000000               0.207939094              -0.149168131               0.000000000               0.232277503              -0.167987453               0.000000000               0.256615912              -0.186806776               0.000000000               0.280954320              -0.205626098               0.000000000               0.305292729              -0.224445420               0.000000000               0.329631138              -0.243264743               0.000000000               0.353969547              -0.262084065               0.000000000               0.378307956              -0.280903388               0.000000000               0.402646365              -0.299722710               0.000000000               0.426984773              -0.318542033               0.000000000               0.451323182              -0.337361355               0.000000000               0.475661591              -0.356180678               0.000000000               0.500000000              -0.375000000               0.000000000               0.102810390              -0.084374307               0.000000000               0.127634741              -0.106444663               0.000000000               0.152459092              -0.128515018               0.000000000               0.177283442              -0.150585374               0.000000000               0.202107793              -0.172655730               0.000000000               0.226932143              -0.194726086               0.000000000               0.251756494              -0.216796442               0.000000000               0.276580845              -0.238866798               0.000000000               0.301405195              -0.260937153               0.000000000               0.326229546              -0.283007509               0.000000000               0.351053896              -0.305077865               0.000000000               0.375878247              -0.327148221               0.000000000               0.400702598              -0.349218577               0.000000000               0.425526948              -0.371288933               0.000000000               0.450351299              -0.393359288               0.000000000               0.475175649              -0.415429644               0.000000000               0.500000000              -0.437500000               0.000000000               0.094045202              -0.094045202               0.000000000               0.119417377              -0.119417377               0.000000000               0.144789552              -0.144789552               0.000000000               0.170161727              -0.170161727               0.000000000               0.195533901              -0.195533901               0.000000000               0.220906076              -0.220906076               0.000000000               0.246278251              -0.246278251               0.000000000               0.271650426              -0.271650426               0.000000000               0.297022601              -0.297022601               0.000000000               0.322394776              -0.322394776               0.000000000               0.347766951              -0.347766951               0.000000000               0.373139126              -0.373139126               0.000000000               0.398511300              -0.398511300               0.000000000               0.423883475              -0.423883475               0.000000000               0.449255650              -0.449255650               0.000000000               0.474627825              -0.474627825               0.000000000               0.500000000              -0.500000000               0.000000000               0.084374307              -0.102810390               0.000000000               0.106444663              -0.127634741               0.000000000               0.128515018              -0.152459092               0.000000000               0.150585374              -0.177283442               0.000000000               0.172655730              -0.202107793               0.000000000               0.194726086              -0.226932143               0.000000000               0.216796442              -0.251756494               0.000000000               0.238866798              -0.276580845               0.000000000               0.260937153              -0.301405195               0.000000000               0.283007509              -0.326229546               0.000000000               0.305077865              -0.351053896               0.000000000               0.327148221              -0.375878247               0.000000000               0.349218577              -0.400702598               0.000000000               0.371288933              -0.425526948               0.000000000               0.393359288              -0.450351299               0.000000000               0.415429644              -0.475175649               0.000000000               0.437500000              -0.500000000               0.000000000               0.073890841              -0.110585458               0.000000000               0.092710163              -0.134923867               0.000000000               0.111529486              -0.159262276               0.000000000               0.130348808              -0.183600685               0.000000000               0.149168131              -0.207939094               0.000000000               0.167987453              -0.232277503               0.000000000               0.186806776              -0.256615912               0.000000000               0.205626098              -0.280954320               0.000000000               0.224445420              -0.305292729               0.000000000               0.243264743              -0.329631138               0.000000000               0.262084065              -0.353969547               0.000000000               0.280903388              -0.378307956               0.000000000               0.299722710              -0.402646365               0.000000000               0.318542033              -0.426984773               0.000000000               0.337361355              -0.451323182               0.000000000               0.356180678              -0.475661591               0.000000000               0.375000000              -0.500000000               0.000000000               0.062695766              -0.117295528               0.000000000               0.078308531              -0.141214558               0.000000000               0.093921295              -0.165133587               0.000000000               0.109534060              -0.189052617               0.000000000               0.125146824              -0.212971646               0.000000000               0.140759589              -0.236890676               0.000000000               0.156372354              -0.260809705               0.000000000               0.171985118              -0.284728735               0.000000000               0.187597883              -0.308647764               0.000000000               0.203210648              -0.332566794               0.000000000               0.218823412              -0.356485823               0.000000000               0.234436177              -0.380404853               0.000000000               0.250048941              -0.404323882               0.000000000               0.265661706              -0.428242912               0.000000000               0.281274471              -0.452161941               0.000000000               0.296887235              -0.476080971               0.000000000               0.312500000              -0.500000000               0.000000000               0.050896897              -0.122875978               0.000000000               0.063340840              -0.146446229               0.000000000               0.075784784              -0.170016481               0.000000000               0.088228728              -0.193586732               0.000000000               0.100672672              -0.217156983               0.000000000               0.113116616              -0.240727235               0.000000000               0.125560560              -0.264297486               0.000000000               0.138004504              -0.287867738               0.000000000               0.150448448              -0.311437989               0.000000000               0.162892392              -0.335008240               0.000000000               0.175336336              -0.358578492               0.000000000               0.187780280              -0.382148743               0.000000000               0.200224224              -0.405718994               0.000000000               0.212668168              -0.429289246               0.000000000               0.225112112              -0.452859497               0.000000000               0.237556056              -0.476429749               0.000000000               0.250000000              -0.500000000               0.000000000               0.038607862              -0.127273065               0.000000000               0.047913621              -0.150568498               0.000000000               0.057219379              -0.173863932               0.000000000               0.066525138              -0.197159365               0.000000000               0.075830897              -0.220454798               0.000000000               0.085136655              -0.243750232               0.000000000               0.094442414              -0.267045665               0.000000000               0.103748172              -0.290341099               0.000000000               0.113053931              -0.313636532               0.000000000               0.122359690              -0.336931966               0.000000000               0.131665448              -0.360227399               0.000000000               0.140971207              -0.383522833               0.000000000               0.150276966              -0.406818266               0.000000000               0.159582724              -0.430113700               0.000000000               0.168888483              -0.453409133               0.000000000               0.178194241              -0.476704567               0.000000000               0.187500000              -0.500000000               0.000000000               0.025947013              -0.130444442               0.000000000               0.032137825              -0.153541665               0.000000000               0.038328636              -0.176638887               0.000000000               0.044519448              -0.199736109               0.000000000               0.050710260              -0.222833332               0.000000000               0.056901071              -0.245930554               0.000000000               0.063091883              -0.269027776               0.000000000               0.069282695              -0.292124999               0.000000000               0.075473506              -0.315222221               0.000000000               0.081664318              -0.338319444               0.000000000               0.087855130              -0.361416666               0.000000000               0.094045942              -0.384513888               0.000000000               0.100236753              -0.407611111               0.000000000               0.106427565              -0.430708333               0.000000000               0.112618377              -0.453805555               0.000000000               0.118809188              -0.476902778               0.000000000               0.125000000              -0.500000000               0.000000000               0.013036280              -0.132359569               0.000000000               0.016127762              -0.155337096               0.000000000               0.019219245              -0.178314623               0.000000000               0.022310727              -0.201292150               0.000000000               0.025402210              -0.224269676               0.000000000               0.028493692              -0.247247203               0.000000000               0.031585175              -0.270224730               0.000000000               0.034676657              -0.293202257               0.000000000               0.037768140              -0.316179784               0.000000000               0.040859622              -0.339157311               0.000000000               0.043951105              -0.362134838               0.000000000               0.047042587              -0.385112365               0.000000000               0.050134070              -0.408089892               0.000000000               0.053225552              -0.431067419               0.000000000               0.056317035              -0.454044946               0.000000000               0.059408517              -0.477022473               0.000000000               0.062500000              -0.500000000               0.000000000               0.000000000              -0.133000000               0.000000000               0.000000000              -0.155937500               0.000000000               0.000000000              -0.178875000               0.000000000               0.000000000              -0.201812500               0.000000000               0.000000000              -0.224750000               0.000000000               0.000000000              -0.247687500               0.000000000               0.000000000              -0.270625000               0.000000000               0.000000000              -0.293562500               0.000000000               0.000000000              -0.316500000               0.000000000               0.000000000              -0.339437500               0.000000000               0.000000000              -0.362375000               0.000000000               0.000000000              -0.385312500               0.000000000               0.000000000              -0.408250000               0.000000000               0.000000000              -0.431187500               0.000000000               0.000000000              -0.454125000               0.000000000               0.000000000              -0.477062500               0.000000000               0.000000000              -0.500000000               0.000000000              -0.133000000               0.000000000               0.000000000              -0.155937500               0.000000000               0.000000000              -0.178875000               0.000000000               0.000000000              -0.201812500               0.000000000               0.000000000              -0.224750000               0.000000000               0.000000000              -0.247687500               0.000000000               0.000000000              -0.270625000               0.000000000               0.000000000              -0.293562500               0.000000000               0.000000000              -0.316500000               0.000000000               0.000000000              -0.339437500               0.000000000               0.000000000              -0.362375000               0.000000000               0.000000000              -0.385312500               0.000000000               0.000000000              -0.408250000               0.000000000               0.000000000              -0.431187500               0.000000000               0.000000000              -0.454125000               0.000000000               0.000000000              -0.477062500               0.000000000               0.000000000              -0.500000000               0.000000000               0.000000000              -0.132359569              -0.013036280               0.000000000              -0.155337096              -0.016127762               0.000000000              -0.178314623              -0.019219245               0.000000000              -0.201292150              -0.022310727               0.000000000              -0.224269676              -0.025402210               0.000000000              -0.247247203              -0.028493692               0.000000000              -0.270224730              -0.031585175               0.000000000              -0.293202257              -0.034676657               0.000000000              -0.316179784              -0.037768140               0.000000000              -0.339157311              -0.040859622               0.000000000              -0.362134838              -0.043951105               0.000000000              -0.385112365              -0.047042587               0.000000000              -0.408089892              -0.050134070               0.000000000              -0.431067419              -0.053225552               0.000000000              -0.454044946              -0.056317035               0.000000000              -0.477022473              -0.059408517               0.000000000              -0.500000000              -0.062500000               0.000000000              -0.130444442              -0.025947013               0.000000000              -0.153541665              -0.032137825               0.000000000              -0.176638887              -0.038328636               0.000000000              -0.199736109              -0.044519448               0.000000000              -0.222833332              -0.050710260               0.000000000              -0.245930554              -0.056901071               0.000000000              -0.269027776              -0.063091883               0.000000000              -0.292124999              -0.069282695               0.000000000              -0.315222221              -0.075473506               0.000000000              -0.338319444              -0.081664318               0.000000000              -0.361416666              -0.087855130               0.000000000              -0.384513888              -0.094045942               0.000000000              -0.407611111              -0.100236753               0.000000000              -0.430708333              -0.106427565               0.000000000              -0.453805555              -0.112618377               0.000000000              -0.476902778              -0.118809188               0.000000000              -0.500000000              -0.125000000               0.000000000              -0.127273065              -0.038607862               0.000000000              -0.150568498              -0.047913621               0.000000000              -0.173863932              -0.057219379               0.000000000              -0.197159365              -0.066525138               0.000000000              -0.220454798              -0.075830897               0.000000000              -0.243750232              -0.085136655               0.000000000              -0.267045665              -0.094442414               0.000000000              -0.290341099              -0.103748172               0.000000000              -0.313636532              -0.113053931               0.000000000              -0.336931966              -0.122359690               0.000000000              -0.360227399              -0.131665448               0.000000000              -0.383522833              -0.140971207               0.000000000              -0.406818266              -0.150276966               0.000000000              -0.430113700              -0.159582724               0.000000000              -0.453409133              -0.168888483               0.000000000              -0.476704567              -0.178194241               0.000000000              -0.500000000              -0.187500000               0.000000000              -0.122875978              -0.050896897               0.000000000              -0.146446229              -0.063340840               0.000000000              -0.170016481              -0.075784784               0.000000000              -0.193586732              -0.088228728               0.000000000              -0.217156983              -0.100672672               0.000000000              -0.240727235              -0.113116616               0.000000000              -0.264297486              -0.125560560               0.000000000              -0.287867738              -0.138004504               0.000000000              -0.311437989              -0.150448448               0.000000000              -0.335008240              -0.162892392               0.000000000              -0.358578492              -0.175336336               0.000000000              -0.382148743              -0.187780280               0.000000000              -0.405718994              -0.200224224               0.000000000              -0.429289246              -0.212668168               0.000000000              -0.452859497              -0.225112112               0.000000000              -0.476429749              -0.237556056               0.000000000              -0.500000000              -0.250000000               0.000000000              -0.117295528              -0.062695766               0.000000000              -0.141214558              -0.078308531               0.000000000              -0.165133587              -0.093921295               0.000000000              -0.189052617              -0.109534060               0.000000000              -0.212971646              -0.125146824               0.000000000              -0.236890676              -0.140759589               0.000000000              -0.260809705              -0.156372354               0.000000000              -0.284728735              -0.171985118               0.000000000              -0.308647764              -0.187597883               0.000000000              -0.332566794              -0.203210648               0.000000000              -0.356485823              -0.218823412               0.000000000              -0.380404853              -0.234436177               0.000000000              -0.404323882              -0.250048941               0.000000000              -0.428242912              -0.265661706               0.000000000              -0.452161941              -0.281274471               0.000000000              -0.476080971              -0.296887235               0.000000000              -0.500000000              -0.312500000               0.000000000              -0.110585458              -0.073890841               0.000000000              -0.134923867              -0.092710163               0.000000000              -0.159262276              -0.111529486               0.000000000              -0.183600685              -0.130348808               0.000000000              -0.207939094              -0.149168131               0.000000000              -0.232277503              -0.167987453               0.000000000              -0.256615912              -0.186806776               0.000000000              -0.280954320              -0.205626098               0.000000000              -0.305292729              -0.224445420               0.000000000              -0.329631138              -0.243264743               0.000000000              -0.353969547              -0.262084065               0.000000000              -0.378307956              -0.280903388               0.000000000              -0.402646365              -0.299722710               0.000000000              -0.426984773              -0.318542033               0.000000000              -0.451323182              -0.337361355               0.000000000              -0.475661591              -0.356180678               0.000000000              -0.500000000              -0.375000000               0.000000000              -0.102810390              -0.084374307               0.000000000              -0.127634741              -0.106444663               0.000000000              -0.152459092              -0.128515018               0.000000000              -0.177283442              -0.150585374               0.000000000              -0.202107793              -0.172655730               0.000000000              -0.226932143              -0.194726086               0.000000000              -0.251756494              -0.216796442               0.000000000              -0.276580845              -0.238866798               0.000000000              -0.301405195              -0.260937153               0.000000000              -0.326229546              -0.283007509               0.000000000              -0.351053896              -0.305077865               0.000000000              -0.375878247              -0.327148221               0.000000000              -0.400702598              -0.349218577               0.000000000              -0.425526948              -0.371288933               0.000000000              -0.450351299              -0.393359288               0.000000000              -0.475175649              -0.415429644               0.000000000              -0.500000000              -0.437500000               0.000000000              -0.094045202              -0.094045202               0.000000000              -0.119417377              -0.119417377               0.000000000              -0.144789552              -0.144789552               0.000000000              -0.170161727              -0.170161727               0.000000000              -0.195533901              -0.195533901               0.000000000              -0.220906076              -0.220906076               0.000000000              -0.246278251              -0.246278251               0.000000000              -0.271650426              -0.271650426               0.000000000              -0.297022601              -0.297022601               0.000000000              -0.322394776              -0.322394776               0.000000000              -0.347766951              -0.347766951               0.000000000              -0.373139126              -0.373139126               0.000000000              -0.398511300              -0.398511300               0.000000000              -0.423883475              -0.423883475               0.000000000              -0.449255650              -0.449255650               0.000000000              -0.474627825              -0.474627825               0.000000000              -0.500000000              -0.500000000               0.000000000              -0.084374307              -0.102810390               0.000000000              -0.106444663              -0.127634741               0.000000000              -0.128515018              -0.152459092               0.000000000              -0.150585374              -0.177283442               0.000000000              -0.172655730              -0.202107793               0.000000000              -0.194726086              -0.226932143               0.000000000              -0.216796442              -0.251756494               0.000000000              -0.238866798              -0.276580845               0.000000000              -0.260937153              -0.301405195               0.000000000              -0.283007509              -0.326229546               0.000000000              -0.305077865              -0.351053896               0.000000000              -0.327148221              -0.375878247               0.000000000              -0.349218577              -0.400702598               0.000000000              -0.371288933              -0.425526948               0.000000000              -0.393359288              -0.450351299               0.000000000              -0.415429644              -0.475175649               0.000000000              -0.437500000              -0.500000000               0.000000000              -0.073890841              -0.110585458               0.000000000              -0.092710163              -0.134923867               0.000000000              -0.111529486              -0.159262276               0.000000000              -0.130348808              -0.183600685               0.000000000              -0.149168131              -0.207939094               0.000000000              -0.167987453              -0.232277503               0.000000000              -0.186806776              -0.256615912               0.000000000              -0.205626098              -0.280954320               0.000000000              -0.224445420              -0.305292729               0.000000000              -0.243264743              -0.329631138               0.000000000              -0.262084065              -0.353969547               0.000000000              -0.280903388              -0.378307956               0.000000000              -0.299722710              -0.402646365               0.000000000              -0.318542033              -0.426984773               0.000000000              -0.337361355              -0.451323182               0.000000000              -0.356180678              -0.475661591               0.000000000              -0.375000000              -0.500000000               0.000000000              -0.062695766              -0.117295528               0.000000000              -0.078308531              -0.141214558               0.000000000              -0.093921295              -0.165133587               0.000000000              -0.109534060              -0.189052617               0.000000000              -0.125146824              -0.212971646               0.000000000              -0.140759589              -0.236890676               0.000000000              -0.156372354              -0.260809705               0.000000000              -0.171985118              -0.284728735               0.000000000              -0.187597883              -0.308647764               0.000000000              -0.203210648              -0.332566794               0.000000000              -0.218823412              -0.356485823               0.000000000              -0.234436177              -0.380404853               0.000000000              -0.250048941              -0.404323882               0.000000000              -0.265661706              -0.428242912               0.000000000              -0.281274471              -0.452161941               0.000000000              -0.296887235              -0.476080971               0.000000000              -0.312500000              -0.500000000               0.000000000              -0.050896897              -0.122875978               0.000000000              -0.063340840              -0.146446229               0.000000000              -0.075784784              -0.170016481               0.000000000              -0.088228728              -0.193586732               0.000000000              -0.100672672              -0.217156983               0.000000000              -0.113116616              -0.240727235               0.000000000              -0.125560560              -0.264297486               0.000000000              -0.138004504              -0.287867738               0.000000000              -0.150448448              -0.311437989               0.000000000              -0.162892392              -0.335008240               0.000000000              -0.175336336              -0.358578492               0.000000000              -0.187780280              -0.382148743               0.000000000              -0.200224224              -0.405718994               0.000000000              -0.212668168              -0.429289246               0.000000000              -0.225112112              -0.452859497               0.000000000              -0.237556056              -0.476429749               0.000000000              -0.250000000              -0.500000000               0.000000000              -0.038607862              -0.127273065               0.000000000              -0.047913621              -0.150568498               0.000000000              -0.057219379              -0.173863932               0.000000000              -0.066525138              -0.197159365               0.000000000              -0.075830897              -0.220454798               0.000000000              -0.085136655              -0.243750232               0.000000000              -0.094442414              -0.267045665               0.000000000              -0.103748172              -0.290341099               0.000000000              -0.113053931              -0.313636532               0.000000000              -0.122359690              -0.336931966               0.000000000              -0.131665448              -0.360227399               0.000000000              -0.140971207              -0.383522833               0.000000000              -0.150276966              -0.406818266               0.000000000              -0.159582724              -0.430113700               0.000000000              -0.168888483              -0.453409133               0.000000000              -0.178194241              -0.476704567               0.000000000              -0.187500000              -0.500000000               0.000000000              -0.025947013              -0.130444442               0.000000000              -0.032137825              -0.153541665               0.000000000              -0.038328636              -0.176638887               0.000000000              -0.044519448              -0.199736109               0.000000000              -0.050710260              -0.222833332               0.000000000              -0.056901071              -0.245930554               0.000000000              -0.063091883              -0.269027776               0.000000000              -0.069282695              -0.292124999               0.000000000              -0.075473506              -0.315222221               0.000000000              -0.081664318              -0.338319444               0.000000000              -0.087855130              -0.361416666               0.000000000              -0.094045942              -0.384513888               0.000000000              -0.100236753              -0.407611111               0.000000000              -0.106427565              -0.430708333               0.000000000              -0.112618377              -0.453805555               0.000000000              -0.118809188              -0.476902778               0.000000000              -0.125000000              -0.500000000               0.000000000              -0.013036280              -0.132359569               0.000000000              -0.016127762              -0.155337096               0.000000000              -0.019219245              -0.178314623               0.000000000              -0.022310727              -0.201292150               0.000000000              -0.025402210              -0.224269676               0.000000000              -0.028493692              -0.247247203               0.000000000              -0.031585175              -0.270224730               0.000000000              -0.034676657              -0.293202257               0.000000000              -0.037768140              -0.316179784               0.000000000              -0.040859622              -0.339157311               0.000000000              -0.043951105              -0.362134838               0.000000000              -0.047042587              -0.385112365               0.000000000              -0.050134070              -0.408089892               0.000000000              -0.053225552              -0.431067419               0.000000000              -0.056317035              -0.454044946               0.000000000              -0.059408517              -0.477022473               0.000000000              -0.062500000              -0.500000000               0.000000000               0.000000000              -0.133000000               0.000000000               0.000000000              -0.155937500               0.000000000               0.000000000              -0.178875000               0.000000000               0.000000000              -0.201812500               0.000000000               0.000000000              -0.224750000               0.000000000               0.000000000              -0.247687500               0.000000000               0.000000000              -0.270625000               0.000000000               0.000000000              -0.293562500               0.000000000               0.000000000              -0.316500000               0.000000000               0.000000000              -0.339437500               0.000000000               0.000000000              -0.362375000               0.000000000               0.000000000              -0.385312500               0.000000000               0.000000000              -0.408250000               0.000000000               0.000000000              -0.431187500               0.000000000               0.000000000              -0.454125000               0.000000000               0.000000000              -0.477062500               0.000000000               0.000000000              -0.500000000               0.000000000              -0.133000000               0.000000000               0.000000000              -0.155937500               0.000000000               0.000000000              -0.178875000               0.000000000               0.000000000              -0.201812500               0.000000000               0.000000000              -0.224750000               0.000000000               0.000000000              -0.247687500               0.000000000               0.000000000              -0.270625000               0.000000000               0.000000000              -0.293562500               0.000000000               0.000000000              -0.316500000               0.000000000               0.000000000              -0.339437500               0.000000000               0.000000000              -0.362375000               0.000000000               0.000000000              -0.385312500               0.000000000               0.000000000              -0.408250000               0.000000000               0.000000000              -0.431187500               0.000000000               0.000000000              -0.454125000               0.000000000               0.000000000              -0.477062500               0.000000000               0.000000000              -0.500000000               0.000000000               0.000000000              -0.132359569               0.013036280               0.000000000              -0.155337096               0.016127762               0.000000000              -0.178314623               0.019219245               0.000000000              -0.201292150               0.022310727               0.000000000              -0.224269676               0.025402210               0.000000000              -0.247247203               0.028493692               0.000000000              -0.270224730               0.031585175               0.000000000              -0.293202257               0.034676657               0.000000000              -0.316179784               0.037768140               0.000000000              -0.339157311               0.040859622               0.000000000              -0.362134838               0.043951105               0.000000000              -0.385112365               0.047042587               0.000000000              -0.408089892               0.050134070               0.000000000              -0.431067419               0.053225552               0.000000000              -0.454044946               0.056317035               0.000000000              -0.477022473               0.059408517               0.000000000              -0.500000000               0.062500000               0.000000000              -0.130444442               0.025947013               0.000000000              -0.153541665               0.032137825               0.000000000              -0.176638887               0.038328636               0.000000000              -0.199736109               0.044519448               0.000000000              -0.222833332               0.050710260               0.000000000              -0.245930554               0.056901071               0.000000000              -0.269027776               0.063091883               0.000000000              -0.292124999               0.069282695               0.000000000              -0.315222221               0.075473506               0.000000000              -0.338319444               0.081664318               0.000000000              -0.361416666               0.087855130               0.000000000              -0.384513888               0.094045942               0.000000000              -0.407611111               0.100236753               0.000000000              -0.430708333               0.106427565               0.000000000              -0.453805555               0.112618377               0.000000000              -0.476902778               0.118809188               0.000000000              -0.500000000               0.125000000               0.000000000              -0.127273065               0.038607862               0.000000000              -0.150568498               0.047913621               0.000000000              -0.173863932               0.057219379               0.000000000              -0.197159365               0.066525138               0.000000000              -0.220454798               0.075830897               0.000000000              -0.243750232               0.085136655               0.000000000              -0.267045665               0.094442414               0.000000000              -0.290341099               0.103748172               0.000000000              -0.313636532               0.113053931               0.000000000              -0.336931966               0.122359690               0.000000000              -0.360227399               0.131665448               0.000000000              -0.383522833               0.140971207               0.000000000              -0.406818266               0.150276966               0.000000000              -0.430113700               0.159582724               0.000000000              -0.453409133               0.168888483               0.000000000              -0.476704567               0.178194241               0.000000000              -0.500000000               0.187500000               0.000000000              -0.122875978               0.050896897               0.000000000              -0.146446229               0.063340840               0.000000000              -0.170016481               0.075784784               0.000000000              -0.193586732               0.088228728               0.000000000              -0.217156983               0.100672672               0.000000000              -0.240727235               0.113116616               0.000000000              -0.264297486               0.125560560               0.000000000              -0.287867738               0.138004504               0.000000000              -0.311437989               0.150448448               0.000000000              -0.335008240               0.162892392               0.000000000              -0.358578492               0.175336336               0.000000000              -0.382148743               0.187780280               0.000000000              -0.405718994               0.200224224               0.000000000              -0.429289246               0.212668168               0.000000000              -0.452859497               0.225112112               0.000000000              -0.476429749               0.237556056               0.000000000              -0.500000000               0.250000000               0.000000000              -0.117295528               0.062695766               0.000000000              -0.141214558               0.078308531               0.000000000              -0.165133587               0.093921295               0.000000000              -0.189052617               0.109534060               0.000000000              -0.212971646               0.125146824               0.000000000              -0.236890676               0.140759589               0.000000000              -0.260809705               0.156372354               0.000000000              -0.284728735               0.171985118               0.000000000              -0.308647764               0.187597883               0.000000000              -0.332566794               0.203210648               0.000000000              -0.356485823               0.218823412               0.000000000              -0.380404853               0.234436177               0.000000000              -0.404323882               0.250048941               0.000000000              -0.428242912               0.265661706               0.000000000              -0.452161941               0.281274471               0.000000000              -0.476080971               0.296887235               0.000000000              -0.500000000               0.312500000               0.000000000              -0.110585458               0.073890841               0.000000000              -0.134923867               0.092710163               0.000000000              -0.159262276               0.111529486               0.000000000              -0.183600685               0.130348808               0.000000000              -0.207939094               0.149168131               0.000000000              -0.232277503               0.167987453               0.000000000              -0.256615912               0.186806776               0.000000000              -0.280954320               0.205626098               0.000000000              -0.305292729               0.224445420               0.000000000              -0.329631138               0.243264743               0.000000000              -0.353969547               0.262084065               0.000000000              -0.378307956               0.280903388               0.000000000              -0.402646365               0.299722710               0.000000000              -0.426984773               0.318542033               0.000000000              -0.451323182               0.337361355               0.000000000              -0.475661591               0.356180678               0.000000000              -0.500000000               0.375000000               0.000000000              -0.102810390               0.084374307               0.000000000              -0.127634741               0.106444663               0.000000000              -0.152459092               0.128515018               0.000000000              -0.177283442               0.150585374               0.000000000              -0.202107793               0.172655730               0.000000000              -0.226932143               0.194726086               0.000000000              -0.251756494               0.216796442               0.000000000              -0.276580845               0.238866798               0.000000000              -0.301405195               0.260937153               0.000000000              -0.326229546               0.283007509               0.000000000              -0.351053896               0.305077865               0.000000000              -0.375878247               0.327148221               0.000000000              -0.400702598               0.349218577               0.000000000              -0.425526948               0.371288933               0.000000000              -0.450351299               0.393359288               0.000000000              -0.475175649               0.415429644               0.000000000              -0.500000000               0.437500000               0.000000000              -0.094045202               0.094045202               0.000000000              -0.119417377               0.119417377               0.000000000              -0.144789552               0.144789552               0.000000000              -0.170161727               0.170161727               0.000000000              -0.195533901               0.195533901               0.000000000              -0.220906076               0.220906076               0.000000000              -0.246278251               0.246278251               0.000000000              -0.271650426               0.271650426               0.000000000              -0.297022601               0.297022601               0.000000000              -0.322394776               0.322394776               0.000000000              -0.347766951               0.347766951               0.000000000              -0.373139126               0.373139126               0.000000000              -0.398511300               0.398511300               0.000000000              -0.423883475               0.423883475               0.000000000              -0.449255650               0.449255650               0.000000000              -0.474627825               0.474627825               0.000000000              -0.500000000               0.500000000               0.000000000              -0.084374307               0.102810390               0.000000000              -0.106444663               0.127634741               0.000000000              -0.128515018               0.152459092               0.000000000              -0.150585374               0.177283442               0.000000000              -0.172655730               0.202107793               0.000000000              -0.194726086               0.226932143               0.000000000              -0.216796442               0.251756494               0.000000000              -0.238866798               0.276580845               0.000000000              -0.260937153               0.301405195               0.000000000              -0.283007509               0.326229546               0.000000000              -0.305077865               0.351053896               0.000000000              -0.327148221               0.375878247               0.000000000              -0.349218577               0.400702598               0.000000000              -0.371288933               0.425526948               0.000000000              -0.393359288               0.450351299               0.000000000              -0.415429644               0.475175649               0.000000000              -0.437500000               0.500000000               0.000000000              -0.073890841               0.110585458               0.000000000              -0.092710163               0.134923867               0.000000000              -0.111529486               0.159262276               0.000000000              -0.130348808               0.183600685               0.000000000              -0.149168131               0.207939094               0.000000000              -0.167987453               0.232277503               0.000000000              -0.186806776               0.256615912               0.000000000              -0.205626098               0.280954320               0.000000000              -0.224445420               0.305292729               0.000000000              -0.243264743               0.329631138               0.000000000              -0.262084065               0.353969547               0.000000000              -0.280903388               0.378307956               0.000000000              -0.299722710               0.402646365               0.000000000              -0.318542033               0.426984773               0.000000000              -0.337361355               0.451323182               0.000000000              -0.356180678               0.475661591               0.000000000              -0.375000000               0.500000000               0.000000000              -0.062695766               0.117295528               0.000000000              -0.078308531               0.141214558               0.000000000              -0.093921295               0.165133587               0.000000000              -0.109534060               0.189052617               0.000000000              -0.125146824               0.212971646               0.000000000              -0.140759589               0.236890676               0.000000000              -0.156372354               0.260809705               0.000000000              -0.171985118               0.284728735               0.000000000              -0.187597883               0.308647764               0.000000000              -0.203210648               0.332566794               0.000000000              -0.218823412               0.356485823               0.000000000              -0.234436177               0.380404853               0.000000000              -0.250048941               0.404323882               0.000000000              -0.265661706               0.428242912               0.000000000              -0.281274471               0.452161941               0.000000000              -0.296887235               0.476080971               0.000000000              -0.312500000               0.500000000               0.000000000              -0.050896897               0.122875978               0.000000000              -0.063340840               0.146446229               0.000000000              -0.075784784               0.170016481               0.000000000              -0.088228728               0.193586732               0.000000000              -0.100672672               0.217156983               0.000000000              -0.113116616               0.240727235               0.000000000              -0.125560560               0.264297486               0.000000000              -0.138004504               0.287867738               0.000000000              -0.150448448               0.311437989               0.000000000              -0.162892392               0.335008240               0.000000000              -0.175336336               0.358578492               0.000000000              -0.187780280               0.382148743               0.000000000              -0.200224224               0.405718994               0.000000000              -0.212668168               0.429289246               0.000000000              -0.225112112               0.452859497               0.000000000              -0.237556056               0.476429749               0.000000000              -0.250000000               0.500000000               0.000000000              -0.038607862               0.127273065               0.000000000              -0.047913621               0.150568498               0.000000000              -0.057219379               0.173863932               0.000000000              -0.066525138               0.197159365               0.000000000              -0.075830897               0.220454798               0.000000000              -0.085136655               0.243750232               0.000000000              -0.094442414               0.267045665               0.000000000              -0.103748172               0.290341099               0.000000000              -0.113053931               0.313636532               0.000000000              -0.122359690               0.336931966               0.000000000              -0.131665448               0.360227399               0.000000000              -0.140971207               0.383522833               0.000000000              -0.150276966               0.406818266               0.000000000              -0.159582724               0.430113700               0.000000000              -0.168888483               0.453409133               0.000000000              -0.178194241               0.476704567               0.000000000              -0.187500000               0.500000000               0.000000000              -0.025947013               0.130444442               0.000000000              -0.032137825               0.153541665               0.000000000              -0.038328636               0.176638887               0.000000000              -0.044519448               0.199736109               0.000000000              -0.050710260               0.222833332               0.000000000              -0.056901071               0.245930554               0.000000000              -0.063091883               0.269027776               0.000000000              -0.069282695               0.292124999               0.000000000              -0.075473506               0.315222221               0.000000000              -0.081664318               0.338319444               0.000000000              -0.087855130               0.361416666               0.000000000              -0.094045942               0.384513888               0.000000000              -0.100236753               0.407611111               0.000000000              -0.106427565               0.430708333               0.000000000              -0.112618377               0.453805555               0.000000000              -0.118809188               0.476902778               0.000000000              -0.125000000               0.500000000               0.000000000              -0.013036280               0.132359569               0.000000000              -0.016127762               0.155337096               0.000000000              -0.019219245               0.178314623               0.000000000              -0.022310727               0.201292150               0.000000000              -0.025402210               0.224269676               0.000000000              -0.028493692               0.247247203               0.000000000              -0.031585175               0.270224730               0.000000000              -0.034676657               0.293202257               0.000000000              -0.037768140               0.316179784               0.000000000              -0.040859622               0.339157311               0.000000000              -0.043951105               0.362134838               0.000000000              -0.047042587               0.385112365               0.000000000              -0.050134070               0.408089892               0.000000000              -0.053225552               0.431067419               0.000000000              -0.056317035               0.454044946               0.000000000              -0.059408517               0.477022473               0.000000000              -0.062500000               0.500000000               0.000000000               0.000000000               0.133000000               0.000000000               0.000000000               0.155937500               0.000000000               0.000000000               0.178875000               0.000000000               0.000000000               0.201812500               0.000000000               0.000000000               0.224750000               0.000000000               0.000000000               0.247687500               0.000000000               0.000000000               0.270625000               0.000000000               0.000000000               0.293562500               0.000000000               0.000000000               0.316500000               0.000000000               0.000000000               0.339437500               0.000000000               0.000000000               0.362375000               0.000000000               0.000000000               0.385312500               0.000000000               0.000000000               0.408250000               0.000000000               0.000000000               0.431187500               0.000000000               0.000000000               0.454125000               0.000000000               0.000000000               0.477062500               0.000000000               0.000000000               0.500000000               0.000000000 </DataArray>
</Points>
<Cells>
<DataArray type="Int32"                                    Name="connectivity"                                                      NumberOfComponents=" 1" format="ascii">
         0          1         18         17          1          2         19         18          2          3         20         19          3          4         21         20          4          5         22         21          5          6         23         22          6          7         24         23          7          8         25         24          8          9         26         25          9         10         27         26         10         11         28         27         11         12         29         28         12         13         30         29         13         14         31         30         14         15         32         31         15         16         33         32         17         18         35         34         18         19         36         35         19         20         37         36         20         21         38         37         21         22         39         38         22         23         40         39         23         24         41         40         24         25         42         41         25         26         43         42         26         27         44         43         27         28         45         44         28         29         46         45         29         30         47         46         30         31         48         47         31         32         49         48         32         33         50         49         34         35         52         51         35         36         53         52         36         37         54         53         37         38         55         54         38         39         56         55         39         40         57         56         40         41         58         57         41         42         59         58         42         43         60         59         43         44         61         60         44         45         62         61         45         46         63         62         46         47         64         63         47         48         65         64         48         49         66         65         49         50         67         66         51         52         69         68         52         53         70         69         53         54         71         70         54         55         72         71         55         56         73         72         56         57         74         73         57         58         75         74         58         59         76         75         59         60         77         76         60         61         78         77         61         62         79         78         62         63         80         79         63         64         81         80         64         65         82         81         65         66         83         82         66         67         84         83         68         69         86         85         69         70         87         86         70         71         88         87         71         72         89         88         72         73         90         89         73         74         91         90         74         75         92         91         75         76         93         92         76         77         94         93         77         78         95         94         78         79         96         95         79         80         97         96         80         81         98         97         81         82         99         98         82         83        100         99         83         84        101        100         85         86        103        102         86         87        104        103         87         88        105        104         88         89        106        105         89         90        107        106         90         91        108        107         91         92        109        108         92         93        110        109         93         94        111        110         94         95        112        111         95         96        113        112         96         97        114        113         97         98        115        114         98         99        116        115         99        100        117        116        100        101        118        117        102        103        120        119        103        104        121        120        104        105        122        121        105        106        123        122        106        107        124        123        107        108        125        124        108        109        126        125        109        110        127        126        110        111        128        127        111        112        129        128        112        113        130        129        113        114        131        130        114        115        132        131        115        116        133        132        116        117        134        133        117        118        135        134        119        120        137        136        120        121        138        137        121        122        139        138        122        123        140        139        123        124        141        140        124        125        142        141        125        126        143        142        126        127        144        143        127        128        145        144        128        129        146        145        129        130        147        146        130        131        148        147        131        132        149        148        132        133        150        149        133        134        151        150        134        135        152        151        136        137        154        153        137        138        155        154        138        139        156        155        139        140        157        156        140        141        158        157        141        142        159        158        142        143        160        159        143        144        161        160        144        145        162        161        145        146        163        162        146        147        164        163        147        148        165        164        148        149        166        165        149        150        167        166        150        151        168        167        151        152        169        168        153        154        171        170        154        155        172        171        155        156        173        172        156        157        174        173        157        158        175        174        158        159        176        175        159        160        177        176        160        161        178        177        161        162        179        178        162        163        180        179        163        164        181        180        164        165        182        181        165        166        183        182        166        167        184        183        167        168        185        184        168        169        186        185        170        171        188        187        171        172        189        188        172        173        190        189        173        174        191        190        174        175        192        191        175        176        193        192        176        177        194        193        177        178        195        194        178        179        196        195        179        180        197        196        180        181        198        197        181        182        199        198        182        183        200        199        183        184        201        200        184        185        202        201        185        186        203        202        187        188        205        204        188        189        206        205        189        190        207        206        190        191        208        207        191        192        209        208        192        193        210        209        193        194        211        210        194        195        212        211        195        196        213        212        196        197        214        213        197        198        215        214        198        199        216        215        199        200        217        216        200        201        218        217        201        202        219        218        202        203        220        219        204        205        222        221        205        206        223        222        206        207        224        223        207        208        225        224        208        209        226        225        209        210        227        226        210        211        228        227        211        212        229        228        212        213        230        229        213        214        231        230        214        215        232        231        215        216        233        232        216        217        234        233        217        218        235        234        218        219        236        235        219        220        237        236        221        222        239        238        222        223        240        239        223        224        241        240        224        225        242        241        225        226        243        242        226        227        244        243        227        228        245        244        228        229        246        245        229        230        247        246        230        231        248        247        231        232        249        248        232        233        250        249        233        234        251        250        234        235        252        251        235        236        253        252        236        237        254        253        238        239        256        255        239        240        257        256        240        241        258        257        241        242        259        258        242        243        260        259        243        244        261        260        244        245        262        261        245        246        263        262        246        247        264        263        247        248        265        264        248        249        266        265        249        250        267        266        250        251        268        267        251        252        269        268        252        253        270        269        253        254        271        270        255        256        273        272        256        257        274        273        257        258        275        274        258        259        276        275        259        260        277        276        260        261        278        277        261        262        279        278        262        263        280        279        263        264        281        280        264        265        282        281        265        266        283        282        266        267        284        283        267        268        285        284        268        269        286        285        269        270        287        286        270        271        288        287        306        307          1          0        307        308          2          1        308        309          3          2        309        310          4          3        310        311          5          4        311        312          6          5        312        313          7          6        313        314          8          7        314        315          9          8        315        316         10          9        316        317         11         10        317        318         12         11        318        319         13         12        319        320         14         13        320        321         15         14        321        322         16         15        323        324        307        306        324        325        308        307        325        326        309        308        326        327        310        309        327        328        311        310        328        329        312        311        329        330        313        312        330        331        314        313        331        332        315        314        332        333        316        315        333        334        317        316        334        335        318        317        335        336        319        318        336        337        320        319        337        338        321        320        338        339        322        321        340        341        324        323        341        342        325        324        342        343        326        325        343        344        327        326        344        345        328        327        345        346        329        328        346        347        330        329        347        348        331        330        348        349        332        331        349        350        333        332        350        351        334        333        351        352        335        334        352        353        336        335        353        354        337        336        354        355        338        337        355        356        339        338        357        358        341        340        358        359        342        341        359        360        343        342        360        361        344        343        361        362        345        344        362        363        346        345        363        364        347        346        364        365        348        347        365        366        349        348        366        367        350        349        367        368        351        350        368        369        352        351        369        370        353        352        370        371        354        353        371        372        355        354        372        373        356        355        374        375        358        357        375        376        359        358        376        377        360        359        377        378        361        360        378        379        362        361        379        380        363        362        380        381        364        363        381        382        365        364        382        383        366        365        383        384        367        366        384        385        368        367        385        386        369        368        386        387        370        369        387        388        371        370        388        389        372        371        389        390        373        372        391        392        375        374        392        393        376        375        393        394        377        376        394        395        378        377        395        396        379        378        396        397        380        379        397        398        381        380        398        399        382        381        399        400        383        382        400        401        384        383        401        402        385        384        402        403        386        385        403        404        387        386        404        405        388        387        405        406        389        388        406        407        390        389        408        409        392        391        409        410        393        392        410        411        394        393        411        412        395        394        412        413        396        395        413        414        397        396        414        415        398        397        415        416        399        398        416        417        400        399        417        418        401        400        418        419        402        401        419        420        403        402        420        421        404        403        421        422        405        404        422        423        406        405        423        424        407        406        425        426        409        408        426        427        410        409        427        428        411        410        428        429        412        411        429        430        413        412        430        431        414        413        431        432        415        414        432        433        416        415        433        434        417        416        434        435        418        417        435        436        419        418        436        437        420        419        437        438        421        420        438        439        422        421        439        440        423        422        440        441        424        423        442        443        426        425        443        444        427        426        444        445        428        427        445        446        429        428        446        447        430        429        447        448        431        430        448        449        432        431        449        450        433        432        450        451        434        433        451        452        435        434        452        453        436        435        453        454        437        436        454        455        438        437        455        456        439        438        456        457        440        439        457        458        441        440        459        460        443        442        460        461        444        443        461        462        445        444        462        463        446        445        463        464        447        446        464        465        448        447        465        466        449        448        466        467        450        449        467        468        451        450        468        469        452        451        469        470        453        452        470        471        454        453        471        472        455        454        472        473        456        455        473        474        457        456        474        475        458        457        476        477        460        459        477        478        461        460        478        479        462        461        479        480        463        462        480        481        464        463        481        482        465        464        482        483        466        465        483        484        467        466        484        485        468        467        485        486        469        468        486        487        470        469        487        488        471        470        488        489        472        471        489        490        473        472        490        491        474        473        491        492        475        474        493        494        477        476        494        495        478        477        495        496        479        478        496        497        480        479        497        498        481        480        498        499        482        481        499        500        483        482        500        501        484        483        501        502        485        484        502        503        486        485        503        504        487        486        504        505        488        487        505        506        489        488        506        507        490        489        507        508        491        490        508        509        492        491        510        511        494        493        511        512        495        494        512        513        496        495        513        514        497        496        514        515        498        497        515        516        499        498        516        517        500        499        517        518        501        500        518        519        502        501        519        520        503        502        520        521        504        503        521        522        505        504        522        523        506        505        523        524        507        506        524        525        508        507        525        526        509        508        527        528        511        510        528        529        512        511        529        530        513        512        530        531        514        513        531        532        515        514        532        533        516        515        533        534        517        516        534        535        518        517        535        536        519        518        536        537        520        519        537        538        521        520        538        539        522        521        539        540        523        522        540        541        524        523        541        542        525        524        542        543        526        525        544        545        528        527        545        546        529        528        546        547        530        529        547        548        531        530        548        549        532        531        549        550        533        532        550        551        534        533        551        552        535        534        552        553        536        535        553        554        537        536        554        555        538        537        555        556        539        538        556        557        540        539        557        558        541        540        558        559        542        541        559        560        543        542        561        562        545        544        562        563        546        545        563        564        547        546        564        565        548        547        565        566        549        548        566        567        550        549        567        568        551        550        568        569        552        551        569        570        553        552        570        571        554        553        571        572        555        554        572        573        556        555        573        574        557        556        574        575        558        557        575        576        559        558        576        577        560        559        578        579        596        595        579        580        597        596        580        581        598        597        581        582        599        598        582        583        600        599        583        584        601        600        584        585        602        601        585        586        603        602        586        587        604        603        587        588        605        604        588        589        606        605        589        590        607        606        590        591        608        607        591        592        609        608        592        593        610        609        593        594        611        610        595        596        613        612        596        597        614        613        597        598        615        614        598        599        616        615        599        600        617        616        600        601        618        617        601        602        619        618        602        603        620        619        603        604        621        620        604        605        622        621        605        606        623        622        606        607        624        623        607        608        625        624        608        609        626        625        609        610        627        626        610        611        628        627        612        613        630        629        613        614        631        630        614        615        632        631        615        616        633        632        616        617        634        633        617        618        635        634        618        619        636        635        619        620        637        636        620        621        638        637        621        622        639        638        622        623        640        639        623        624        641        640        624        625        642        641        625        626        643        642        626        627        644        643        627        628        645        644        629        630        647        646        630        631        648        647        631        632        649        648        632        633        650        649        633        634        651        650        634        635        652        651        635        636        653        652        636        637        654        653        637        638        655        654        638        639        656        655        639        640        657        656        640        641        658        657        641        642        659        658        642        643        660        659        643        644        661        660        644        645        662        661        646        647        664        663        647        648        665        664        648        649        666        665        649        650        667        666        650        651        668        667        651        652        669        668        652        653        670        669        653        654        671        670        654        655        672        671        655        656        673        672        656        657        674        673        657        658        675        674        658        659        676        675        659        660        677        676        660        661        678        677        661        662        679        678        663        664        681        680        664        665        682        681        665        666        683        682        666        667        684        683        667        668        685        684        668        669        686        685        669        670        687        686        670        671        688        687        671        672        689        688        672        673        690        689        673        674        691        690        674        675        692        691        675        676        693        692        676        677        694        693        677        678        695        694        678        679        696        695        680        681        698        697        681        682        699        698        682        683        700        699        683        684        701        700        684        685        702        701        685        686        703        702        686        687        704        703        687        688        705        704        688        689        706        705        689        690        707        706        690        691        708        707        691        692        709        708        692        693        710        709        693        694        711        710        694        695        712        711        695        696        713        712        697        698        715        714        698        699        716        715        699        700        717        716        700        701        718        717        701        702        719        718        702        703        720        719        703        704        721        720        704        705        722        721        705        706        723        722        706        707        724        723        707        708        725        724        708        709        726        725        709        710        727        726        710        711        728        727        711        712        729        728        712        713        730        729        714        715        732        731        715        716        733        732        716        717        734        733        717        718        735        734        718        719        736        735        719        720        737        736        720        721        738        737        721        722        739        738        722        723        740        739        723        724        741        740        724        725        742        741        725        726        743        742        726        727        744        743        727        728        745        744        728        729        746        745        729        730        747        746        731        732        749        748        732        733        750        749        733        734        751        750        734        735        752        751        735        736        753        752        736        737        754        753        737        738        755        754        738        739        756        755        739        740        757        756        740        741        758        757        741        742        759        758        742        743        760        759        743        744        761        760        744        745        762        761        745        746        763        762        746        747        764        763        748        749        766        765        749        750        767        766        750        751        768        767        751        752        769        768        752        753        770        769        753        754        771        770        754        755        772        771        755        756        773        772        756        757        774        773        757        758        775        774        758        759        776        775        759        760        777        776        760        761        778        777        761        762        779        778        762        763        780        779        763        764        781        780        765        766        783        782        766        767        784        783        767        768        785        784        768        769        786        785        769        770        787        786        770        771        788        787        771        772        789        788        772        773        790        789        773        774        791        790        774        775        792        791        775        776        793        792        776        777        794        793        777        778        795        794        778        779        796        795        779        780        797        796        780        781        798        797        782        783        800        799        783        784        801        800        784        785        802        801        785        786        803        802        786        787        804        803        787        788        805        804        788        789        806        805        789        790        807        806        790        791        808        807        791        792        809        808        792        793        810        809        793        794        811        810        794        795        812        811        795        796        813        812        796        797        814        813        797        798        815        814        799        800        817        816        800        801        818        817        801        802        819        818        802        803        820        819        803        804        821        820        804        805        822        821        805        806        823        822        806        807        824        823        807        808        825        824        808        809        826        825        809        810        827        826        810        811        828        827        811        812        829        828        812        813        830        829        813        814        831        830        814        815        832        831        816        817        834        833        817        818        835        834        818        819        836        835        819        820        837        836        820        821        838        837        821        822        839        838        822        823        840        839        823        824        841        840        824        825        842        841        825        826        843        842        826        827        844        843        827        828        845        844        828        829        846        845        829        830        847        846        830        831        848        847        831        832        849        848        833        834        562        561        834        835        563        562        835        836        564        563        836        837        565        564        837        838        566        565        838        839        567        566        839        840        568        567        840        841        569        568        841        842        570        569        842        843        571        570        843        844        572        571        844        845        573        572        845        846        574        573        846        847        575        574        847        848        576        575        848        849        577        576        884        885        579        578        885        886        580        579        886        887        581        580        887        888        582        581        888        889        583        582        889        890        584        583        890        891        585        584        891        892        586        585        892        893        587        586        893        894        588        587        894        895        589        588        895        896        590        589        896        897        591        590        897        898        592        591        898        899        593        592        899        900        594        593        901        902        885        884        902        903        886        885        903        904        887        886        904        905        888        887        905        906        889        888        906        907        890        889        907        908        891        890        908        909        892        891        909        910        893        892        910        911        894        893        911        912        895        894        912        913        896        895        913        914        897        896        914        915        898        897        915        916        899        898        916        917        900        899        918        919        902        901        919        920        903        902        920        921        904        903        921        922        905        904        922        923        906        905        923        924        907        906        924        925        908        907        925        926        909        908        926        927        910        909        927        928        911        910        928        929        912        911        929        930        913        912        930        931        914        913        931        932        915        914        932        933        916        915        933        934        917        916        935        936        919        918        936        937        920        919        937        938        921        920        938        939        922        921        939        940        923        922        940        941        924        923        941        942        925        924        942        943        926        925        943        944        927        926        944        945        928        927        945        946        929        928        946        947        930        929        947        948        931        930        948        949        932        931        949        950        933        932        950        951        934        933        952        953        936        935        953        954        937        936        954        955        938        937        955        956        939        938        956        957        940        939        957        958        941        940        958        959        942        941        959        960        943        942        960        961        944        943        961        962        945        944        962        963        946        945        963        964        947        946        964        965        948        947        965        966        949        948        966        967        950        949        967        968        951        950        969        970        953        952        970        971        954        953        971        972        955        954        972        973        956        955        973        974        957        956        974        975        958        957        975        976        959        958        976        977        960        959        977        978        961        960        978        979        962        961        979        980        963        962        980        981        964        963        981        982        965        964        982        983        966        965        983        984        967        966        984        985        968        967        986        987        970        969        987        988        971        970        988        989        972        971        989        990        973        972        990        991        974        973        991        992        975        974        992        993        976        975        993        994        977        976        994        995        978        977        995        996        979        978        996        997        980        979        997        998        981        980        998        999        982        981        999       1000        983        982       1000       1001        984        983       1001       1002        985        984       1003       1004        987        986       1004       1005        988        987       1005       1006        989        988       1006       1007        990        989       1007       1008        991        990       1008       1009        992        991       1009       1010        993        992       1010       1011        994        993       1011       1012        995        994       1012       1013        996        995       1013       1014        997        996       1014       1015        998        997       1015       1016        999        998       1016       1017       1000        999       1017       1018       1001       1000       1018       1019       1002       1001       1020       1021       1004       1003       1021       1022       1005       1004       1022       1023       1006       1005       1023       1024       1007       1006       1024       1025       1008       1007       1025       1026       1009       1008       1026       1027       1010       1009       1027       1028       1011       1010       1028       1029       1012       1011       1029       1030       1013       1012       1030       1031       1014       1013       1031       1032       1015       1014       1032       1033       1016       1015       1033       1034       1017       1016       1034       1035       1018       1017       1035       1036       1019       1018       1037       1038       1021       1020       1038       1039       1022       1021       1039       1040       1023       1022       1040       1041       1024       1023       1041       1042       1025       1024       1042       1043       1026       1025       1043       1044       1027       1026       1044       1045       1028       1027       1045       1046       1029       1028       1046       1047       1030       1029       1047       1048       1031       1030       1048       1049       1032       1031       1049       1050       1033       1032       1050       1051       1034       1033       1051       1052       1035       1034       1052       1053       1036       1035       1054       1055       1038       1037       1055       1056       1039       1038       1056       1057       1040       1039       1057       1058       1041       1040       1058       1059       1042       1041       1059       1060       1043       1042       1060       1061       1044       1043       1061       1062       1045       1044       1062       1063       1046       1045       1063       1064       1047       1046       1064       1065       1048       1047       1065       1066       1049       1048       1066       1067       1050       1049       1067       1068       1051       1050       1068       1069       1052       1051       1069       1070       1053       1052       1071       1072       1055       1054       1072       1073       1056       1055       1073       1074       1057       1056       1074       1075       1058       1057       1075       1076       1059       1058       1076       1077       1060       1059       1077       1078       1061       1060       1078       1079       1062       1061       1079       1080       1063       1062       1080       1081       1064       1063       1081       1082       1065       1064       1082       1083       1066       1065       1083       1084       1067       1066       1084       1085       1068       1067       1085       1086       1069       1068       1086       1087       1070       1069       1088       1089       1072       1071       1089       1090       1073       1072       1090       1091       1074       1073       1091       1092       1075       1074       1092       1093       1076       1075       1093       1094       1077       1076       1094       1095       1078       1077       1095       1096       1079       1078       1096       1097       1080       1079       1097       1098       1081       1080       1098       1099       1082       1081       1099       1100       1083       1082       1100       1101       1084       1083       1101       1102       1085       1084       1102       1103       1086       1085       1103       1104       1087       1086       1105       1106       1089       1088       1106       1107       1090       1089       1107       1108       1091       1090       1108       1109       1092       1091       1109       1110       1093       1092       1110       1111       1094       1093       1111       1112       1095       1094       1112       1113       1096       1095       1113       1114       1097       1096       1114       1115       1098       1097       1115       1116       1099       1098       1116       1117       1100       1099       1117       1118       1101       1100       1118       1119       1102       1101       1119       1120       1103       1102       1120       1121       1104       1103       1122       1123       1106       1105       1123       1124       1107       1106       1124       1125       1108       1107       1125       1126       1109       1108       1126       1127       1110       1109       1127       1128       1111       1110       1128       1129       1112       1111       1129       1130       1113       1112       1130       1131       1114       1113       1131       1132       1115       1114       1132       1133       1116       1115       1133       1134       1117       1116       1134       1135       1118       1117       1135       1136       1119       1118       1136       1137       1120       1119       1137       1138       1121       1120        272        273       1123       1122        273        274       1124       1123        274        275       1125       1124        275        276       1126       1125        276        277       1127       1126        277        278       1128       1127        278        279       1129       1128        279        280       1130       1129        280        281       1131       1130        281        282       1132       1131        282        283       1133       1132        283        284       1134       1133        284        285       1135       1134        285        286       1136       1135        286        287       1137       1136        287        288       1138       1137 </DataArray>
<DataArray type="Int32"                                    Name="offsets"                                                      NumberOfComponents=" 1" format="ascii">
         4          8         12         16         20         24         28         32         36         40         44         48         52         56         60         64         68         72         76         80         84         88         92         96        100        104        108        112        116        120        124        128        132        136        140        144        148        152        156        160        164        168        172        176        180        184        188        192        196        200        204        208        212        216        220        224        228        232        236        240        244        248        252        256        260        264        268        272        276        280        284        288        292        296        300        304        308        312        316        320        324        328        332        336        340        344        348        352        356        360        364        368        372        376        380        384        388        392        396        400        404        408        412        416        420        424        428        432        436        440        444        448        452        456        460        464        468        472        476        480        484        488        492        496        500        504        508        512        516        520        524        528        532        536        540        544        548        552        556        560        564        568        572        576        580        584        588        592        596        600        604        608        612        616        620        624        628        632        636        640        644        648        652        656        660        664        668        672        676        680        684        688        692        696        700        704        708        712        716        720        724        728        732        736        740        744        748        752        756        760        764        768        772        776        780        784        788        792        796        800        804        808        812        816        820        824        828        832        836        840        844        848        852        856        860        864        868        872        876        880        884        888        892        896        900        904        908        912        916        920        924        928        932        936        940        944        948        952        956        960        964        968        972        976        980        984        988        992        996       1000       1004       1008       1012       1016       1020       1024       1028       1032       1036       1040       1044       1048       1052       1056       1060       1064       1068       1072       1076       1080       1084       1088       1092       1096       1100       1104       1108       1112       1116       1120       1124       1128       1132       1136       1140       1144       1148       1152       1156       1160       1164       1168       1172       1176       1180       1184       1188       1192       1196       1200       1204       1208       1212       1216       1220       1224       1228       1232       1236       1240       1244       1248       1252       1256       1260       1264       1268       1272       1276       1280       1284       1288       1292       1296       1300       1304       1308       1312       1316       1320       1324       1328       1332       1336       1340       1344       1348       1352       1356       1360       1364       1368       1372       1376       1380       1384       1388       1392       1396       1400       1404       1408       1412       1416       1420       1424       1428       1432       1436       1440       1444       1448       1452       1456       1460       1464       1468       1472       1476       1480       1484       1488       1492       1496       1500       1504       1508       1512       1516       1520       1524       1528       1532       1536       1540       1544       1548       1552       1556       1560       1564       1568       1572       1576       1580       1584       1588       1592       1596       1600       1604       1608       1612       1616       1620       1624       1628       1632       1636       1640       1644       1648       1652       1656       1660       1664       1668       1672       1676       1680       1684       1688       1692       1696       1700       1704       1708       1712       1716       1720       1724       1728       1732       1736       1740       1744       1748       1752       1756       1760       1764       1768       1772       1776       1780       1784       1788       1792       1796       1800       1804       1808       1812       1816       1820       1824       1828       1832       1836       1840       1844       1848       1852       1856       1860       1864       1868       1872       1876       1880       1884       1888       1892       1896       1900       1904       1908       1912       1916       1920       1924       1928       1932       1936       1940       1944       1948       1952       1956       1960       1964       1968       1972       1976       1980       1984       1988       1992       1996       2000       2004       2008       2012       2016       2020       2024       2028       2032       2036       2040       2044       2048       2052       2056       2060       2064       2068       2072       2076       2080       2084       2088       2092       2096       2100       2104       2108       2112       2116       2120       2124       2128       2132       2136       2140       2144       2148       2152       2156       2160       2164       2168       2172       2176       2180       2184       2188       2192       2196       2200       2204       2208       2212       2216       2220       2224       2228       2232       2236       2240       2244       2248       2252       2256       2260       2264       2268       2272       2276       2280       2284       2288       2292       2296       2300       2304       2308       2312       2316       2320       2324       2328       2332       2336       2340       2344       2348       2352       2356       2360       2364       2368       2372       2376       2380       2384       2388       2392       2396       2400       2404       2408       2412       2416       2420       2424       2428       2432       2436       2440       2444       2448       2452       2456       2460       2464       2468       2472       2476       2480       2484       2488       2492       2496       2500       2504       2508       2512       2516       2520       2524       2528       2532       2536       2540       2544       2548       2552       2556       2560       2564       2568       2572       2576       2580       2584       2588       2592       2596       2600       2604       2608       2612       2616       2620       2624       2628       2632       2636       2640       2644       2648       2652       2656       2660       2664       2668       2672       2676       2680       2684       2688       2692       2696       2700       2704       2708       2712       2716       2720       2724       2728       2732       2736       2740       2744       2748       2752       2756       2760       2764       2768       2772       2776       2780       2784       2788       2792       2796       2800       2804       2808       2812       2816       2820       2824       2828       2832       2836       2840       2844       2848       2852       2856       2860       2864       2868       2872       2876       2880       2884       2888       2892       2896       2900       2904       2908       2912       2916       2920       2924       2928       2932       2936       2940       2944       2948       2952       2956       2960       2964       2968       2972       2976       2980       2984       2988       2992       2996       3000       3004       3008       3012       3016       3020       3024       3028       3032       3036       3040       3044       3048       3052       3056       3060       3064       3068       3072       3076       3080       3084       3088       3092       3096       3100       3104       3108       3112       3116       3120       3124       3128       3132       3136       3140       3144       3148       3152       3156       3160       3164       3168       3172       3176       3180       3184       3188       3192       3196       3200       3204       3208       3212       3216       3220       3224       3228       3232       3236       3240       3244       3248       3252       3256       3260       3264       3268       3272       3276       3280       3284       3288       3292       3296       3300       3304       3308       3312       3316       3320       3324       3328       3332       3336       3340       3344       3348       3352       3356       3360       3364       3368       3372       3376       3380       3384       3388       3392       3396       3400       3404       3408       3412       3416       3420       3424       3428       3432       3436       3440       3444       3448       3452       3456       3460       3464       3468       3472       3476       3480       3484       3488       3492       3496       3500       3504       3508       3512       3516       3520       3524       3528       3532       3536       3540       3544       3548       3552       3556       3560       3564       3568       3572       3576       3580       3584       3588       3592       3596       3600       3604       3608       3612       3616       3620       3624       3628       3632       3636       3640       3644       3648       3652       3656       3660       3664       3668       3672       3676       3680       3684       3688       3692       3696       3700       3704       3708       3712       3716       3720       3724       3728       3732       3736       3740       3744       3748       3752       3756       3760       3764       3768       3772       3776       3780       3784       3788       3792       3796       3800       3804       3808       3812       3816       3820       3824       3828       3832       3836       3840       3844       3848       3852       3856       3860       3864       3868       3872       3876       3880       3884       3888       3892       3896       3900       3904       3908       3912       3916       3920       3924       3928       3932       3936       3940       3944       3948       3952       3956       3960       3964       3968       3972       3976       3980       3984       3988       3992       3996       4000       4004       4008       4012       4016       4020       4024       4028       4032       4036       4040       4044       4048       4052       4056       4060       4064       4068       4072       4076       4080       4084       4088       4092       4096 </DataArray>
<DataArray type="UInt8"                                    Name="types"                                                      NumberOfComponents=" 1" format="ascii">
         9          9          9          9          9          9          9          9          9          9          9          9          9          9          9          9          9          9          9          9          9          9          9          9          9          9          9          9          9          9          9          9          9          9          9          9          9          9          9          9          9          9          9          9          9          9          9          9          9          9          9          9          9          9          9          9          9          9          9          9          9          9          9          9          9          9          9          9          9          9          9          9          9          9          9          9          9          9          9          9          9          9          9          9          9          9          9          9          9          9          9          9          9          9          9          9          9          9          9          9          9          9          9          9          9          9          9          9          9          9          9          9          9          9          9          9          9          9          9          9          9          9          9          9          9          9          9          9          9          9          9          9          9          9          9          9          9          9          9          9          9          9          9          9          9          9          9          9          9          9          9          9          9          9          9          9          9          9          9          9          9          9          9          9          9          9          9          9          9          9          9          9          9          9          9          9          9          9          9          9          9          9          9          9          9          9          9          9          9          9          9          9          9          9          9          9          9          9          9          9          9          9          9          9          9          9          9          9          9          9          9          9          9          9          9          9          9          9          9          9          9          9          9          9          9          9          9          9          9          9          9          9          9          9          9          9          9          9          9          9          9          9          9          9          9          9          9          9          9          9          9          9          9          9          9          9          9          9          9          9          9          9          9          9          9          9          9          9          9          9          9          9          9          9          9          9          9          9          9          9          9          9          9          9          9          9          9          9          9          9          9          9          9          9          9          9          9          9          9          9          9          9          9          9          9          9          9          9          9          9          9          9          9          9          9          9          9          9          9          9          9          9          9          9          9          9          9          9          9          9          9          9          9          9          9          9          9          9          9          9          9          9          9          9          9          9          9          9          9          9          9          9          9          9          9          9          9          9          9          9          9          9          9          9          9          9          9          9          9          9          9          9          9          9          9          9          9          9          9          9          9          9          9          9          9          9          9          9          9          9          9          9          9          9          9          9          9          9          9          9          9          9          9          9          9          9          9          9          9          9          9          9          9          9          9          9          9          9          9          9          9          9          9          9          9          9          9          9          9          9          9          9          9          9          9          9          9          9          9          9          9          9          9          9          9          9          9          9          9          9          9          9          9          9          9          9          9          9          9          9          9          9          9          9          9          9          9          9          9          9          9          9          9          9          9          9          9          9          9          9          9          9          9          9          9          9          9          9          9          9          9          9          9          9          9          9          9          9          9          9          9          9          9          9          9          9          9          9          9          9          9          9          9          9          9          9          9          9          9          9          9          9          9          9          9          9          9          9          9          9          9          9          9          9          9          9          9          9          9          9          9          9          9          9          9          9          9          9          9          9          9          9          9          9          9          9          9          9          9          9          9          9          9          9          9          9          9          9          9          9          9          9          9          9          9          9          9          9          9          9          9          9          9          9          9          9          9          9          9          9          9          9          9          9          9          9          9          9          9          9          9          9          9          9          9          9          9          9          9          9          9          9          9          9          9          9          9          9          9          9          9          9          9          9          9          9          9          9          9          9          9          9          9          9          9          9          9          9          9          9          9          9          9          9          9          9          9          9          9          9          9          9          9          9          9          9          9          9          9          9          9          9          9          9          9          9          9          9          9          9          9          9          9          9          9          9          9          9          9          9          9          9          9          9          9          9          9          9          9          9          9          9          9          9          9          9          9          9          9          9          9          9          9          9          9          9          9          9          9          9          9          9          9          9          9          9          9          9          9          9          9          9          9          9          9          9          9          9          9          9          9          9          9          9          9          9          9          9          9          9          9          9          9          9          9          9          9          9          9          9          9          9          9          9          9          9          9          9          9          9          9          9          9          9          9          9          9          9          9          9          9          9          9          9          9          9          9          9          9          9          9          9          9          9          9          9          9          9          9          9          9          9          9          9          9          9          9          9          9          9          9          9          9          9          9          9          9          9          9          9          9          9          9          9          9          9          9          9          9          9          9          9          9          9          9          9          9          9          9          9          9          9          9          9          9          9          9          9          9          9          9          9          9          9          9          9          9          9          9          9          9          9          9          9          9          9          9          9          9          9          9          9          9          9          9          9          9          9          9          9          9          9          9          9          9          9          9          9          9          9          9          9          9          9          9          9          9          9          9          9          9          9          9          9          9          9          9          9          9          9          9          9          9          9          9          9          9          9          9          9          9          9          9          9          9          9          9          9          9          9          9          9          9          9          9          9          9          9          9          9          9          9          9          9          9          9          9          9          9          9          9          9          9          9          9          9          9          9          9          9          9          9          9          9          9          9          9          9          9          9          9          9          9          9          9          9          9          9          9          9          9          9          9          9          9          9          9          9          9          9          9          9          9          9          9          9          9          9          9          9          9          9          9          9          9          9          9          9          9          9          9          9          9          9          9          9          9          9          9          9          9          9          9          9          9          9          9          9          9          9          9          9          9          9 </DataArray>
</Cells>
<CellData>
<DataArray type="Int32"                                    Name="material"                                                      NumberOfComponents=" 1" format="ascii">
         1          1          1          1          1          1          1          1          1          1          1          1          1          1          1          1          1          1          1          1          1          1          1          1          1          1          1          1          1          1          1          1          1          1          1          1          1          1          1          1          1          1          1          1          1          1          1          1          1          1          1          1          1          1          1          1          1          1          1          1          1          1          1          1          1          1          1          1          1          1          1          1          1          1          1          1          1          1          1          1          1          1          1          1          1          1          1          1          1          1          1          1          1          1          1          1          1          1          1          1          1          1          1          1          1          1          1          1          1          1          1          1          1          1          1          1          1          1          1          1          1          1          1          1          1          1          1          1          1          1          1          1          1          1          1          1          1          1          1          1          1          1          1          1          1          1          1          1          1          1          1          1          1          1          1          1          1          1          1          1          1          1          1          1          1          1          1          1          1          1          1          1          1          1          1          1          1          1          1          1          1          1          1          1          1          1          1          1          1          1          1          1          1          1          1          1          1          1          1          1          1          1          1          1          1          1          1          1          1          1          1          1          1          1          1          1          1          1          1          1          1          1          1          1          1          1          1          1          1          1          1          1          1          1          1          1          1          1          1          1          1          1          1          1          1          1          1          1          1          1          1          1          1          1          1          1          1          1          1          1          1          1          1          1          1          1          1          1          1          1          1          1          1          1          1          1          1          1          1          1          1          1          1          1          1          1          1          1          1          1          1          1          1          1          1          1          1          1          1          1          1          1          1          1          1          1          1          1          1          1          1          1          1          1          1          1          1          1          1          1          1          1          1          1          1          1          1          1          1          1          1          1          1          1          1          1          1          1          1          1          1          1          1          1          1          1          1          1          1          1          1          1          1          1          1          1          1          1          1          1          1          1          1          1          1          1          1          1          1          1          1          1          1          1          1          1          1          1          1          1          1          1          1          1          1          1          1          1          1          1          1          1          1          1          1          1          1          1          1          1          1          1          1          1          1          1          1          1          1          1          1          1          1          1          1          1          1          1          1          1          1          1          1          1          1          1          1          1          1          1          1          1          1          1          1          1          1          1          1          1          1          1          1          1          1          1          1          1          1          1          1          1          1          1          1          1          1          1          1          1          1          1          1          1          1          1          1          1          1          1          1          1          1          1          1          1          1          1          1          1          1          1          1          1          1          1          1          1          1          1          1          1          1          1          1          1          1          1          1          1          1          1          1          1          1          1          1          1          1          1          1          1          1          1          1          1          1          1          1          1          1          1          1          1          1          1          1          1          1          1          1          1          1          1          1          1          1          1          1          1          1          1          1          1          1          1          1          1          1          1          1          1          1          1          1          1          1          1          1          1          1          1          1          1          1          1          1          1          1          1          1          1          1          1          1          1          1          1          1          1          1          1          1          1          1          1          1          1          1          1          1          1          1          1          1          1          1          1          1          1          1          1          1          1          1          1          1          1          1          1          1          1          1          1          1          1          1          1          1          1          1          1          1          1          1          1          1          1          1          1          1          1          1          1          1          1          1          1          1          1          1          1          1          1          1          1          1          1          1          1          1          1          1          1          1          1          1          1          1          1          1          1          1          1          1          1          1          1          1          1          1          1          1          1          1          1          1          1          1          1          1          1          1          1          1          1          1          1          1          1          1          1          1          1          1          1          1          1          1          1          1          1          1          1          1          1          1          1          1          1          1          1          1          1          1          1          1          1          1          1          1          1          1          1          1          1          1          1          1          1          1          1          1          1          1          1          1          1          1          1          1          1          1          1          1          1          1          1          1          1          1          1          1          1          1          1          1          1          1          1          1          1          1          1          1          1          1          1          1          1          1          1          1          1          1          1          1          1          1          1          1          1          1          1          1          1          1          1          1          1          1          1          1          1          1          1          1          1          1          1          1          1          1          1          1          1          1          1          1          1          1          1          1          1          1          1          1          1          1          1          1          1          1          1          1          1          1          1          1          1          1          1          1          1          1          1          1          1          1          1          1          1          1          1          1          1          1          1          1          1          1          1          1          1          1          1          1          1          1          1          1          1          1          1          1          1          1          1          1          1          1          1          1          1          1          1          1          1          1          1          1          1          1          1          1          1          1          1          1          1          1          1          1          1          1          1          1          1          1          1          1          1          1          1          1          1          1          1          1          1          1          1          1          1          1          1          1          1          1          1          1          1          1          1          1          1          1          1          1          1          1          1          1          1          1          1          1          1          1          1          1          1          1          1          1          1          1          1          1          1          1          1          1          1          1          1          1          1          1          1          1          1          1          1          1          1          1          1          1          1          1          1          1          1          1          1          1          1          1          1          1          1          1          1          1          1          1          1          1          1          1          1          1          1          1          1          1          1          1          1          1          1          1          1          1          1          1          1          1          1          1          1          1          1          1          1          1          1          1          1          1          1          1          1 </DataArray>
</CellData>
<PointData>
<DataArray type="Float64"                                    Name="u"                                                      NumberOfComponents=" 3" format="ascii">
             -0.000864340               0.000000000               0.999999988              -0.000909986               0.000000000               0.999999988              -0.000928875               0.000000000               0.999999988              -0.000938946               0.000000000               0.999999988              -0.000946881              -0.000000000               0.999999988              -0.000955026               0.000000000               0.999999988              -0.000964062               0.000000000               0.999999988              -0.000974012               0.000000000               0.999999988              -0.000984693               0.000000000               0.999999988              -0.000995594               0.000000000               0.999999988              -0.001006351              -0.000000000               0.999999988              -0.001016599               0.000000000               0.999999988              -0.001026089              -0.000000000               0.999999988              -0.001034413              -0.000000000               0.999999988              -0.001041120               0.000000000               0.999999988              -0.001045776              -0.000000000               0.999999988              -0.001047549              -0.000000000               0.999999988              -0.000859769               0.000119847               0.999999988              -0.000901403               0.000094686               0.999999988              -0.000917625               0.000082882               0.999999988              -0.000925944               0.000077585               0.999999988              -0.000932611               0.000075531               0.999999988              -0.000939728               0.000074889               0.999999988              -0.000947843               0.000074733               0.999999988              -0.000956886               0.000074542               0.999999988              -0.000966496               0.000073650               0.999999988              -0.000976217               0.000071725               0.999999988              -0.000985698               0.000068603               0.999999988              -0.000994437               0.000064017               0.999999988              -0.001002041               0.000057563               0.999999988              -0.001008286               0.000048642               0.999999988              -0.001012748               0.000036731               0.999999988              -0.001015008               0.000021049               0.999999988              -0.001014563               0.000000446               0.999999988              -0.000845908               0.000238680               0.999999988              -0.000875929               0.000188989               0.999999988              -0.000884840               0.000166562               0.999999988              -0.000888487               0.000157024               0.999999988              -0.000891878               0.000153687               0.999999988              -0.000896347               0.000153012               0.999999988              -0.000902018               0.000153222               0.999999988              -0.000908511               0.000153042               0.999999988              -0.000915190               0.000151522               0.999999988              -0.000921643               0.000147992               0.999999988              -0.000927325               0.000141967               0.999999988              -0.000931650               0.000132804               0.999999988              -0.000934220               0.000120102               0.999999988              -0.000934769               0.000103115               0.999999988              -0.000933079               0.000080998               0.999999988              -0.000929023               0.000052817               0.999999988              -0.000922485               0.000016849               0.999999988              -0.000822874               0.000355505               0.999999988              -0.000834727               0.000282797               0.999999988              -0.000833150               0.000251825               0.999999988              -0.000830462               0.000239826               0.999999988              -0.000829654               0.000236509               0.999999988              -0.000830733               0.000236774               0.999999988              -0.000833123               0.000237765               0.999999988              -0.000836029               0.000237898               0.999999988              -0.000838679               0.000235940               0.999999988              -0.000840262               0.000230893               0.999999988              -0.000840108               0.000222013               0.999999988              -0.000837693               0.000208672               0.999999988              -0.000832825               0.000190377               0.999999988              -0.000825473               0.000166569               0.999999988              -0.000815453               0.000136644               0.999999988              -0.000802835               0.000099898               0.999999988              -0.000787868               0.000055420               0.999999988              -0.000791153               0.000469343               0.999999988              -0.000779725               0.000376204               0.999999988              -0.000766325               0.000339429               0.999999988              -0.000757347               0.000326862               0.999999988              -0.000752465               0.000324888               0.999999988              -0.000750236               0.000326749               0.999999988              -0.000749278               0.000329025               0.999999988              -0.000748208               0.000329543               0.999999988              -0.000745914               0.000326945               0.999999988              -0.000741383               0.000320149               0.999999988              -0.000734110               0.000308455               0.999999988              -0.000723840               0.000291077               0.999999988              -0.000710446               0.000267986               0.999999988              -0.000693883               0.000238765               0.999999988              -0.000674240               0.000203212               0.999999988              -0.000651813               0.000161144               0.999999988              -0.000627090               0.000112676               0.999999988              -0.000751232               0.000579243               0.999999988              -0.000713566               0.000469438               0.999999988              -0.000689160               0.000429659               0.999999988              -0.000675203               0.000418176               0.999999988              -0.000667523               0.000418366               0.999999988              -0.000662920               0.000421965               0.999999988              -0.000658862               0.000425382               0.999999988              -0.000653474               0.000425964               0.999999988              -0.000645337               0.000422334               0.999999988              -0.000633704               0.000413679               0.999999988              -0.000618222               0.000399079               0.999999988              -0.000598686               0.000378346               0.999999988              -0.000575207               0.000351190               0.999999988              -0.000547948               0.000317806               0.999999988              -0.000517282               0.000278582               0.999999988              -0.000483901               0.000234180               0.999999988              -0.000448875               0.000185568               0.999999988              -0.000703748               0.000684171               0.999999988              -0.000639405               0.000562714               0.999999988              -0.000606544               0.000522359               0.999999988              -0.000590103               0.000512867               0.999999988              -0.000581458               0.000515232               0.999999988              -0.000575119               0.000520371               0.999999988              -0.000567861               0.000524394               0.999999988              -0.000557512               0.000524527               0.999999988              -0.000542739               0.000519405               0.999999988              -0.000522884               0.000508624               0.999999988              -0.000497726               0.000491377               0.999999988              -0.000467565               0.000467611               0.999999988              -0.000432591               0.000437523               0.999999988              -0.000393591               0.000401633               0.999999988              -0.000351527               0.000361083               0.999999988              -0.000307648               0.000317090               0.999999988              -0.000263253               0.000271852               0.999999988              -0.000649704               0.000782968               0.999999988              -0.000560872               0.000655779               0.999999988              -0.000523211               0.000616682               0.999999988              -0.000507070               0.000609246               0.999999988              -0.000498553               0.000613436               0.999999988              -0.000490714               0.000619602               0.999999988              -0.000479904               0.000623708               0.999999988              -0.000463937               0.000622800               0.999999988              -0.000441445               0.000615838               0.999999988              -0.000412181               0.000602765               0.999999988              -0.000376354               0.000583093               0.999999988              -0.000334507               0.000557038               0.999999988              -0.000287610               0.000525240               0.999999988              -0.000236984               0.000488713               0.999999988              -0.000183948               0.000448933               0.999999988              -0.000130003               0.000407866               0.999999988              -0.000076299               0.000367287               0.999999988              -0.000590939               0.000873719               0.999999988              -0.000480731               0.000748490               0.999999988              -0.000443445               0.000711098               0.999999988              -0.000429457               0.000705251               0.999999988              -0.000421642               0.000710708               0.999999988              -0.000412153               0.000717441               0.999999988              -0.000397169               0.000721019               0.999999988              -0.000374482               0.000718781               0.999999988              -0.000343177               0.000709968               0.999999988              -0.000303505               0.000694760               0.999999988              -0.000255932               0.000673210               0.999999988              -0.000201655               0.000645937               0.999999988              -0.000142252               0.000614108               0.999999988              -0.000079223               0.000579331               0.999999988              -0.000014295               0.000543363               0.999999988               0.000051011               0.000507954               0.999999988               0.000115607               0.000474068               0.999999988              -0.000529915               0.000959846               0.999999988              -0.000413337               0.000853388               0.999999988              -0.000373837               0.000813199               0.999999988              -0.000359517               0.000803255               0.999999988              -0.000352705               0.000806189               0.999999988              -0.000345217               0.000813138               0.999999988              -0.000333354               0.000819344               0.999999988              -0.000315091               0.000822162               0.999999988              -0.000289155               0.000820299               0.999999988              -0.000255188               0.000813493               0.999999988              -0.000213442               0.000802021               0.999999988              -0.000164560               0.000786029               0.999999988              -0.000109658               0.000766056               0.999999988              -0.000049610               0.000743065               0.999999988               0.000014580               0.000718356               0.999999988               0.000081299               0.000693267               0.999999988               0.000148638               0.000669212               0.999999988              -0.000463328               0.001038591               0.999999988              -0.000348285               0.000955221               0.999999988              -0.000306727               0.000918324               0.999999988              -0.000291325               0.000906576               0.999999988              -0.000284518               0.000908062               0.999999988              -0.000278363               0.000915317               0.999999988              -0.000268937               0.000923904               0.999999988              -0.000254482               0.000931272               0.999999988              -0.000233533               0.000935749               0.999999988              -0.000205270               0.000936627               0.999999988              -0.000169474               0.000933790               0.999999988              -0.000126482               0.000927632               0.999999988              -0.000077065               0.000918288               0.999999988              -0.000021519               0.000906344               0.999999988               0.000039512               0.000892335               0.999999988               0.000104877               0.000877288               0.999999988               0.000172998               0.000862215               0.999999988              -0.000392467               0.001107979               0.999999988              -0.000285530               0.001050935               0.999999988              -0.000243900               0.001021380               0.999999988              -0.000227258               0.001011006               0.999999988              -0.000219767               0.001012597               0.999999988              -0.000214196               0.001020779               0.999999988              -0.000206705               0.001031770               0.999999988              -0.000195375               0.001043211               0.999999988              -0.000178902               0.001053537               0.999999988              -0.000156161               0.001061570               0.999999988              -0.000126513               0.001066906               0.999999988              -0.000089984               0.001069515               0.999999988              -0.000046639               0.001069680               0.999999988               0.000003306               0.001067703               0.999999988               0.000059654               0.001063811               0.999999988               0.000121974               0.001058750               0.999999988               0.000189223               0.001053069               0.999999988              -0.000318186               0.001166486               0.999999988              -0.000225313               0.001136220               0.999999988              -0.000186175               0.001117113               0.999999988              -0.000169196               0.001110793               0.999999988              -0.000161193               0.001114213               0.999999988              -0.000155745               0.001124044               0.999999988              -0.000149752               0.001137684               0.999999988              -0.000140965               0.001152952               0.999999988              -0.000128424               0.001168533               0.999999988              -0.000111013               0.001183247               0.999999988              -0.000087706               0.001196371               0.999999988              -0.000057810               0.001207537               0.999999988              -0.000021251               0.001216747               0.999999988               0.000021840               0.001224112               0.999999988               0.000071815               0.001229767               0.999999988               0.000129178               0.001233994               0.999999988               0.000193970               0.001237461               0.999999988              -0.000241057               0.001213207               0.999999988              -0.000167250               0.001207239               0.999999988              -0.000133759               0.001199772               0.999999988              -0.000118130               0.001199308               0.999999988              -0.000110433               0.001205972               0.999999988              -0.000105438               0.001218239               0.999999988              -0.000100523               0.001234509               0.999999988              -0.000093884               0.001253393               0.999999988              -0.000084801               0.001273535               0.999999988              -0.000072280               0.001294008               0.999999988              -0.000055018               0.001314309               0.999999988              -0.000032254               0.001333670               0.999999988              -0.000003679               0.001351735               0.999999988               0.000031024               0.001368391               0.999999988               0.000072421               0.001383481               0.999999988               0.000121861               0.001396980               0.999999988               0.000180790               0.001409291               0.999999988              -0.000161858               0.001246970               0.999999988              -0.000110783               0.001260454               0.999999988              -0.000086187               0.001263672               0.999999988              -0.000074079               0.001269151               0.999999988              -0.000067837               0.001279533               0.999999988              -0.000063871               0.001294679               0.999999988              -0.000060157               0.001313697               0.999999988              -0.000055617               0.001335599               0.999999988              -0.000049751               0.001359499               0.999999988              -0.000041595               0.001384751               0.999999988              -0.000030167               0.001410698               0.999999988              -0.000014858               0.001436823               0.999999988               0.000004803               0.001462690               0.999999988               0.000029306               0.001487856               0.999999988               0.000059329               0.001511898               0.999999988               0.000096395               0.001534496               0.999999988               0.000142979               0.001555413               0.999999988              -0.000081292               0.001267303               0.999999988              -0.000055192               0.001293296               0.999999988              -0.000042160               0.001304122               0.999999988              -0.000035520               0.001314080               0.999999988              -0.000032006               0.001327475               0.999999988              -0.000029751               0.001344922               0.999999988              -0.000027730               0.001365944               0.999999988              -0.000025442               0.001390053               0.999999988              -0.000022585               0.001416656               0.999999988              -0.000018500               0.001445218               0.999999988              -0.000012760               0.001475126               0.999999988              -0.000004984               0.001505888               0.999999988               0.000005227               0.001537007               0.999999988               0.000017917               0.001568035               0.999999988               0.000033703               0.001598509               0.999999988               0.000053797               0.001627845               0.999999988               0.000079697               0.001655272               0.999999988               0.000000000               0.001274179               0.999999988              -0.000000000               0.001304414               0.999999988               0.000000000               0.001317879               0.999999988              -0.000000000               0.001329502               0.999999988              -0.000000000               0.001344055               0.999999988              -0.000000000               0.001362378               0.999999988              -0.000000000               0.001384169               0.999999988              -0.000000000               0.001409084               0.999999988               0.000000000               0.001436598               0.999999988              -0.000000000               0.001466374               0.999999988              -0.000000000               0.001497794               0.999999988              -0.000000000               0.001530250               0.999999988              -0.000000000               0.001563197               0.999999988               0.000000000               0.001596156               0.999999988              -0.000000000               0.001628807               0.999999988              -0.000000000               0.001660514               0.999999988              -0.000000000               0.001690331               0.999999988              -0.000864340               0.000000000               0.999999988              -0.000909986               0.000000000               0.999999988              -0.000928875               0.000000000               0.999999988              -0.000938946               0.000000000               0.999999988              -0.000946881              -0.000000000               0.999999988              -0.000955026               0.000000000               0.999999988              -0.000964062               0.000000000               0.999999988              -0.000974012               0.000000000               0.999999988              -0.000984693               0.000000000               0.999999988              -0.000995594               0.000000000               0.999999988              -0.001006351              -0.000000000               0.999999988              -0.001016599               0.000000000               0.999999988              -0.001026089              -0.000000000               0.999999988              -0.001034413              -0.000000000               0.999999988              -0.001041120               0.000000000               0.999999988              -0.001045776              -0.000000000               0.999999988              -0.001047549              -0.000000000               0.999999988              -0.000859769              -0.000119847               0.999999988              -0.000901403              -0.000094686               0.999999988              -0.000917625              -0.000082882               0.999999988              -0.000925944              -0.000077585               0.999999988              -0.000932611              -0.000075531               0.999999988              -0.000939728              -0.000074889               0.999999988              -0.000947843              -0.000074733               0.999999988              -0.000956886              -0.000074542               0.999999988              -0.000966496              -0.000073650               0.999999988              -0.000976217              -0.000071725               0.999999988              -0.000985698              -0.000068603               0.999999988              -0.000994437              -0.000064017               0.999999988              -0.001002041              -0.000057563               0.999999988              -0.001008286              -0.000048642               0.999999988              -0.001012748              -0.000036731               0.999999988              -0.001015008              -0.000021049               0.999999988              -0.001014563              -0.000000446               0.999999988              -0.000845908              -0.000238680               0.999999988              -0.000875929              -0.000188989               0.999999988              -0.000884840              -0.000166562               0.999999988              -0.000888487              -0.000157024               0.999999988              -0.000891878              -0.000153687               0.999999988              -0.000896347              -0.000153012               0.999999988              -0.000902018              -0.000153222               0.999999988              -0.000908511              -0.000153042               0.999999988              -0.000915190              -0.000151522               0.999999988              -0.000921643              -0.000147992               0.999999988              -0.000927325              -0.000141967               0.999999988              -0.000931650              -0.000132804               0.999999988              -0.000934220              -0.000120102               0.999999988              -0.000934769              -0.000103115               0.999999988              -0.000933079              -0.000080998               0.999999988              -0.000929023              -0.000052817               0.999999988              -0.000922485              -0.000016849               0.999999988              -0.000822874              -0.000355505               0.999999988              -0.000834727              -0.000282797               0.999999988              -0.000833150              -0.000251825               0.999999988              -0.000830462              -0.000239826               0.999999988              -0.000829654              -0.000236509               0.999999988              -0.000830733              -0.000236774               0.999999988              -0.000833123              -0.000237765               0.999999988              -0.000836029              -0.000237898               0.999999988              -0.000838679              -0.000235940               0.999999988              -0.000840262              -0.000230893               0.999999988              -0.000840108              -0.000222013               0.999999988              -0.000837693              -0.000208672               0.999999988              -0.000832825              -0.000190377               0.999999988              -0.000825473              -0.000166569               0.999999988              -0.000815453              -0.000136644               0.999999988              -0.000802835              -0.000099898               0.999999988              -0.000787868              -0.000055420               0.999999988              -0.000791153              -0.000469343               0.999999988              -0.000779725              -0.000376204               0.999999988              -0.000766325              -0.000339429               0.999999988              -0.000757347              -0.000326862               0.999999988              -0.000752465              -0.000324888               0.999999988              -0.000750236              -0.000326749               0.999999988              -0.000749278              -0.000329025               0.999999988              -0.000748208              -0.000329543               0.999999988              -0.000745914              -0.000326945               0.999999988              -0.000741383              -0.000320149               0.999999988              -0.000734110              -0.000308455               0.999999988              -0.000723840              -0.000291077               0.999999988              -0.000710446              -0.000267986               0.999999988              -0.000693883              -0.000238765               0.999999988              -0.000674240              -0.000203212               0.999999988              -0.000651813              -0.000161144               0.999999988              -0.000627090              -0.000112676               0.999999988              -0.000751232              -0.000579243               0.999999988              -0.000713566              -0.000469438               0.999999988              -0.000689160              -0.000429659               0.999999988              -0.000675203              -0.000418176               0.999999988              -0.000667523              -0.000418366               0.999999988              -0.000662920              -0.000421965               0.999999988              -0.000658862              -0.000425382               0.999999988              -0.000653474              -0.000425964               0.999999988              -0.000645337              -0.000422334               0.999999988              -0.000633704              -0.000413679               0.999999988              -0.000618222              -0.000399079               0.999999988              -0.000598686              -0.000378346               0.999999988              -0.000575207              -0.000351190               0.999999988              -0.000547948              -0.000317806               0.999999988              -0.000517282              -0.000278582               0.999999988              -0.000483901              -0.000234180               0.999999988              -0.000448875              -0.000185568               0.999999988              -0.000703748              -0.000684171               0.999999988              -0.000639405              -0.000562714               0.999999988              -0.000606544              -0.000522359               0.999999988              -0.000590103              -0.000512867               0.999999988              -0.000581458              -0.000515232               0.999999988              -0.000575119              -0.000520371               0.999999988              -0.000567861              -0.000524394               0.999999988              -0.000557512              -0.000524527               0.999999988              -0.000542739              -0.000519405               0.999999988              -0.000522884              -0.000508624               0.999999988              -0.000497726              -0.000491377               0.999999988              -0.000467565              -0.000467611               0.999999988              -0.000432591              -0.000437523               0.999999988              -0.000393591              -0.000401633               0.999999988              -0.000351527              -0.000361083               0.999999988              -0.000307648              -0.000317090               0.999999988              -0.000263253              -0.000271852               0.999999988              -0.000649704              -0.000782968               0.999999988              -0.000560872              -0.000655779               0.999999988              -0.000523211              -0.000616682               0.999999988              -0.000507070              -0.000609246               0.999999988              -0.000498553              -0.000613436               0.999999988              -0.000490714              -0.000619602               0.999999988              -0.000479904              -0.000623708               0.999999988              -0.000463937              -0.000622800               0.999999988              -0.000441445              -0.000615838               0.999999988              -0.000412181              -0.000602765               0.999999988              -0.000376354              -0.000583093               0.999999988              -0.000334507              -0.000557038               0.999999988              -0.000287610              -0.000525240               0.999999988              -0.000236984              -0.000488713               0.999999988              -0.000183948              -0.000448933               0.999999988              -0.000130003              -0.000407866               0.999999988              -0.000076299              -0.000367287               0.999999988              -0.000590939              -0.000873719               0.999999988              -0.000480731              -0.000748490               0.999999988              -0.000443445              -0.000711098               0.999999988              -0.000429457              -0.000705251               0.999999988              -0.000421642              -0.000710708               0.999999988              -0.000412153              -0.000717441               0.999999988              -0.000397169              -0.000721019               0.999999988              -0.000374482              -0.000718781               0.999999988              -0.000343177              -0.000709968               0.999999988              -0.000303505              -0.000694760               0.999999988              -0.000255932              -0.000673210               0.999999988              -0.000201655              -0.000645937               0.999999988              -0.000142252              -0.000614108               0.999999988              -0.000079223              -0.000579331               0.999999988              -0.000014295              -0.000543363               0.999999988               0.000051011              -0.000507954               0.999999988               0.000115607              -0.000474068               0.999999988              -0.000529915              -0.000959846               0.999999988              -0.000413337              -0.000853388               0.999999988              -0.000373837              -0.000813199               0.999999988              -0.000359517              -0.000803255               0.999999988              -0.000352705              -0.000806189               0.999999988              -0.000345217              -0.000813138               0.999999988              -0.000333354              -0.000819344               0.999999988              -0.000315091              -0.000822162               0.999999988              -0.000289155              -0.000820299               0.999999988              -0.000255188              -0.000813493               0.999999988              -0.000213442              -0.000802021               0.999999988              -0.000164560              -0.000786029               0.999999988              -0.000109658              -0.000766056               0.999999988              -0.000049610              -0.000743065               0.999999988               0.000014580              -0.000718356               0.999999988               0.000081299              -0.000693267               0.999999988               0.000148638              -0.000669212               0.999999988              -0.000463328              -0.001038591               0.999999988              -0.000348285              -0.000955221               0.999999988              -0.000306727              -0.000918324               0.999999988              -0.000291325              -0.000906576               0.999999988              -0.000284518              -0.000908062               0.999999988              -0.000278363              -0.000915317               0.999999988              -0.000268937              -0.000923904               0.999999988              -0.000254482              -0.000931272               0.999999988              -0.000233533              -0.000935749               0.999999988              -0.000205270              -0.000936627               0.999999988              -0.000169474              -0.000933790               0.999999988              -0.000126482              -0.000927632               0.999999988              -0.000077065              -0.000918288               0.999999988              -0.000021519              -0.000906344               0.999999988               0.000039512              -0.000892335               0.999999988               0.000104877              -0.000877288               0.999999988               0.000172998              -0.000862215               0.999999988              -0.000392467              -0.001107979               0.999999988              -0.000285530              -0.001050935               0.999999988              -0.000243900              -0.001021380               0.999999988              -0.000227258              -0.001011006               0.999999988              -0.000219767              -0.001012597               0.999999988              -0.000214196              -0.001020779               0.999999988              -0.000206705              -0.001031770               0.999999988              -0.000195375              -0.001043211               0.999999988              -0.000178902              -0.001053537               0.999999988              -0.000156161              -0.001061570               0.999999988              -0.000126513              -0.001066906               0.999999988              -0.000089984              -0.001069515               0.999999988              -0.000046639              -0.001069680               0.999999988               0.000003306              -0.001067703               0.999999988               0.000059654              -0.001063811               0.999999988               0.000121974              -0.001058750               0.999999988               0.000189223              -0.001053069               0.999999988              -0.000318186              -0.001166486               0.999999988              -0.000225313              -0.001136220               0.999999988              -0.000186175              -0.001117113               0.999999988              -0.000169196              -0.001110793               0.999999988              -0.000161193              -0.001114213               0.999999988              -0.000155745              -0.001124044               0.999999988              -0.000149752              -0.001137684               0.999999988              -0.000140965              -0.001152952               0.999999988              -0.000128424              -0.001168533               0.999999988              -0.000111013              -0.001183247               0.999999988              -0.000087706              -0.001196371               0.999999988              -0.000057810              -0.001207537               0.999999988              -0.000021251              -0.001216747               0.999999988               0.000021840              -0.001224112               0.999999988               0.000071815              -0.001229767               0.999999988               0.000129178              -0.001233994               0.999999988               0.000193970              -0.001237461               0.999999988              -0.000241057              -0.001213207               0.999999988              -0.000167250              -0.001207239               0.999999988              -0.000133759              -0.001199772               0.999999988              -0.000118130              -0.001199308               0.999999988              -0.000110433              -0.001205972               0.999999988              -0.000105438              -0.001218239               0.999999988              -0.000100523              -0.001234509               0.999999988              -0.000093884              -0.001253393               0.999999988              -0.000084801              -0.001273535               0.999999988              -0.000072280              -0.001294008               0.999999988              -0.000055018              -0.001314309               0.999999988              -0.000032254              -0.001333670               0.999999988              -0.000003679              -0.001351735               0.999999988               0.000031024              -0.001368391               0.999999988               0.000072421              -0.001383481               0.999999988               0.000121861              -0.001396980               0.999999988               0.000180790              -0.001409291               0.999999988              -0.000161858              -0.001246970               0.999999988              -0.000110783              -0.001260454               0.999999988              -0.000086187              -0.001263672               0.999999988              -0.000074079              -0.001269151               0.999999988              -0.000067837              -0.001279533               0.999999988              -0.000063871              -0.001294679               0.999999988              -0.000060157              -0.001313697               0.999999988              -0.000055617              -0.001335599               0.999999988              -0.000049751              -0.001359499               0.999999988              -0.000041595              -0.001384751               0.999999988              -0.000030167              -0.001410698               0.999999988              -0.000014858              -0.001436823               0.999999988               0.000004803              -0.001462690               0.999999988               0.000029306              -0.001487856               0.999999988               0.000059329              -0.001511898               0.999999988               0.000096395              -0.001534496               0.999999988               0.000142979              -0.001555413               0.999999988              -0.000081292              -0.001267303               0.999999988              -0.000055192              -0.001293296               0.999999988              -0.000042160              -0.001304122               0.999999988              -0.000035520              -0.001314080               0.999999988              -0.000032006              -0.001327475               0.999999988              -0.000029751              -0.001344922               0.999999988              -0.000027730              -0.001365944               0.999999988              -0.000025442              -0.001390053               0.999999988              -0.000022585              -0.001416656               0.999999988              -0.000018500              -0.001445218               0.999999988              -0.000012760              -0.001475126               0.999999988              -0.000004984              -0.001505888               0.999999988               0.000005227              -0.001537007               0.999999988               0.000017917              -0.001568035               0.999999988               0.000033703              -0.001598509               0.999999988               0.000053797              -0.001627845               0.999999988               0.000079697              -0.001655272               0.999999988               0.000000000              -0.001274179               0.999999988               0.000000000              -0.001304414               0.999999988               0.000000000              -0.001317879               0.999999988               0.000000000              -0.001329502               0.999999988              -0.000000000              -0.001344055               0.999999988               0.000000000              -0.001362378               0.999999988              -0.000000000              -0.001384169               0.999999988              -0.000000000              -0.001409084               0.999999988               0.000000000              -0.001436598               0.999999988               0.000000000              -0.001466374               0.999999988               0.000000000              -0.001497794               0.999999988              -0.000000000              -0.001530250               0.999999988               0.000000000              -0.001563197               0.999999988               0.000000000              -0.001596156               0.999999988               0.000000000              -0.001628807               0.999999988               0.000000000              -0.001660514               0.999999988              -0.000000000              -0.001690331               0.999999988               0.000864340               0.000000000               0.999999988               0.000909986               0.000000000               0.999999988               0.000928875               0.000000000               0.999999988               0.000938946               0.000000000               0.999999988               0.000946881              -0.000000000               0.999999988               0.000955026               0.000000000               0.999999988               0.000964062               0.000000000               0.999999988               0.000974012               0.000000000               0.999999988               0.000984693               0.000000000               0.999999988               0.000995594               0.000000000               0.999999988               0.001006351               0.000000000               0.999999988               0.001016599              -0.000000000               0.999999988               0.001026089              -0.000000000               0.999999988               0.001034413               0.000000000               0.999999988               0.001041120               0.000000000               0.999999988               0.001045776               0.000000000               0.999999988               0.001047549               0.000000000               0.999999988               0.000859769              -0.000119847               0.999999988               0.000901403              -0.000094686               0.999999988               0.000917625              -0.000082882               0.999999988               0.000925944              -0.000077585               0.999999988               0.000932611              -0.000075531               0.999999988               0.000939728              -0.000074889               0.999999988               0.000947843              -0.000074733               0.999999988               0.000956886              -0.000074542               0.999999988               0.000966496              -0.000073650               0.999999988               0.000976217              -0.000071725               0.999999988               0.000985698              -0.000068603               0.999999988               0.000994437              -0.000064017               0.999999988               0.001002041              -0.000057563               0.999999988               0.001008286              -0.000048642               0.999999988               0.001012748              -0.000036731               0.999999988               0.001015008              -0.000021049               0.999999988               0.001014563              -0.000000446               0.999999988               0.000845908              -0.000238680               0.999999988               0.000875929              -0.000188989               0.999999988               0.000884840              -0.000166562               0.999999988               0.000888487              -0.000157024               0.999999988               0.000891878              -0.000153687               0.999999988               0.000896347              -0.000153012               0.999999988               0.000902018              -0.000153222               0.999999988               0.000908511              -0.000153042               0.999999988               0.000915190              -0.000151522               0.999999988               0.000921643              -0.000147992               0.999999988               0.000927325              -0.000141967               0.999999988               0.000931650              -0.000132804               0.999999988               0.000934220              -0.000120102               0.999999988               0.000934769              -0.000103115               0.999999988               0.000933079              -0.000080998               0.999999988               0.000929023              -0.000052817               0.999999988               0.000922485              -0.000016849               0.999999988               0.000822874              -0.000355505               0.999999988               0.000834727              -0.000282797               0.999999988               0.000833150              -0.000251825               0.999999988               0.000830462              -0.000239826               0.999999988               0.000829654              -0.000236509               0.999999988               0.000830733              -0.000236774               0.999999988               0.000833123              -0.000237765               0.999999988               0.000836029              -0.000237898               0.999999988               0.000838679              -0.000235940               0.999999988               0.000840262              -0.000230893               0.999999988               0.000840108              -0.000222013               0.999999988               0.000837693              -0.000208672               0.999999988               0.000832825              -0.000190377               0.999999988               0.000825473              -0.000166569               0.999999988               0.000815453              -0.000136644               0.999999988               0.000802835              -0.000099898               0.999999988               0.000787868              -0.000055420               0.999999988               0.000791153              -0.000469343               0.999999988               0.000779725              -0.000376204               0.999999988               0.000766325              -0.000339429               0.999999988               0.000757347              -0.000326862               0.999999988               0.000752465              -0.000324888               0.999999988               0.000750236              -0.000326749               0.999999988               0.000749278              -0.000329025               0.999999988               0.000748208              -0.000329543               0.999999988               0.000745914              -0.000326945               0.999999988               0.000741383              -0.000320149               0.999999988               0.000734110              -0.000308455               0.999999988               0.000723840              -0.000291077               0.999999988               0.000710446              -0.000267986               0.999999988               0.000693883              -0.000238765               0.999999988               0.000674240              -0.000203212               0.999999988               0.000651813              -0.000161144               0.999999988               0.000627090              -0.000112676               0.999999988               0.000751232              -0.000579243               0.999999988               0.000713566              -0.000469438               0.999999988               0.000689160              -0.000429659               0.999999988               0.000675203              -0.000418176               0.999999988               0.000667523              -0.000418366               0.999999988               0.000662920              -0.000421965               0.999999988               0.000658862              -0.000425382               0.999999988               0.000653474              -0.000425964               0.999999988               0.000645337              -0.000422334               0.999999988               0.000633704              -0.000413679               0.999999988               0.000618222              -0.000399079               0.999999988               0.000598686              -0.000378346               0.999999988               0.000575207              -0.000351190               0.999999988               0.000547948              -0.000317806               0.999999988               0.000517282              -0.000278582               0.999999988               0.000483901              -0.000234180               0.999999988               0.000448875              -0.000185568               0.999999988               0.000703748              -0.000684171               0.999999988               0.000639405              -0.000562714               0.999999988               0.000606544              -0.000522359               0.999999988               0.000590103              -0.000512867               0.999999988               0.000581458              -0.000515232               0.999999988               0.000575119              -0.000520371               0.999999988               0.000567861              -0.000524394               0.999999988               0.000557512              -0.000524527               0.999999988               0.000542739              -0.000519405               0.999999988               0.000522884              -0.000508624               0.999999988               0.000497726              -0.000491377               0.999999988               0.000467565              -0.000467611               0.999999988               0.000432591              -0.000437523               0.999999988               0.000393591              -0.000401633               0.999999988               0.000351527              -0.000361083               0.999999988               0.000307648              -0.000317090               0.999999988               0.000263253              -0.000271852               0.999999988               0.000649704              -0.000782968               0.999999988               0.000560872              -0.000655779               0.999999988               0.000523211              -0.000616682               0.999999988               0.000507070              -0.000609246               0.999999988               0.000498553              -0.000613436               0.999999988               0.000490714              -0.000619602               0.999999988               0.000479904              -0.000623708               0.999999988               0.000463937              -0.000622800               0.999999988               0.000441445              -0.000615838               0.999999988               0.000412181              -0.000602765               0.999999988               0.000376354              -0.000583093               0.999999988               0.000334507              -0.000557038               0.999999988               0.000287610              -0.000525240               0.999999988               0.000236984              -0.000488713               0.999999988               0.000183948              -0.000448933               0.999999988               0.000130003              -0.000407866               0.999999988               0.000076299              -0.000367287               0.999999988               0.000590939              -0.000873719               0.999999988               0.000480731              -0.000748490               0.999999988               0.000443445              -0.000711098               0.999999988               0.000429457              -0.000705251               0.999999988               0.000421642              -0.000710708               0.999999988               0.000412153              -0.000717441               0.999999988               0.000397169              -0.000721019               0.999999988               0.000374482              -0.000718781               0.999999988               0.000343177              -0.000709968               0.999999988               0.000303505              -0.000694760               0.999999988               0.000255932              -0.000673210               0.999999988               0.000201655              -0.000645937               0.999999988               0.000142252              -0.000614108               0.999999988               0.000079223              -0.000579331               0.999999988               0.000014295              -0.000543363               0.999999988              -0.000051011              -0.000507954               0.999999988              -0.000115607              -0.000474068               0.999999988               0.000529915              -0.000959846               0.999999988               0.000413337              -0.000853388               0.999999988               0.000373837              -0.000813199               0.999999988               0.000359517              -0.000803255               0.999999988               0.000352705              -0.000806189               0.999999988               0.000345217              -0.000813138               0.999999988               0.000333354              -0.000819344               0.999999988               0.000315091              -0.000822162               0.999999988               0.000289155              -0.000820299               0.999999988               0.000255188              -0.000813493               0.999999988               0.000213442              -0.000802021               0.999999988               0.000164560              -0.000786029               0.999999988               0.000109658              -0.000766056               0.999999988               0.000049610              -0.000743065               0.999999988              -0.000014580              -0.000718356               0.999999988              -0.000081299              -0.000693267               0.999999988              -0.000148638              -0.000669212               0.999999988               0.000463328              -0.001038591               0.999999988               0.000348285              -0.000955221               0.999999988               0.000306727              -0.000918324               0.999999988               0.000291325              -0.000906576               0.999999988               0.000284518              -0.000908062               0.999999988               0.000278363              -0.000915317               0.999999988               0.000268937              -0.000923904               0.999999988               0.000254482              -0.000931272               0.999999988               0.000233533              -0.000935749               0.999999988               0.000205270              -0.000936627               0.999999988               0.000169474              -0.000933790               0.999999988               0.000126482              -0.000927632               0.999999988               0.000077065              -0.000918288               0.999999988               0.000021519              -0.000906344               0.999999988              -0.000039512              -0.000892335               0.999999988              -0.000104877              -0.000877288               0.999999988              -0.000172998              -0.000862215               0.999999988               0.000392467              -0.001107979               0.999999988               0.000285530              -0.001050935               0.999999988               0.000243900              -0.001021380               0.999999988               0.000227258              -0.001011006               0.999999988               0.000219767              -0.001012597               0.999999988               0.000214196              -0.001020779               0.999999988               0.000206705              -0.001031770               0.999999988               0.000195375              -0.001043211               0.999999988               0.000178902              -0.001053537               0.999999988               0.000156161              -0.001061570               0.999999988               0.000126513              -0.001066906               0.999999988               0.000089984              -0.001069515               0.999999988               0.000046639              -0.001069680               0.999999988              -0.000003306              -0.001067703               0.999999988              -0.000059654              -0.001063811               0.999999988              -0.000121974              -0.001058750               0.999999988              -0.000189223              -0.001053069               0.999999988               0.000318186              -0.001166486               0.999999988               0.000225313              -0.001136220               0.999999988               0.000186175              -0.001117113               0.999999988               0.000169196              -0.001110793               0.999999988               0.000161193              -0.001114213               0.999999988               0.000155745              -0.001124044               0.999999988               0.000149752              -0.001137684               0.999999988               0.000140965              -0.001152952               0.999999988               0.000128424              -0.001168533               0.999999988               0.000111013              -0.001183247               0.999999988               0.000087706              -0.001196371               0.999999988               0.000057810              -0.001207537               0.999999988               0.000021251              -0.001216747               0.999999988              -0.000021840              -0.001224112               0.999999988              -0.000071815              -0.001229767               0.999999988              -0.000129178              -0.001233994               0.999999988              -0.000193970              -0.001237461               0.999999988               0.000241057              -0.001213207               0.999999988               0.000167250              -0.001207239               0.999999988               0.000133759              -0.001199772               0.999999988               0.000118130              -0.001199308               0.999999988               0.000110433              -0.001205972               0.999999988               0.000105438              -0.001218239               0.999999988               0.000100523              -0.001234509               0.999999988               0.000093884              -0.001253393               0.999999988               0.000084801              -0.001273535               0.999999988               0.000072280              -0.001294008               0.999999988               0.000055018              -0.001314309               0.999999988               0.000032254              -0.001333670               0.999999988               0.000003679              -0.001351735               0.999999988              -0.000031024              -0.001368391               0.999999988              -0.000072421              -0.001383481               0.999999988              -0.000121861              -0.001396980               0.999999988              -0.000180790              -0.001409291               0.999999988               0.000161858              -0.001246970               0.999999988               0.000110783              -0.001260454               0.999999988               0.000086187              -0.001263672               0.999999988               0.000074079              -0.001269151               0.999999988               0.000067837              -0.001279533               0.999999988               0.000063871              -0.001294679               0.999999988               0.000060157              -0.001313697               0.999999988               0.000055617              -0.001335599               0.999999988               0.000049751              -0.001359499               0.999999988               0.000041595              -0.001384751               0.999999988               0.000030167              -0.001410698               0.999999988               0.000014858              -0.001436823               0.999999988              -0.000004803              -0.001462690               0.999999988              -0.000029306              -0.001487856               0.999999988              -0.000059329              -0.001511898               0.999999988              -0.000096395              -0.001534496               0.999999988              -0.000142979              -0.001555413               0.999999988               0.000081292              -0.001267303               0.999999988               0.000055192              -0.001293296               0.999999988               0.000042160              -0.001304122               0.999999988               0.000035520              -0.001314080               0.999999988               0.000032006              -0.001327475               0.999999988               0.000029751              -0.001344922               0.999999988               0.000027730              -0.001365944               0.999999988               0.000025442              -0.001390053               0.999999988               0.000022585              -0.001416656               0.999999988               0.000018500              -0.001445218               0.999999988               0.000012760              -0.001475126               0.999999988               0.000004984              -0.001505888               0.999999988              -0.000005227              -0.001537007               0.999999988              -0.000017917              -0.001568035               0.999999988              -0.000033703              -0.001598509               0.999999988              -0.000053797              -0.001627845               0.999999988              -0.000079697              -0.001655272               0.999999988               0.000000000              -0.001274179               0.999999988               0.000000000              -0.001304414               0.999999988               0.000000000              -0.001317879               0.999999988               0.000000000              -0.001329502               0.999999988              -0.000000000              -0.001344055               0.999999988               0.000000000              -0.001362378               0.999999988              -0.000000000              -0.001384169               0.999999988              -0.000000000              -0.001409084               0.999999988               0.000000000              -0.001436598               0.999999988               0.000000000              -0.001466374               0.999999988               0.000000000              -0.001497794               0.999999988              -0.000000000              -0.001530250               0.999999988               0.000000000              -0.001563197               0.999999988               0.000000000              -0.001596156               0.999999988               0.000000000              -0.001628807               0.999999988               0.000000000              -0.001660514               0.999999988              -0.000000000              -0.001690331               0.999999988               0.000864340               0.000000000               0.999999988               0.000909986               0.000000000               0.999999988               0.000928875               0.000000000               0.999999988               0.000938946               0.000000000               0.999999988               0.000946881              -0.000000000               0.999999988               0.000955026               0.000000000               0.999999988               0.000964062               0.000000000               0.999999988               0.000974012               0.000000000               0.999999988               0.000984693               0.000000000               0.999999988               0.000995594               0.000000000               0.999999988               0.001006351               0.000000000               0.999999988               0.001016599              -0.000000000               0.999999988               0.001026089              -0.000000000               0.999999988               0.001034413               0.000000000               0.999999988               0.001041120               0.000000000               0.999999988               0.001045776               0.000000000               0.999999988               0.001047549               0.000000000               0.999999988               0.000859769               0.000119847               0.999999988               0.000901403               0.000094686               0.999999988               0.000917625               0.000082882               0.999999988               0.000925944               0.000077585               0.999999988               0.000932611               0.000075531               0.999999988               0.000939728               0.000074889               0.999999988               0.000947843               0.000074733               0.999999988               0.000956886               0.000074542               0.999999988               0.000966496               0.000073650               0.999999988               0.000976217               0.000071725               0.999999988               0.000985698               0.000068603               0.999999988               0.000994437               0.000064017               0.999999988               0.001002041               0.000057563               0.999999988               0.001008286               0.000048642               0.999999988               0.001012748               0.000036731               0.999999988               0.001015008               0.000021049               0.999999988               0.001014563               0.000000446               0.999999988               0.000845908               0.000238680               0.999999988               0.000875929               0.000188989               0.999999988               0.000884840               0.000166562               0.999999988               0.000888487               0.000157024               0.999999988               0.000891878               0.000153687               0.999999988               0.000896347               0.000153012               0.999999988               0.000902018               0.000153222               0.999999988               0.000908511               0.000153042               0.999999988               0.000915190               0.000151522               0.999999988               0.000921643               0.000147992               0.999999988               0.000927325               0.000141967               0.999999988               0.000931650               0.000132804               0.999999988               0.000934220               0.000120102               0.999999988               0.000934769               0.000103115               0.999999988               0.000933079               0.000080998               0.999999988               0.000929023               0.000052817               0.999999988               0.000922485               0.000016849               0.999999988               0.000822874               0.000355505               0.999999988               0.000834727               0.000282797               0.999999988               0.000833150               0.000251825               0.999999988               0.000830462               0.000239826               0.999999988               0.000829654               0.000236509               0.999999988               0.000830733               0.000236774               0.999999988               0.000833123               0.000237765               0.999999988               0.000836029               0.000237898               0.999999988               0.000838679               0.000235940               0.999999988               0.000840262               0.000230893               0.999999988               0.000840108               0.000222013               0.999999988               0.000837693               0.000208672               0.999999988               0.000832825               0.000190377               0.999999988               0.000825473               0.000166569               0.999999988               0.000815453               0.000136644               0.999999988               0.000802835               0.000099898               0.999999988               0.000787868               0.000055420               0.999999988               0.000791153               0.000469343               0.999999988               0.000779725               0.000376204               0.999999988               0.000766325               0.000339429               0.999999988               0.000757347               0.000326862               0.999999988               0.000752465               0.000324888               0.999999988               0.000750236               0.000326749               0.999999988               0.000749278               0.000329025               0.999999988               0.000748208               0.000329543               0.999999988               0.000745914               0.000326945               0.999999988               0.000741383               0.000320149               0.999999988               0.000734110               0.000308455               0.999999988               0.000723840               0.000291077               0.999999988               0.000710446               0.000267986               0.999999988               0.000693883               0.000238765               0.999999988               0.000674240               0.000203212               0.999999988               0.000651813               0.000161144               0.999999988               0.000627090               0.000112676               0.999999988               0.000751232               0.000579243               0.999999988               0.000713566               0.000469438               0.999999988               0.000689160               0.000429659               0.999999988               0.000675203               0.000418176               0.999999988               0.000667523               0.000418366               0.999999988               0.000662920               0.000421965               0.999999988               0.000658862               0.000425382               0.999999988               0.000653474               0.000425964               0.999999988               0.000645337               0.000422334               0.999999988               0.000633704               0.000413679               0.999999988               0.000618222               0.000399079               0.999999988               0.000598686               0.000378346               0.999999988               0.000575207               0.000351190               0.999999988               0.000547948               0.000317806               0.999999988               0.000517282               0.000278582               0.999999988               0.000483901               0.000234180               0.999999988               0.000448875               0.000185568               0.999999988               0.000703748               0.000684171               0.999999988               0.000639405               0.000562714               0.999999988               0.000606544               0.000522359               0.999999988               0.000590103               0.000512867               0.999999988               0.000581458               0.000515232               0.999999988               0.000575119               0.000520371               0.999999988               0.000567861               0.000524394               0.999999988               0.000557512               0.000524527               0.999999988               0.000542739               0.000519405               0.999999988               0.000522884               0.000508624               0.999999988               0.000497726               0.000491377               0.999999988               0.000467565               0.000467611               0.999999988               0.000432591               0.000437523               0.999999988               0.000393591               0.000401633               0.999999988               0.000351527               0.000361083               0.999999988               0.000307648               0.000317090               0.999999988               0.000263253               0.000271852               0.999999988               0.000649704               0.000782968               0.999999988               0.000560872               0.000655779               0.999999988               0.000523211               0.000616682               0.999999988               0.000507070               0.000609246               0.999999988               0.000498553               0.000613436               0.999999988               0.000490714               0.000619602               0.999999988               0.000479904               0.000623708               0.999999988               0.000463937               0.000622800               0.999999988               0.000441445               0.000615838               0.999999988               0.000412181               0.000602765               0.999999988               0.000376354               0.000583093               0.999999988               0.000334507               0.000557038               0.999999988               0.000287610               0.000525240               0.999999988               0.000236984               0.000488713               0.999999988               0.000183948               0.000448933               0.999999988               0.000130003               0.000407866               0.999999988               0.000076299               0.000367287               0.999999988               0.000590939               0.000873719               0.999999988               0.000480731               0.000748490               0.999999988               0.000443445               0.000711098               0.999999988               0.000429457               0.000705251               0.999999988               0.000421642               0.000710708               0.999999988               0.000412153               0.000717441               0.999999988               0.000397169               0.000721019               0.999999988               0.000374482               0.000718781               0.999999988               0.000343177               0.000709968               0.999999988               0.000303505               0.000694760               0.999999988               0.000255932               0.000673210               0.999999988               0.000201655               0.000645937               0.999999988               0.000142252               0.000614108               0.999999988               0.000079223               0.000579331               0.999999988               0.000014295               0.000543363               0.999999988              -0.000051011               0.000507954               0.999999988              -0.000115607               0.000474068               0.999999988               0.000529915               0.000959846               0.999999988               0.000413337               0.000853388               0.999999988               0.000373837               0.000813199               0.999999988               0.000359517               0.000803255               0.999999988               0.000352705               0.000806189               0.999999988               0.000345217               0.000813138               0.999999988               0.000333354               0.000819344               0.999999988               0.000315091               0.000822162               0.999999988               0.000289155               0.000820299               0.999999988               0.000255188               0.000813493               0.999999988               0.000213442               0.000802021               0.999999988               0.000164560               0.000786029               0.999999988               0.000109658               0.000766056               0.999999988               0.000049610               0.000743065               0.999999988              -0.000014580               0.000718356               0.999999988              -0.000081299               0.000693267               0.999999988              -0.000148638               0.000669212               0.999999988               0.000463328               0.001038591               0.999999988               0.000348285               0.000955221               0.999999988               0.000306727               0.000918324               0.999999988               0.000291325               0.000906576               0.999999988               0.000284518               0.000908062               0.999999988               0.000278363               0.000915317               0.999999988               0.000268937               0.000923904               0.999999988               0.000254482               0.000931272               0.999999988               0.000233533               0.000935749               0.999999988               0.000205270               0.000936627               0.999999988               0.000169474               0.000933790               0.999999988               0.000126482               0.000927632               0.999999988               0.000077065               0.000918288               0.999999988               0.000021519               0.000906344               0.999999988              -0.000039512               0.000892335               0.999999988              -0.000104877               0.000877288               0.999999988              -0.000172998               0.000862215               0.999999988               0.000392467               0.001107979               0.999999988               0.000285530               0.001050935               0.999999988               0.000243900               0.001021380               0.999999988               0.000227258               0.001011006               0.999999988               0.000219767               0.001012597               0.999999988               0.000214196               0.001020779               0.999999988               0.000206705               0.001031770               0.999999988               0.000195375               0.001043211               0.999999988               0.000178902               0.001053537               0.999999988               0.000156161               0.001061570               0.999999988               0.000126513               0.001066906               0.999999988               0.000089984               0.001069515               0.999999988               0.000046639               0.001069680               0.999999988              -0.000003306               0.001067703               0.999999988              -0.000059654               0.001063811               0.999999988              -0.000121974               0.001058750               0.999999988              -0.000189223               0.001053069               0.999999988               0.000318186               0.001166486               0.999999988               0.000225313               0.001136220               0.999999988               0.000186175               0.001117113               0.999999988               0.000169196               0.001110793               0.999999988               0.000161193               0.001114213               0.999999988               0.000155745               0.001124044               0.999999988               0.000149752               0.001137684               0.999999988               0.000140965               0.001152952               0.999999988               0.000128424               0.001168533               0.999999988               0.000111013               0.001183247               0.999999988               0.000087706               0.001196371               0.999999988               0.000057810               0.001207537               0.999999988               0.000021251               0.001216747               0.999999988              -0.000021840               0.001224112               0.999999988              -0.000071815               0.001229767               0.999999988              -0.000129178               0.001233994               0.999999988              -0.000193970               0.001237461               0.999999988               0.000241057               0.001213207               0.999999988               0.000167250               0.001207239               0.999999988               0.000133759               0.001199772               0.999999988               0.000118130               0.001199308               0.999999988               0.000110433               0.001205972               0.999999988               0.000105438               0.001218239               0.999999988               0.000100523               0.001234509               0.999999988               0.000093884               0.001253393               0.999999988               0.000084801               0.001273535               0.999999988               0.000072280               0.001294008               0.999999988               0.000055018               0.001314309               0.999999988               0.000032254               0.001333670               0.999999988               0.000003679               0.001351735               0.999999988              -0.000031024               0.001368391               0.999999988              -0.000072421               0.001383481               0.999999988              -0.000121861               0.001396980               0.999999988              -0.000180790               0.001409291               0.999999988               0.000161858               0.001246970               0.999999988               0.000110783               0.001260454               0.999999988               0.000086187               0.001263672               0.999999988               0.000074079               0.001269151               0.999999988               0.000067837               0.001279533               0.999999988               0.000063871               0.001294679               0.999999988               0.000060157               0.001313697               0.999999988               0.000055617               0.001335599               0.999999988               0.000049751               0.001359499               0.999999988               0.000041595               0.001384751               0.999999988               0.000030167               0.001410698               0.999999988               0.000014858               0.001436823               0.999999988              -0.000004803               0.001462690               0.999999988              -0.000029306               0.001487856               0.999999988              -0.000059329               0.001511898               0.999999988              -0.000096395               0.001534496               0.999999988              -0.000142979               0.001555413               0.999999988               0.000081292               0.001267303               0.999999988               0.000055192               0.001293296               0.999999988               0.000042160               0.001304122               0.999999988               0.000035520               0.001314080               0.999999988               0.000032006               0.001327475               0.999999988               0.000029751               0.001344922               0.999999988               0.000027730               0.001365944               0.999999988               0.000025442               0.001390053               0.999999988               0.000022585               0.001416656               0.999999988               0.000018500               0.001445218               0.999999988               0.000012760               0.001475126               0.999999988               0.000004984               0.001505888               0.999999988              -0.000005227               0.001537007               0.999999988              -0.000017917               0.001568035               0.999999988              -0.000033703               0.001598509               0.999999988              -0.000053797               0.001627845               0.999999988              -0.000079697               0.001655272               0.999999988               0.000000000               0.001274179               0.999999988              -0.000000000               0.001304414               0.999999988               0.000000000               0.001317879               0.999999988              -0.000000000               0.001329502               0.999999988              -0.000000000               0.001344055               0.999999988              -0.000000000               0.001362378               0.999999988              -0.000000000               0.001384169               0.999999988              -0.000000000               0.001409084               0.999999988               0.000000000               0.001436598               0.999999988              -0.000000000               0.001466374               0.999999988              -0.000000000               0.001497794               0.999999988              -0.000000000               0.001530250               0.999999988              -0.000000000               0.001563197               0.999999988               0.000000000               0.001596156               0.999999988              -0.000000000               0.001628807               0.999999988              -0.000000000               0.001660514               0.999999988              -0.000000000               0.001690331               0.999999988 </DataArray>
<DataArray type="Float64"                                    Name="defo"                                                      NumberOfComponents=" 3" format="ascii">
             -0.000864340               0.000000000               0.999999988              -0.000909986               0.000000000               0.999999988              -0.000928875               0.000000000               0.999999988              -0.000938946               0.000000000               0.999999988              -0.000946881              -0.000000000               0.999999988              -0.000955026               0.000000000               0.999999988              -0.000964062               0.000000000               0.999999988              -0.000974012               0.000000000               0.999999988              -0.000984693               0.000000000               0.999999988              -0.000995594               0.000000000               0.999999988              -0.001006351              -0.000000000               0.999999988              -0.001016599               0.000000000               0.999999988              -0.001026089              -0.000000000               0.999999988              -0.001034413              -0.000000000               0.999999988              -0.001041120               0.000000000               0.999999988              -0.001045776              -0.000000000               0.999999988              -0.001047549              -0.000000000               0.999999988              -0.000859769               0.000119847               0.999999988              -0.000901403               0.000094686               0.999999988              -0.000917625               0.000082882               0.999999988              -0.000925944               0.000077585               0.999999988              -0.000932611               0.000075531               0.999999988              -0.000939728               0.000074889               0.999999988              -0.000947843               0.000074733               0.999999988              -0.000956886               0.000074542               0.999999988              -0.000966496               0.000073650               0.999999988              -0.000976217               0.000071725               0.999999988              -0.000985698               0.000068603               0.999999988              -0.000994437               0.000064017               0.999999988              -0.001002041               0.000057563               0.999999988              -0.001008286               0.000048642               0.999999988              -0.001012748               0.000036731               0.999999988              -0.001015008               0.000021049               0.999999988              -0.001014563               0.000000446               0.999999988              -0.000845908               0.000238680               0.999999988              -0.000875929               0.000188989               0.999999988              -0.000884840               0.000166562               0.999999988              -0.000888487               0.000157024               0.999999988              -0.000891878               0.000153687               0.999999988              -0.000896347               0.000153012               0.999999988              -0.000902018               0.000153222               0.999999988              -0.000908511               0.000153042               0.999999988              -0.000915190               0.000151522               0.999999988              -0.000921643               0.000147992               0.999999988              -0.000927325               0.000141967               0.999999988              -0.000931650               0.000132804               0.999999988              -0.000934220               0.000120102               0.999999988              -0.000934769               0.000103115               0.999999988              -0.000933079               0.000080998               0.999999988              -0.000929023               0.000052817               0.999999988              -0.000922485               0.000016849               0.999999988              -0.000822874               0.000355505               0.999999988              -0.000834727               0.000282797               0.999999988              -0.000833150               0.000251825               0.999999988              -0.000830462               0.000239826               0.999999988              -0.000829654               0.000236509               0.999999988              -0.000830733               0.000236774               0.999999988              -0.000833123               0.000237765               0.999999988              -0.000836029               0.000237898               0.999999988              -0.000838679               0.000235940               0.999999988              -0.000840262               0.000230893               0.999999988              -0.000840108               0.000222013               0.999999988              -0.000837693               0.000208672               0.999999988              -0.000832825               0.000190377               0.999999988              -0.000825473               0.000166569               0.999999988              -0.000815453               0.000136644               0.999999988              -0.000802835               0.000099898               0.999999988              -0.000787868               0.000055420               0.999999988              -0.000791153               0.000469343               0.999999988              -0.000779725               0.000376204               0.999999988              -0.000766325               0.000339429               0.999999988              -0.000757347               0.000326862               0.999999988              -0.000752465               0.000324888               0.999999988              -0.000750236               0.000326749               0.999999988              -0.000749278               0.000329025               0.999999988              -0.000748208               0.000329543               0.999999988              -0.000745914               0.000326945               0.999999988              -0.000741383               0.000320149               0.999999988              -0.000734110               0.000308455               0.999999988              -0.000723840               0.000291077               0.999999988              -0.000710446               0.000267986               0.999999988              -0.000693883               0.000238765               0.999999988              -0.000674240               0.000203212               0.999999988              -0.000651813               0.000161144               0.999999988              -0.000627090               0.000112676               0.999999988              -0.000751232               0.000579243               0.999999988              -0.000713566               0.000469438               0.999999988              -0.000689160               0.000429659               0.999999988              -0.000675203               0.000418176               0.999999988              -0.000667523               0.000418366               0.999999988              -0.000662920               0.000421965               0.999999988              -0.000658862               0.000425382               0.999999988              -0.000653474               0.000425964               0.999999988              -0.000645337               0.000422334               0.999999988              -0.000633704               0.000413679               0.999999988              -0.000618222               0.000399079               0.999999988              -0.000598686               0.000378346               0.999999988              -0.000575207               0.000351190               0.999999988              -0.000547948               0.000317806               0.999999988              -0.000517282               0.000278582               0.999999988              -0.000483901               0.000234180               0.999999988              -0.000448875               0.000185568               0.999999988              -0.000703748               0.000684171               0.999999988              -0.000639405               0.000562714               0.999999988              -0.000606544               0.000522359               0.999999988              -0.000590103               0.000512867               0.999999988              -0.000581458               0.000515232               0.999999988              -0.000575119               0.000520371               0.999999988              -0.000567861               0.000524394               0.999999988              -0.000557512               0.000524527               0.999999988              -0.000542739               0.000519405               0.999999988              -0.000522884               0.000508624               0.999999988              -0.000497726               0.000491377               0.999999988              -0.000467565               0.000467611               0.999999988              -0.000432591               0.000437523               0.999999988              -0.000393591               0.000401633               0.999999988              -0.000351527               0.000361083               0.999999988              -0.000307648               0.000317090               0.999999988              -0.000263253               0.000271852               0.999999988              -0.000649704               0.000782968               0.999999988              -0.000560872               0.000655779               0.999999988              -0.000523211               0.000616682               0.999999988              -0.000507070               0.000609246               0.999999988              -0.000498553               0.000613436               0.999999988              -0.000490714               0.000619602               0.999999988              -0.000479904               0.000623708               0.999999988              -0.000463937               0.000622800               0.999999988              -0.000441445               0.000615838               0.999999988              -0.000412181               0.000602765               0.999999988              -0.000376354               0.000583093               0.999999988              -0.000334507               0.000557038               0.999999988              -0.000287610               0.000525240               0.999999988              -0.000236984               0.000488713               0.999999988              -0.000183948               0.000448933               0.999999988              -0.000130003               0.000407866               0.999999988              -0.000076299               0.000367287               0.999999988              -0.000590939               0.000873719               0.999999988              -0.000480731               0.000748490               0.999999988              -0.000443445               0.000711098               0.999999988              -0.000429457               0.000705251               0.999999988              -0.000421642               0.000710708               0.999999988              -0.000412153               0.000717441               0.999999988              -0.000397169               0.000721019               0.999999988              -0.000374482               0.000718781               0.999999988              -0.000343177               0.000709968               0.999999988              -0.000303505               0.000694760               0.999999988              -0.000255932               0.000673210               0.999999988              -0.000201655               0.000645937               0.999999988              -0.000142252               0.000614108               0.999999988              -0.000079223               0.000579331               0.999999988              -0.000014295               0.000543363               0.999999988               0.000051011               0.000507954               0.999999988               0.000115607               0.000474068               0.999999988              -0.000529915               0.000959846               0.999999988              -0.000413337               0.000853388               0.999999988              -0.000373837               0.000813199               0.999999988              -0.000359517               0.000803255               0.999999988              -0.000352705               0.000806189               0.999999988              -0.000345217               0.000813138               0.999999988              -0.000333354               0.000819344               0.999999988              -0.000315091               0.000822162               0.999999988              -0.000289155               0.000820299               0.999999988              -0.000255188               0.000813493               0.999999988              -0.000213442               0.000802021               0.999999988              -0.000164560               0.000786029               0.999999988              -0.000109658               0.000766056               0.999999988              -0.000049610               0.000743065               0.999999988               0.000014580               0.000718356               0.999999988               0.000081299               0.000693267               0.999999988               0.000148638               0.000669212               0.999999988              -0.000463328               0.001038591               0.999999988              -0.000348285               0.000955221               0.999999988              -0.000306727               0.000918324               0.999999988              -0.000291325               0.000906576               0.999999988              -0.000284518               0.000908062               0.999999988              -0.000278363               0.000915317               0.999999988              -0.000268937               0.000923904               0.999999988              -0.000254482               0.000931272               0.999999988              -0.000233533               0.000935749               0.999999988              -0.000205270               0.000936627               0.999999988              -0.000169474               0.000933790               0.999999988              -0.000126482               0.000927632               0.999999988              -0.000077065               0.000918288               0.999999988              -0.000021519               0.000906344               0.999999988               0.000039512               0.000892335               0.999999988               0.000104877               0.000877288               0.999999988               0.000172998               0.000862215               0.999999988              -0.000392467               0.001107979               0.999999988              -0.000285530               0.001050935               0.999999988              -0.000243900               0.001021380               0.999999988              -0.000227258               0.001011006               0.999999988              -0.000219767               0.001012597               0.999999988              -0.000214196               0.001020779               0.999999988              -0.000206705               0.001031770               0.999999988              -0.000195375               0.001043211               0.999999988              -0.000178902               0.001053537               0.999999988              -0.000156161               0.001061570               0.999999988              -0.000126513               0.001066906               0.999999988              -0.000089984               0.001069515               0.999999988              -0.000046639               0.001069680               0.999999988               0.000003306               0.001067703               0.999999988               0.000059654               0.001063811               0.999999988               0.000121974               0.001058750               0.999999988               0.000189223               0.001053069               0.999999988              -0.000318186               0.001166486               0.999999988              -0.000225313               0.001136220               0.999999988              -0.000186175               0.001117113               0.999999988              -0.000169196               0.001110793               0.999999988              -0.000161193               0.001114213               0.999999988              -0.000155745               0.001124044               0.999999988              -0.000149752               0.001137684               0.999999988              -0.000140965               0.001152952               0.999999988              -0.000128424               0.001168533               0.999999988              -0.000111013               0.001183247               0.999999988              -0.000087706               0.001196371               0.999999988              -0.000057810               0.001207537               0.999999988              -0.000021251               0.001216747               0.999999988               0.000021840               0.001224112               0.999999988               0.000071815               0.001229767               0.999999988               0.000129178               0.001233994               0.999999988               0.000193970               0.001237461               0.999999988              -0.000241057               0.001213207               0.999999988              -0.000167250               0.001207239               0.999999988              -0.000133759               0.001199772               0.999999988              -0.000118130               0.001199308               0.999999988              -0.000110433               0.001205972               0.999999988              -0.000105438               0.001218239               0.999999988              -0.000100523               0.001234509               0.999999988              -0.000093884               0.001253393               0.999999988              -0.000084801               0.001273535               0.999999988              -0.000072280               0.001294008               0.999999988              -0.000055018               0.001314309               0.999999988              -0.000032254               0.001333670               0.999999988              -0.000003679               0.001351735               0.999999988               0.000031024               0.001368391               0.999999988               0.000072421               0.001383481               0.999999988               0.000121861               0.001396980               0.999999988               0.000180790               0.001409291               0.999999988              -0.000161858               0.001246970               0.999999988              -0.000110783               0.001260454               0.999999988              -0.000086187               0.001263672               0.999999988              -0.000074079               0.001269151               0.999999988              -0.000067837               0.001279533               0.999999988              -0.000063871               0.001294679               0.999999988              -0.000060157               0.001313697               0.999999988              -0.000055617               0.001335599               0.999999988              -0.000049751               0.001359499               0.999999988              -0.000041595               0.001384751               0.999999988              -0.000030167               0.001410698               0.999999988              -0.000014858               0.001436823               0.999999988               0.000004803               0.001462690               0.999999988               0.000029306               0.001487856               0.999999988               0.000059329               0.001511898               0.999999988               0.000096395               0.001534496               0.999999988               0.000142979               0.001555413               0.999999988              -0.000081292               0.001267303               0.999999988              -0.000055192               0.001293296               0.999999988              -0.000042160               0.001304122               0.999999988              -0.000035520               0.001314080               0.999999988              -0.000032006               0.001327475               0.999999988              -0.000029751               0.001344922               0.999999988              -0.000027730               0.001365944               0.999999988              -0.000025442               0.001390053               0.999999988              -0.000022585               0.001416656               0.999999988              -0.000018500               0.001445218               0.999999988              -0.000012760               0.001475126               0.999999988              -0.000004984               0.001505888               0.999999988               0.000005227               0.001537007               0.999999988               0.000017917               0.001568035               0.999999988               0.000033703               0.001598509               0.999999988               0.000053797               0.001627845               0.999999988               0.000079697               0.001655272               0.999999988               0.000000000               0.001274179               0.999999988              -0.000000000               0.001304414               0.999999988               0.000000000               0.001317879               0.999999988              -0.000000000               0.001329502               0.999999988              -0.000000000               0.001344055               0.999999988              -0.000000000               0.001362378               0.999999988              -0.000000000               0.001384169               0.999999988              -0.000000000               0.001409084               0.999999988               0.000000000               0.001436598               0.999999988              -0.000000000               0.001466374               0.999999988              -0.000000000               0.001497794               0.999999988              -0.000000000               0.001530250               0.999999988              -0.000000000               0.001563197               0.999999988               0.000000000               0.001596156               0.999999988              -0.000000000               0.001628807               0.999999988              -0.000000000               0.001660514               0.999999988              -0.000000000               0.001690331               0.999999988              -0.000864340               0.000000000               0.999999988              -0.000909986               0.000000000               0.999999988              -0.000928875               0.000000000               0.999999988              -0.000938946               0.000000000               0.999999988              -0.000946881              -0.000000000               0.999999988              -0.000955026               0.000000000               0.999999988              -0.000964062               0.000000000               0.999999988              -0.000974012               0.000000000               0.999999988              -0.000984693               0.000000000               0.999999988              -0.000995594               0.000000000               0.999999988              -0.001006351              -0.000000000               0.999999988              -0.001016599               0.000000000               0.999999988              -0.001026089              -0.000000000               0.999999988              -0.001034413              -0.000000000               0.999999988              -0.001041120               0.000000000               0.999999988              -0.001045776              -0.000000000               0.999999988              -0.001047549              -0.000000000               0.999999988              -0.000859769              -0.000119847               0.999999988              -0.000901403              -0.000094686               0.999999988              -0.000917625              -0.000082882               0.999999988              -0.000925944              -0.000077585               0.999999988              -0.000932611              -0.000075531               0.999999988              -0.000939728              -0.000074889               0.999999988              -0.000947843              -0.000074733               0.999999988              -0.000956886              -0.000074542               0.999999988              -0.000966496              -0.000073650               0.999999988              -0.000976217              -0.000071725               0.999999988              -0.000985698              -0.000068603               0.999999988              -0.000994437              -0.000064017               0.999999988              -0.001002041              -0.000057563               0.999999988              -0.001008286              -0.000048642               0.999999988              -0.001012748              -0.000036731               0.999999988              -0.001015008              -0.000021049               0.999999988              -0.001014563              -0.000000446               0.999999988              -0.000845908              -0.000238680               0.999999988              -0.000875929              -0.000188989               0.999999988              -0.000884840              -0.000166562               0.999999988              -0.000888487              -0.000157024               0.999999988              -0.000891878              -0.000153687               0.999999988              -0.000896347              -0.000153012               0.999999988              -0.000902018              -0.000153222               0.999999988              -0.000908511              -0.000153042               0.999999988              -0.000915190              -0.000151522               0.999999988              -0.000921643              -0.000147992               0.999999988              -0.000927325              -0.000141967               0.999999988              -0.000931650              -0.000132804               0.999999988              -0.000934220              -0.000120102               0.999999988              -0.000934769              -0.000103115               0.999999988              -0.000933079              -0.000080998               0.999999988              -0.000929023              -0.000052817               0.999999988              -0.000922485              -0.000016849               0.999999988              -0.000822874              -0.000355505               0.999999988              -0.000834727              -0.000282797               0.999999988              -0.000833150              -0.000251825               0.999999988              -0.000830462              -0.000239826               0.999999988              -0.000829654              -0.000236509               0.999999988              -0.000830733              -0.000236774               0.999999988              -0.000833123              -0.000237765               0.999999988              -0.000836029              -0.000237898               0.999999988              -0.000838679              -0.000235940               0.999999988              -0.000840262              -0.000230893               0.999999988              -0.000840108              -0.000222013               0.999999988              -0.000837693              -0.000208672               0.999999988              -0.000832825              -0.000190377               0.999999988              -0.000825473              -0.000166569               0.999999988              -0.000815453              -0.000136644               0.999999988              -0.000802835              -0.000099898               0.999999988              -0.000787868              -0.000055420               0.999999988              -0.000791153              -0.000469343               0.999999988              -0.000779725              -0.000376204               0.999999988              -0.000766325              -0.000339429               0.999999988              -0.000757347              -0.000326862               0.999999988              -0.000752465              -0.000324888               0.999999988              -0.000750236              -0.000326749               0.999999988              -0.000749278              -0.000329025               0.999999988              -0.000748208              -0.000329543               0.999999988              -0.000745914              -0.000326945               0.999999988              -0.000741383              -0.000320149               0.999999988              -0.000734110              -0.000308455               0.999999988              -0.000723840              -0.000291077               0.999999988              -0.000710446              -0.000267986               0.999999988              -0.000693883              -0.000238765               0.999999988              -0.000674240              -0.000203212               0.999999988              -0.000651813              -0.000161144               0.999999988              -0.000627090              -0.000112676               0.999999988              -0.000751232              -0.000579243               0.999999988              -0.000713566              -0.000469438               0.999999988              -0.000689160              -0.000429659               0.999999988              -0.000675203              -0.000418176               0.999999988              -0.000667523              -0.000418366               0.999999988              -0.000662920              -0.000421965               0.999999988              -0.000658862              -0.000425382               0.999999988              -0.000653474              -0.000425964               0.999999988              -0.000645337              -0.000422334               0.999999988              -0.000633704              -0.000413679               0.999999988              -0.000618222              -0.000399079               0.999999988              -0.000598686              -0.000378346               0.999999988              -0.000575207              -0.000351190               0.999999988              -0.000547948              -0.000317806               0.999999988              -0.000517282              -0.000278582               0.999999988              -0.000483901              -0.000234180               0.999999988              -0.000448875              -0.000185568               0.999999988              -0.000703748              -0.000684171               0.999999988              -0.000639405              -0.000562714               0.999999988              -0.000606544              -0.000522359               0.999999988              -0.000590103              -0.000512867               0.999999988              -0.000581458              -0.000515232               0.999999988              -0.000575119              -0.000520371               0.999999988              -0.000567861              -0.000524394               0.999999988              -0.000557512              -0.000524527               0.999999988              -0.000542739              -0.000519405               0.999999988              -0.000522884              -0.000508624               0.999999988              -0.000497726              -0.000491377               0.999999988              -0.000467565              -0.000467611               0.999999988              -0.000432591              -0.000437523               0.999999988              -0.000393591              -0.000401633               0.999999988              -0.000351527              -0.000361083               0.999999988              -0.000307648              -0.000317090               0.999999988              -0.000263253              -0.000271852               0.999999988              -0.000649704              -0.000782968               0.999999988              -0.000560872              -0.000655779               0.999999988              -0.000523211              -0.000616682               0.999999988              -0.000507070              -0.000609246               0.999999988              -0.000498553              -0.000613436               0.999999988              -0.000490714              -0.000619602               0.999999988              -0.000479904              -0.000623708               0.999999988              -0.000463937              -0.000622800               0.999999988              -0.000441445              -0.000615838               0.999999988              -0.000412181              -0.000602765               0.999999988              -0.000376354              -0.000583093               0.999999988              -0.000334507              -0.000557038               0.999999988              -0.000287610              -0.000525240               0.999999988              -0.000236984              -0.000488713               0.999999988              -0.000183948              -0.000448933               0.999999988              -0.000130003              -0.000407866               0.999999988              -0.000076299              -0.000367287               0.999999988              -0.000590939              -0.000873719               0.999999988              -0.000480731              -0.000748490               0.999999988              -0.000443445              -0.000711098               0.999999988              -0.000429457              -0.000705251               0.999999988              -0.000421642              -0.000710708               0.999999988              -0.000412153              -0.000717441               0.999999988              -0.000397169              -0.000721019               0.999999988              -0.000374482              -0.000718781               0.999999988              -0.000343177              -0.000709968               0.999999988              -0.000303505              -0.000694760               0.999999988              -0.000255932              -0.000673210               0.999999988              -0.000201655              -0.000645937               0.999999988              -0.000142252              -0.000614108               0.999999988              -0.000079223              -0.000579331               0.999999988              -0.000014295              -0.000543363               0.999999988               0.000051011              -0.000507954               0.999999988               0.000115607              -0.000474068               0.999999988              -0.000529915              -0.000959846               0.999999988              -0.000413337              -0.000853388               0.999999988              -0.000373837              -0.000813199               0.999999988              -0.000359517              -0.000803255               0.999999988              -0.000352705              -0.000806189               0.999999988              -0.000345217              -0.000813138               0.999999988              -0.000333354              -0.000819344               0.999999988              -0.000315091              -0.000822162               0.999999988              -0.000289155              -0.000820299               0.999999988              -0.000255188              -0.000813493               0.999999988              -0.000213442              -0.000802021               0.999999988              -0.000164560              -0.000786029               0.999999988              -0.000109658              -0.000766056               0.999999988              -0.000049610              -0.000743065               0.999999988               0.000014580              -0.000718356               0.999999988               0.000081299              -0.000693267               0.999999988               0.000148638              -0.000669212               0.999999988              -0.000463328              -0.001038591               0.999999988              -0.000348285              -0.000955221               0.999999988              -0.000306727              -0.000918324               0.999999988              -0.000291325              -0.000906576               0.999999988              -0.000284518              -0.000908062               0.999999988              -0.000278363              -0.000915317               0.999999988              -0.000268937              -0.000923904               0.999999988              -0.000254482              -0.000931272               0.999999988              -0.000233533              -0.000935749               0.999999988              -0.000205270              -0.000936627               0.999999988              -0.000169474              -0.000933790               0.999999988              -0.000126482              -0.000927632               0.999999988              -0.000077065              -0.000918288               0.999999988              -0.000021519              -0.000906344               0.999999988               0.000039512              -0.000892335               0.999999988               0.000104877              -0.000877288               0.999999988               0.000172998              -0.000862215               0.999999988              -0.000392467              -0.001107979               0.999999988              -0.000285530              -0.001050935               0.999999988              -0.000243900              -0.001021380               0.999999988              -0.000227258              -0.001011006               0.999999988              -0.000219767              -0.001012597               0.999999988              -0.000214196              -0.001020779               0.999999988              -0.000206705              -0.001031770               0.999999988              -0.000195375              -0.001043211               0.999999988              -0.000178902              -0.001053537               0.999999988              -0.000156161              -0.001061570               0.999999988              -0.000126513              -0.001066906               0.999999988              -0.000089984              -0.001069515               0.999999988              -0.000046639              -0.001069680               0.999999988               0.000003306              -0.001067703               0.999999988               0.000059654              -0.001063811               0.999999988               0.000121974              -0.001058750               0.999999988               0.000189223              -0.001053069               0.999999988              -0.000318186              -0.001166486               0.999999988              -0.000225313              -0.001136220               0.999999988              -0.000186175              -0.001117113               0.999999988              -0.000169196              -0.001110793               0.999999988              -0.000161193              -0.001114213               0.999999988              -0.000155745              -0.001124044               0.999999988              -0.000149752              -0.001137684               0.999999988              -0.000140965              -0.001152952               0.999999988              -0.000128424              -0.001168533               0.999999988              -0.000111013              -0.001183247               0.999999988              -0.000087706              -0.001196371               0.999999988              -0.000057810              -0.001207537               0.999999988              -0.000021251              -0.001216747               0.999999988               0.000021840              -0.001224112               0.999999988               0.000071815              -0.001229767               0.999999988               0.000129178              -0.001233994               0.999999988               0.000193970              -0.001237461               0.999999988              -0.000241057              -0.001213207               0.999999988              -0.000167250              -0.001207239               0.999999988              -0.000133759              -0.001199772               0.999999988              -0.000118130              -0.001199308               0.999999988              -0.000110433              -0.001205972               0.999999988              -0.000105438              -0.001218239               0.999999988              -0.000100523              -0.001234509               0.999999988              -0.000093884              -0.001253393               0.999999988              -0.000084801              -0.001273535               0.999999988              -0.000072280              -0.001294008               0.999999988              -0.000055018              -0.001314309               0.999999988              -0.000032254              -0.001333670               0.999999988              -0.000003679              -0.001351735               0.999999988               0.000031024              -0.001368391               0.999999988               0.000072421              -0.001383481               0.999999988               0.000121861              -0.001396980               0.999999988               0.000180790              -0.001409291               0.999999988              -0.000161858              -0.001246970               0.999999988              -0.000110783              -0.001260454               0.999999988              -0.000086187              -0.001263672               0.999999988              -0.000074079              -0.001269151               0.999999988              -0.000067837              -0.001279533               0.999999988              -0.000063871              -0.001294679               0.999999988              -0.000060157              -0.001313697               0.999999988              -0.000055617              -0.001335599               0.999999988              -0.000049751              -0.001359499               0.999999988              -0.000041595              -0.001384751               0.999999988              -0.000030167              -0.001410698               0.999999988              -0.000014858              -0.001436823               0.999999988               0.000004803              -0.001462690               0.999999988               0.000029306              -0.001487856               0.999999988               0.000059329              -0.001511898               0.999999988               0.000096395              -0.001534496               0.999999988               0.000142979              -0.001555413               0.999999988              -0.000081292              -0.001267303               0.999999988              -0.000055192              -0.001293296               0.999999988              -0.000042160              -0.001304122               0.999999988              -0.000035520              -0.001314080               0.999999988              -0.000032006              -0.001327475               0.999999988              -0.000029751              -0.001344922               0.999999988              -0.000027730              -0.001365944               0.999999988              -0.000025442              -0.001390053               0.999999988              -0.000022585              -0.001416656               0.999999988              -0.000018500              -0.001445218               0.999999988              -0.000012760              -0.001475126               0.999999988              -0.000004984              -0.001505888               0.999999988               0.000005227              -0.001537007               0.999999988               0.000017917              -0.001568035               0.999999988               0.000033703              -0.001598509               0.999999988               0.000053797              -0.001627845               0.999999988               0.000079697              -0.001655272               0.999999988               0.000000000              -0.001274179               0.999999988               0.000000000              -0.001304414               0.999999988               0.000000000              -0.001317879               0.999999988               0.000000000              -0.001329502               0.999999988              -0.000000000              -0.001344055               0.999999988               0.000000000              -0.001362378               0.999999988              -0.000000000              -0.001384169               0.999999988              -0.000000000              -0.001409084               0.999999988               0.000000000              -0.001436598               0.999999988               0.000000000              -0.001466374               0.999999988               0.000000000              -0.001497794               0.999999988              -0.000000000              -0.001530250               0.999999988               0.000000000              -0.001563197               0.999999988               0.000000000              -0.001596156               0.999999988               0.000000000              -0.001628807               0.999999988               0.000000000              -0.001660514               0.999999988              -0.000000000              -0.001690331               0.999999988               0.000864340               0.000000000               0.999999988               0.000909986               0.000000000               0.999999988               0.000928875               0.000000000               0.999999988               0.000938946               0.000000000               0.999999988               0.000946881              -0.000000000               0.999999988               0.000955026               0.000000000               0.999999988               0.000964062               0.000000000               0.999999988               0.000974012               0.000000000               0.999999988               0.000984693               0.000000000               0.999999988               0.000995594               0.000000000               0.999999988               0.001006351               0.000000000               0.999999988               0.001016599              -0.000000000               0.999999988               0.001026089              -0.000000000               0.999999988               0.001034413               0.000000000               0.999999988               0.001041120               0.000000000               0.999999988               0.001045776               0.000000000               0.999999988               0.001047549               0.000000000               0.999999988               0.000859769              -0.000119847               0.999999988               0.000901403              -0.000094686               0.999999988               0.000917625              -0.000082882               0.999999988               0.000925944              -0.000077585               0.999999988               0.000932611              -0.000075531               0.999999988               0.000939728              -0.000074889               0.999999988               0.000947843              -0.000074733               0.999999988               0.000956886              -0.000074542               0.999999988               0.000966496              -0.000073650               0.999999988               0.000976217              -0.000071725               0.999999988               0.000985698              -0.000068603               0.999999988               0.000994437              -0.000064017               0.999999988               0.001002041              -0.000057563               0.999999988               0.001008286              -0.000048642               0.999999988               0.001012748              -0.000036731               0.999999988               0.001015008              -0.000021049               0.999999988               0.001014563              -0.000000446               0.999999988               0.000845908              -0.000238680               0.999999988               0.000875929              -0.000188989               0.999999988               0.000884840              -0.000166562               0.999999988               0.000888487              -0.000157024               0.999999988               0.000891878              -0.000153687               0.999999988               0.000896347              -0.000153012               0.999999988               0.000902018              -0.000153222               0.999999988               0.000908511              -0.000153042               0.999999988               0.000915190              -0.000151522               0.999999988               0.000921643              -0.000147992               0.999999988               0.000927325              -0.000141967               0.999999988               0.000931650              -0.000132804               0.999999988               0.000934220              -0.000120102               0.999999988               0.000934769              -0.000103115               0.999999988               0.000933079              -0.000080998               0.999999988               0.000929023              -0.000052817               0.999999988               0.000922485              -0.000016849               0.999999988               0.000822874              -0.000355505               0.999999988               0.000834727              -0.000282797               0.999999988               0.000833150              -0.000251825               0.999999988               0.000830462              -0.000239826               0.999999988               0.000829654              -0.000236509               0.999999988               0.000830733              -0.000236774               0.999999988               0.000833123              -0.000237765               0.999999988               0.000836029              -0.000237898               0.999999988               0.000838679              -0.000235940               0.999999988               0.000840262              -0.000230893               0.999999988               0.000840108              -0.000222013               0.999999988               0.000837693              -0.000208672               0.999999988               0.000832825              -0.000190377               0.999999988               0.000825473              -0.000166569               0.999999988               0.000815453              -0.000136644               0.999999988               0.000802835              -0.000099898               0.999999988               0.000787868              -0.000055420               0.999999988               0.000791153              -0.000469343               0.999999988               0.000779725              -0.000376204               0.999999988               0.000766325              -0.000339429               0.999999988               0.000757347              -0.000326862               0.999999988               0.000752465              -0.000324888               0.999999988               0.000750236              -0.000326749               0.999999988               0.000749278              -0.000329025               0.999999988               0.000748208              -0.000329543               0.999999988               0.000745914              -0.000326945               0.999999988               0.000741383              -0.000320149               0.999999988               0.000734110              -0.000308455               0.999999988               0.000723840              -0.000291077               0.999999988               0.000710446              -0.000267986               0.999999988               0.000693883              -0.000238765               0.999999988               0.000674240              -0.000203212               0.999999988               0.000651813              -0.000161144               0.999999988               0.000627090              -0.000112676               0.999999988               0.000751232              -0.000579243               0.999999988               0.000713566              -0.000469438               0.999999988               0.000689160              -0.000429659               0.999999988               0.000675203              -0.000418176               0.999999988               0.000667523              -0.000418366               0.999999988               0.000662920              -0.000421965               0.999999988               0.000658862              -0.000425382               0.999999988               0.000653474              -0.000425964               0.999999988               0.000645337              -0.000422334               0.999999988               0.000633704              -0.000413679               0.999999988               0.000618222              -0.000399079               0.999999988               0.000598686              -0.000378346               0.999999988               0.000575207              -0.000351190               0.999999988               0.000547948              -0.000317806               0.999999988               0.000517282              -0.000278582               0.999999988               0.000483901              -0.000234180               0.999999988               0.000448875              -0.000185568               0.999999988               0.000703748              -0.000684171               0.999999988               0.000639405              -0.000562714               0.999999988               0.000606544              -0.000522359               0.999999988               0.000590103              -0.000512867               0.999999988               0.000581458              -0.000515232               0.999999988               0.000575119              -0.000520371               0.999999988               0.000567861              -0.000524394               0.999999988               0.000557512              -0.000524527               0.999999988               0.000542739              -0.000519405               0.999999988               0.000522884              -0.000508624               0.999999988               0.000497726              -0.000491377               0.999999988               0.000467565              -0.000467611               0.999999988               0.000432591              -0.000437523               0.999999988               0.000393591              -0.000401633               0.999999988               0.000351527              -0.000361083               0.999999988               0.000307648              -0.000317090               0.999999988               0.000263253              -0.000271852               0.999999988               0.000649704              -0.000782968               0.999999988               0.000560872              -0.000655779               0.999999988               0.000523211              -0.000616682               0.999999988               0.000507070              -0.000609246               0.999999988               0.000498553              -0.000613436               0.999999988               0.000490714              -0.000619602               0.999999988               0.000479904              -0.000623708               0.999999988               0.000463937              -0.000622800               0.999999988               0.000441445              -0.000615838               0.999999988               0.000412181              -0.000602765               0.999999988               0.000376354              -0.000583093               0.999999988               0.000334507              -0.000557038               0.999999988               0.000287610              -0.000525240               0.999999988               0.000236984              -0.000488713               0.999999988               0.000183948              -0.000448933               0.999999988               0.000130003              -0.000407866               0.999999988               0.000076299              -0.000367287               0.999999988               0.000590939              -0.000873719               0.999999988               0.000480731              -0.000748490               0.999999988               0.000443445              -0.000711098               0.999999988               0.000429457              -0.000705251               0.999999988               0.000421642              -0.000710708               0.999999988               0.000412153              -0.000717441               0.999999988               0.000397169              -0.000721019               0.999999988               0.000374482              -0.000718781               0.999999988               0.000343177              -0.000709968               0.999999988               0.000303505              -0.000694760               0.999999988               0.000255932              -0.000673210               0.999999988               0.000201655              -0.000645937               0.999999988               0.000142252              -0.000614108               0.999999988               0.000079223              -0.000579331               0.999999988               0.000014295              -0.000543363               0.999999988              -0.000051011              -0.000507954               0.999999988              -0.000115607              -0.000474068               0.999999988               0.000529915              -0.000959846               0.999999988               0.000413337              -0.000853388               0.999999988               0.000373837              -0.000813199               0.999999988               0.000359517              -0.000803255               0.999999988               0.000352705              -0.000806189               0.999999988               0.000345217              -0.000813138               0.999999988               0.000333354              -0.000819344               0.999999988               0.000315091              -0.000822162               0.999999988               0.000289155              -0.000820299               0.999999988               0.000255188              -0.000813493               0.999999988               0.000213442              -0.000802021               0.999999988               0.000164560              -0.000786029               0.999999988               0.000109658              -0.000766056               0.999999988               0.000049610              -0.000743065               0.999999988              -0.000014580              -0.000718356               0.999999988              -0.000081299              -0.000693267               0.999999988              -0.000148638              -0.000669212               0.999999988               0.000463328              -0.001038591               0.999999988               0.000348285              -0.000955221               0.999999988               0.000306727              -0.000918324               0.999999988               0.000291325              -0.000906576               0.999999988               0.000284518              -0.000908062               0.999999988               0.000278363              -0.000915317               0.999999988               0.000268937              -0.000923904               0.999999988               0.000254482              -0.000931272               0.999999988               0.000233533              -0.000935749               0.999999988               0.000205270              -0.000936627               0.999999988               0.000169474              -0.000933790               0.999999988               0.000126482              -0.000927632               0.999999988               0.000077065              -0.000918288               0.999999988               0.000021519              -0.000906344               0.999999988              -0.000039512              -0.000892335               0.999999988              -0.000104877              -0.000877288               0.999999988              -0.000172998              -0.000862215               0.999999988               0.000392467              -0.001107979               0.999999988               0.000285530              -0.001050935               0.999999988               0.000243900              -0.001021380               0.999999988               0.000227258              -0.001011006               0.999999988               0.000219767              -0.001012597               0.999999988               0.000214196              -0.001020779               0.999999988               0.000206705              -0.001031770               0.999999988               0.000195375              -0.001043211               0.999999988               0.000178902              -0.001053537               0.999999988               0.000156161              -0.001061570               0.999999988               0.000126513              -0.001066906               0.999999988               0.000089984              -0.001069515               0.999999988               0.000046639              -0.001069680               0.999999988              -0.000003306              -0.001067703               0.999999988              -0.000059654              -0.001063811               0.999999988              -0.000121974              -0.001058750               0.999999988              -0.000189223              -0.001053069               0.999999988               0.000318186              -0.001166486               0.999999988               0.000225313              -0.001136220               0.999999988               0.000186175              -0.001117113               0.999999988               0.000169196              -0.001110793               0.999999988               0.000161193              -0.001114213               0.999999988               0.000155745              -0.001124044               0.999999988               0.000149752              -0.001137684               0.999999988               0.000140965              -0.001152952               0.999999988               0.000128424              -0.001168533               0.999999988               0.000111013              -0.001183247               0.999999988               0.000087706              -0.001196371               0.999999988               0.000057810              -0.001207537               0.999999988               0.000021251              -0.001216747               0.999999988              -0.000021840              -0.001224112               0.999999988              -0.000071815              -0.001229767               0.999999988              -0.000129178              -0.001233994               0.999999988              -0.000193970              -0.001237461               0.999999988               0.000241057              -0.001213207               0.999999988               0.000167250              -0.001207239               0.999999988               0.000133759              -0.001199772               0.999999988               0.000118130              -0.001199308               0.999999988               0.000110433              -0.001205972               0.999999988               0.000105438              -0.001218239               0.999999988               0.000100523              -0.001234509               0.999999988               0.000093884              -0.001253393               0.999999988               0.000084801              -0.001273535               0.999999988               0.000072280              -0.001294008               0.999999988               0.000055018              -0.001314309               0.999999988               0.000032254              -0.001333670               0.999999988               0.000003679              -0.001351735               0.999999988              -0.000031024              -0.001368391               0.999999988              -0.000072421              -0.001383481               0.999999988              -0.000121861              -0.001396980               0.999999988              -0.000180790              -0.001409291               0.999999988               0.000161858              -0.001246970               0.999999988               0.000110783              -0.001260454               0.999999988               0.000086187              -0.001263672               0.999999988               0.000074079              -0.001269151               0.999999988               0.000067837              -0.001279533               0.999999988               0.000063871              -0.001294679               0.999999988               0.000060157              -0.001313697               0.999999988               0.000055617              -0.001335599               0.999999988               0.000049751              -0.001359499               0.999999988               0.000041595              -0.001384751               0.999999988               0.000030167              -0.001410698               0.999999988               0.000014858              -0.001436823               0.999999988              -0.000004803              -0.001462690               0.999999988              -0.000029306              -0.001487856               0.999999988              -0.000059329              -0.001511898               0.999999988              -0.000096395              -0.001534496               0.999999988              -0.000142979              -0.001555413               0.999999988               0.000081292              -0.001267303               0.999999988               0.000055192              -0.001293296               0.999999988               0.000042160              -0.001304122               0.999999988               0.000035520              -0.001314080               0.999999988               0.000032006              -0.001327475               0.999999988               0.000029751              -0.001344922               0.999999988               0.000027730              -0.001365944               0.999999988               0.000025442              -0.001390053               0.999999988               0.000022585              -0.001416656               0.999999988               0.000018500              -0.001445218               0.999999988               0.000012760              -0.001475126               0.999999988               0.000004984              -0.001505888               0.999999988              -0.000005227              -0.001537007               0.999999988              -0.000017917              -0.001568035               0.999999988              -0.000033703              -0.001598509               0.999999988              -0.000053797              -0.001627845               0.999999988              -0.000079697              -0.001655272               0.999999988               0.000000000              -0.001274179               0.999999988               0.000000000              -0.001304414               0.999999988               0.000000000              -0.001317879               0.999999988               0.000000000              -0.001329502               0.999999988              -0.000000000              -0.001344055               0.999999988               0.000000000              -0.001362378               0.999999988              -0.000000000              -0.001384169               0.999999988              -0.000000000              -0.001409084               0.999999988               0.000000000              -0.001436598               0.999999988               0.000000000              -0.001466374               0.999999988               0.000000000              -0.001497794               0.999999988              -0.000000000              -0.001530250               0.999999988               0.000000000              -0.001563197               0.999999988               0.000000000              -0.001596156               0.999999988               0.000000000              -0.001628807               0.999999988               0.000000000              -0.001660514               0.999999988              -0.000000000              -0.001690331               0.999999988               0.000864340               0.000000000               0.999999988               0.000909986               0.000000000               0.999999988               0.000928875               0.000000000               0.999999988               0.000938946               0.000000000               0.999999988               0.000946881              -0.000000000               0.999999988               0.000955026               0.000000000               0.999999988               0.000964062               0.000000000               0.999999988               0.000974012               0.000000000               0.999999988               0.000984693               0.000000000               0.999999988               0.000995594               0.000000000               0.999999988               0.001006351               0.000000000               0.999999988               0.001016599              -0.000000000               0.999999988               0.001026089              -0.000000000               0.999999988               0.001034413               0.000000000               0.999999988               0.001041120               0.000000000               0.999999988               0.001045776               0.000000000               0.999999988               0.001047549               0.000000000               0.999999988               0.000859769               0.000119847               0.999999988               0.000901403               0.000094686               0.999999988               0.000917625               0.000082882               0.999999988               0.000925944               0.000077585               0.999999988               0.000932611               0.000075531               0.999999988               0.000939728               0.000074889               0.999999988               0.000947843               0.000074733               0.999999988               0.000956886               0.000074542               0.999999988               0.000966496               0.000073650               0.999999988               0.000976217               0.000071725               0.999999988               0.000985698               0.000068603               0.999999988               0.000994437               0.000064017               0.999999988               0.001002041               0.000057563               0.999999988               0.001008286               0.000048642               0.999999988               0.001012748               0.000036731               0.999999988               0.001015008               0.000021049               0.999999988               0.001014563               0.000000446               0.999999988               0.000845908               0.000238680               0.999999988               0.000875929               0.000188989               0.999999988               0.000884840               0.000166562               0.999999988               0.000888487               0.000157024               0.999999988               0.000891878               0.000153687               0.999999988               0.000896347               0.000153012               0.999999988               0.000902018               0.000153222               0.999999988               0.000908511               0.000153042               0.999999988               0.000915190               0.000151522               0.999999988               0.000921643               0.000147992               0.999999988               0.000927325               0.000141967               0.999999988               0.000931650               0.000132804               0.999999988               0.000934220               0.000120102               0.999999988               0.000934769               0.000103115               0.999999988               0.000933079               0.000080998               0.999999988               0.000929023               0.000052817               0.999999988               0.000922485               0.000016849               0.999999988               0.000822874               0.000355505               0.999999988               0.000834727               0.000282797               0.999999988               0.000833150               0.000251825               0.999999988               0.000830462               0.000239826               0.999999988               0.000829654               0.000236509               0.999999988               0.000830733               0.000236774               0.999999988               0.000833123               0.000237765               0.999999988               0.000836029               0.000237898               0.999999988               0.000838679               0.000235940               0.999999988               0.000840262               0.000230893               0.999999988               0.000840108               0.000222013               0.999999988               0.000837693               0.000208672               0.999999988               0.000832825               0.000190377               0.999999988               0.000825473               0.000166569               0.999999988               0.000815453               0.000136644               0.999999988               0.000802835               0.000099898               0.999999988               0.000787868               0.000055420               0.999999988               0.000791153               0.000469343               0.999999988               0.000779725               0.000376204               0.999999988               0.000766325               0.000339429               0.999999988               0.000757347               0.000326862               0.999999988               0.000752465               0.000324888               0.999999988               0.000750236               0.000326749               0.999999988               0.000749278               0.000329025               0.999999988               0.000748208               0.000329543               0.999999988               0.000745914               0.000326945               0.999999988               0.000741383               0.000320149               0.999999988               0.000734110               0.000308455               0.999999988               0.000723840               0.000291077               0.999999988               0.000710446               0.000267986               0.999999988               0.000693883               0.000238765               0.999999988               0.000674240               0.000203212               0.999999988               0.000651813               0.000161144               0.999999988               0.000627090               0.000112676               0.999999988               0.000751232               0.000579243               0.999999988               0.000713566               0.000469438               0.999999988               0.000689160               0.000429659               0.999999988               0.000675203               0.000418176               0.999999988               0.000667523               0.000418366               0.999999988               0.000662920               0.000421965               0.999999988               0.000658862               0.000425382               0.999999988               0.000653474               0.000425964               0.999999988               0.000645337               0.000422334               0.999999988               0.000633704               0.000413679               0.999999988               0.000618222               0.000399079               0.999999988               0.000598686               0.000378346               0.999999988               0.000575207               0.000351190               0.999999988               0.000547948               0.000317806               0.999999988               0.000517282               0.000278582               0.999999988               0.000483901               0.000234180               0.999999988               0.000448875               0.000185568               0.999999988               0.000703748               0.000684171               0.999999988               0.000639405               0.000562714               0.999999988               0.000606544               0.000522359               0.999999988               0.000590103               0.000512867               0.999999988               0.000581458               0.000515232               0.999999988               0.000575119               0.000520371               0.999999988               0.000567861               0.000524394               0.999999988               0.000557512               0.000524527               0.999999988               0.000542739               0.000519405               0.999999988               0.000522884               0.000508624               0.999999988               0.000497726               0.000491377               0.999999988               0.000467565               0.000467611               0.999999988               0.000432591               0.000437523               0.999999988               0.000393591               0.000401633               0.999999988               0.000351527               0.000361083               0.999999988               0.000307648               0.000317090               0.999999988               0.000263253               0.000271852               0.999999988               0.000649704               0.000782968               0.999999988               0.000560872               0.000655779               0.999999988               0.000523211               0.000616682               0.999999988               0.000507070               0.000609246               0.999999988               0.000498553               0.000613436               0.999999988               0.000490714               0.000619602               0.999999988               0.000479904               0.000623708               0.999999988               0.000463937               0.000622800               0.999999988               0.000441445               0.000615838               0.999999988               0.000412181               0.000602765               0.999999988               0.000376354               0.000583093               0.999999988               0.000334507               0.000557038               0.999999988               0.000287610               0.000525240               0.999999988               0.000236984               0.000488713               0.999999988               0.000183948               0.000448933               0.999999988               0.000130003               0.000407866               0.999999988               0.000076299               0.000367287               0.999999988               0.000590939               0.000873719               0.999999988               0.000480731               0.000748490               0.999999988               0.000443445               0.000711098               0.999999988               0.000429457               0.000705251               0.999999988               0.000421642               0.000710708               0.999999988               0.000412153               0.000717441               0.999999988               0.000397169               0.000721019               0.999999988               0.000374482               0.000718781               0.999999988               0.000343177               0.000709968               0.999999988               0.000303505               0.000694760               0.999999988               0.000255932               0.000673210               0.999999988               0.000201655               0.000645937               0.999999988               0.000142252               0.000614108               0.999999988               0.000079223               0.000579331               0.999999988               0.000014295               0.000543363               0.999999988              -0.000051011               0.000507954               0.999999988              -0.000115607               0.000474068               0.999999988               0.000529915               0.000959846               0.999999988               0.000413337               0.000853388               0.999999988               0.000373837               0.000813199               0.999999988               0.000359517               0.000803255               0.999999988               0.000352705               0.000806189               0.999999988               0.000345217               0.000813138               0.999999988               0.000333354               0.000819344               0.999999988               0.000315091               0.000822162               0.999999988               0.000289155               0.000820299               0.999999988               0.000255188               0.000813493               0.999999988               0.000213442               0.000802021               0.999999988               0.000164560               0.000786029               0.999999988               0.000109658               0.000766056               0.999999988               0.000049610               0.000743065               0.999999988              -0.000014580               0.000718356               0.999999988              -0.000081299               0.000693267               0.999999988              -0.000148638               0.000669212               0.999999988               0.000463328               0.001038591               0.999999988               0.000348285               0.000955221               0.999999988               0.000306727               0.000918324               0.999999988               0.000291325               0.000906576               0.999999988               0.000284518               0.000908062               0.999999988               0.000278363               0.000915317               0.999999988               0.000268937               0.000923904               0.999999988               0.000254482               0.000931272               0.999999988               0.000233533               0.000935749               0.999999988               0.000205270               0.000936627               0.999999988               0.000169474               0.000933790               0.999999988               0.000126482               0.000927632               0.999999988               0.000077065               0.000918288               0.999999988               0.000021519               0.000906344               0.999999988              -0.000039512               0.000892335               0.999999988              -0.000104877               0.000877288               0.999999988              -0.000172998               0.000862215               0.999999988               0.000392467               0.001107979               0.999999988               0.000285530               0.001050935               0.999999988               0.000243900               0.001021380               0.999999988               0.000227258               0.001011006               0.999999988               0.000219767               0.001012597               0.999999988               0.000214196               0.001020779               0.999999988               0.000206705               0.001031770               0.999999988               0.000195375               0.001043211               0.999999988               0.000178902               0.001053537               0.999999988               0.000156161               0.001061570               0.999999988               0.000126513               0.001066906               0.999999988               0.000089984               0.001069515               0.999999988               0.000046639               0.001069680               0.999999988              -0.000003306               0.001067703               0.999999988              -0.000059654               0.001063811               0.999999988              -0.000121974               0.001058750               0.999999988              -0.000189223               0.001053069               0.999999988               0.000318186               0.001166486               0.999999988               0.000225313               0.001136220               0.999999988               0.000186175               0.001117113               0.999999988               0.000169196               0.001110793               0.999999988               0.000161193               0.001114213               0.999999988               0.000155745               0.001124044               0.999999988               0.000149752               0.001137684               0.999999988               0.000140965               0.001152952               0.999999988               0.000128424               0.001168533               0.999999988               0.000111013               0.001183247               0.999999988               0.000087706               0.001196371               0.999999988               0.000057810               0.001207537               0.999999988               0.000021251               0.001216747               0.999999988              -0.000021840               0.001224112               0.999999988              -0.000071815               0.001229767               0.999999988              -0.000129178               0.001233994               0.999999988              -0.000193970               0.001237461               0.999999988               0.000241057               0.001213207               0.999999988               0.000167250               0.001207239               0.999999988               0.000133759               0.001199772               0.999999988               0.000118130               0.001199308               0.999999988               0.000110433               0.001205972               0.999999988               0.000105438               0.001218239               0.999999988               0.000100523               0.001234509               0.999999988               0.000093884               0.001253393               0.999999988               0.000084801               0.001273535               0.999999988               0.000072280               0.001294008               0.999999988               0.000055018               0.001314309               0.999999988               0.000032254               0.001333670               0.999999988               0.000003679               0.001351735               0.999999988              -0.000031024               0.001368391               0.999999988              -0.000072421               0.001383481               0.999999988              -0.000121861               0.001396980               0.999999988              -0.000180790               0.001409291               0.999999988               0.000161858               0.001246970               0.999999988               0.000110783               0.001260454               0.999999988               0.000086187               0.001263672               0.999999988               0.000074079               0.001269151               0.999999988               0.000067837               0.001279533               0.999999988               0.000063871               0.001294679               0.999999988               0.000060157               0.001313697               0.999999988               0.000055617               0.001335599               0.999999988               0.000049751               0.001359499               0.999999988               0.000041595               0.001384751               0.999999988               0.000030167               0.001410698               0.999999988               0.000014858               0.001436823               0.999999988              -0.000004803               0.001462690               0.999999988              -0.000029306               0.001487856               0.999999988              -0.000059329               0.001511898               0.999999988              -0.000096395               0.001534496               0.999999988              -0.000142979               0.001555413               0.999999988               0.000081292               0.001267303               0.999999988               0.000055192               0.001293296               0.999999988               0.000042160               0.001304122               0.999999988               0.000035520               0.001314080               0.999999988               0.000032006               0.001327475               0.999999988               0.000029751               0.001344922               0.999999988               0.000027730               0.001365944               0.999999988               0.000025442               0.001390053               0.999999988               0.000022585               0.001416656               0.999999988               0.000018500               0.001445218               0.999999988               0.000012760               0.001475126               0.999999988               0.000004984               0.001505888               0.999999988              -0.000005227               0.001537007               0.999999988              -0.000017917               0.001568035               0.999999988              -0.000033703               0.001598509               0.999999988              -0.000053797               0.001627845               0.999999988              -0.000079697               0.001655272               0.999999988               0.000000000               0.001274179               0.999999988              -0.000000000               0.001304414               0.999999988               0.000000000               0.001317879               0.999999988              -0.000000000               0.001329502               0.999999988              -0.000000000               0.001344055               0.999999988              -0.000000000               0.001362378               0.999999988              -0.000000000               0.001384169               0.999999988              -0.000000000               0.001409084               0.999999988               0.000000000               0.001436598               0.999999988              -0.000000000               0.001466374               0.999999988              -0.000000000               0.001497794               0.999999988              -0.000000000               0.001530250               0.999999988              -0.000000000               0.001563197               0.999999988               0.000000000               0.001596156               0.999999988              -0.000000000               0.001628807               0.999999988              -0.000000000               0.001660514               0.999999988              -0.000000000               0.001690331               0.999999988 </DataArray>
<DataArray type="Float64"                                    Name="stress"                                                      NumberOfComponents="10" format="ascii">
              0.002054931               0.021729277              -0.000000000              -0.001945556               0.007891538               0.005945983               0.000000000               0.000000000               0.000000000               0.000000000               0.001963462               0.016625174              -0.000000000              -0.001341845               0.005988951               0.004647106               0.000000000               0.000000000               0.000000000               0.000000000               0.002517527               0.012464669               0.000000000              -0.000614010               0.004359518               0.003745508               0.000000000               0.000000000               0.000000000               0.000000000               0.002314960               0.010096496              -0.000000000              -0.000393951               0.003496782               0.003102831               0.000000000               0.000000000               0.000000000               0.000000000               0.001903568               0.008580614              -0.000000000              -0.000358738               0.002979755               0.002621017               0.000000000               0.000000000               0.000000000               0.000000000               0.001475162               0.007502969               0.000000000              -0.000384684               0.002629193               0.002244508               0.000000000               0.000000000               0.000000000               0.000000000               0.001093078               0.006669796               0.000000000              -0.000423819               0.002364516               0.001940697               0.000000000               0.000000000               0.000000000               0.000000000               0.000772592               0.005978077              -0.000000000              -0.000457537               0.002145185               0.001687648               0.000000000               0.000000000               0.000000000               0.000000000               0.000518374               0.005358413               0.000000000              -0.000475410               0.001944590               0.001469180               0.000000000               0.000000000               0.000000000               0.000000000               0.000324579               0.004774206               0.000000000              -0.000475058               0.001749739               0.001274681               0.000000000               0.000000000               0.000000000               0.000000000               0.000180326               0.004205904               0.000000000              -0.000458115               0.001554659               0.001096544               0.000000000               0.000000000               0.000000000               0.000000000               0.000075429               0.003634813               0.000000000              -0.000426065               0.001353614               0.000927549               0.000000000               0.000000000               0.000000000               0.000000000              -0.000001298               0.003038175              -0.000000000              -0.000380258               0.001139468               0.000759210               0.000000000               0.000000000               0.000000000               0.000000000              -0.000048046               0.002394942               0.000000000              -0.000317384               0.000904101               0.000586716               0.000000000               0.000000000               0.000000000               0.000000000              -0.000066140               0.001686620              -0.000000000              -0.000235629               0.000640744               0.000405115               0.000000000               0.000000000               0.000000000               0.000000000              -0.000045800               0.000892282              -0.000000000              -0.000128710               0.000340328               0.000211617               0.000000000               0.000000000               0.000000000               0.000000000              -0.000086834               0.000288165               0.000000000              -0.000068583               0.000118915               0.000050332               0.000000000               0.000000000               0.000000000               0.000000000               0.002120322               0.021262340              -0.001440814              -0.001862668               0.007708265               0.005845597               0.000000000               0.000000000               0.000000000               0.000000000               0.001907201               0.016325048              -0.000636731              -0.001325428               0.005883437               0.004558010               0.000000000               0.000000000               0.000000000               0.000000000               0.002330847               0.012342878               0.000155697              -0.000668791               0.004337182               0.003668391               0.000000000               0.000000000               0.000000000               0.000000000               0.002078881               0.010069818               0.000480682              -0.000479146               0.003516288               0.003037142               0.000000000               0.000000000               0.000000000               0.000000000               0.001659290               0.008604523               0.000605014              -0.000453331               0.003019256               0.002565925               0.000000000               0.000000000               0.000000000               0.000000000               0.001240962               0.007555926               0.000640832              -0.000479129               0.002678326               0.002199198               0.000000000               0.000000000               0.000000000               0.000000000               0.000876784               0.006739974               0.000638648              -0.000513702               0.002417869               0.001904168               0.000000000               0.000000000               0.000000000               0.000000000               0.000580528               0.006055266               0.000615799              -0.000539209               0.002198138               0.001658929               0.000000000               0.000000000               0.000000000               0.000000000               0.000351493               0.005442034               0.000582502              -0.000548443               0.001996808               0.001448364               0.000000000               0.000000000               0.000000000               0.000000000               0.000178803               0.004863944               0.000546859              -0.000540941               0.001801612               0.001260671               0.000000000               0.000000000               0.000000000               0.000000000               0.000057763               0.004299802               0.000510290              -0.000515813               0.001605191               0.001089377               0.000000000               0.000000000               0.000000000               0.000000000              -0.000018704               0.003731658               0.000470697              -0.000473470               0.001401697               0.000928227               0.000000000               0.000000000               0.000000000               0.000000000              -0.000068711               0.003143830               0.000422376              -0.000418744               0.001187514               0.000768770               0.000000000               0.000000000               0.000000000               0.000000000              -0.000094030               0.002523214               0.000359966              -0.000350662               0.000957950               0.000607288               0.000000000               0.000000000               0.000000000               0.000000000              -0.000091004               0.001858070               0.000277556              -0.000266385               0.000708146               0.000441761               0.000000000               0.000000000               0.000000000               0.000000000              -0.000056877               0.001134443               0.000159804              -0.000163134               0.000432522               0.000269388               0.000000000               0.000000000               0.000000000               0.000000000              -0.000088105               0.000595353               0.000100415              -0.000107458               0.000234268               0.000126810               0.000000000               0.000000000               0.000000000               0.000000000               0.002259424               0.019925470              -0.002652714              -0.001643397               0.007189556               0.005546159               0.000000000               0.000000000               0.000000000               0.000000000               0.001713395               0.015477430              -0.001163878              -0.001292153               0.005589809               0.004297656               0.000000000               0.000000000               0.000000000               0.000000000               0.001783362               0.012002475               0.000287988              -0.000831547               0.004277967               0.003446420               0.000000000               0.000000000               0.000000000               0.000000000               0.001410320               0.009992803               0.000859742              -0.000720229               0.003570977               0.002850748               0.000000000               0.000000000               0.000000000               0.000000000               0.000982278               0.008667447               0.001066162              -0.000715075               0.003127479               0.002412403               0.000000000               0.000000000               0.000000000               0.000000000               0.000604893               0.007695800               0.001117547              -0.000735139               0.002810287               0.002075148               0.000000000               0.000000000               0.000000000               0.000000000               0.000298919               0.006915462               0.001103187              -0.000752336               0.002555909               0.001803573               0.000000000               0.000000000               0.000000000               0.000000000               0.000071859               0.006246633               0.001056418              -0.000753880               0.002333483               0.001579603               0.000000000               0.000000000               0.000000000               0.000000000              -0.000086711               0.005644553               0.000993154              -0.000738084               0.002127527               0.001389442               0.000000000               0.000000000               0.000000000               0.000000000              -0.000191621               0.005075683               0.000925380              -0.000706317               0.001927316               0.001220999               0.000000000               0.000000000               0.000000000               0.000000000              -0.000243830               0.004520572               0.000855137              -0.000656506               0.001725678               0.001069171               0.000000000               0.000000000               0.000000000               0.000000000              -0.000254413               0.003967013               0.000780727              -0.000591280               0.001519418               0.000928137               0.000000000               0.000000000               0.000000000               0.000000000              -0.000241197               0.003408819               0.000694673              -0.000516550               0.001308445               0.000791894               0.000000000               0.000000000               0.000000000               0.000000000              -0.000207135               0.002847571               0.000585469              -0.000433621               0.001093721               0.000660100               0.000000000               0.000000000               0.000000000               0.000000000              -0.000153915               0.002284175               0.000445237              -0.000343239               0.000875797               0.000532558               0.000000000               0.000000000               0.000000000               0.000000000              -0.000084571               0.001721388               0.000252444              -0.000246887               0.000656086               0.000409199               0.000000000               0.000000000               0.000000000               0.000000000              -0.000086408               0.001333492               0.000154380              -0.000199089               0.000510856               0.000311767               0.000000000               0.000000000               0.000000000               0.000000000               0.002351696               0.017896998              -0.003478083              -0.001355238               0.006417352               0.005062114               0.000000000               0.000000000               0.000000000               0.000000000               0.001344125               0.014219610              -0.001516203              -0.001273402               0.005164290               0.003890888               0.000000000               0.000000000               0.000000000               0.000000000               0.000930442               0.011511088               0.000368081              -0.001089968               0.004200314               0.003110346               0.000000000               0.000000000               0.000000000               0.000000000               0.000427241               0.009872159               0.001065145              -0.001073802               0.003648621               0.002574819               0.000000000               0.000000000               0.000000000               0.000000000               0.000020307               0.008735115               0.001296216              -0.001084272               0.003273100               0.002188828               0.000000000               0.000000000               0.000000000               0.000000000              -0.000273936               0.007856686               0.001336259              -0.001084810               0.002980472               0.001895663               0.000000000               0.000000000               0.000000000               0.000000000              -0.000474735               0.007119471               0.001298684              -0.001067957               0.002729119               0.001661162               0.000000000               0.000000000               0.000000000               0.000000000              -0.000595699               0.006465672               0.001229832              -0.001031594               0.002499067               0.001467473               0.000000000               0.000000000               0.000000000               0.000000000              -0.000646862               0.005866402               0.001145675              -0.000975872               0.002280738               0.001304867               0.000000000               0.000000000               0.000000000               0.000000000              -0.000642203               0.005301264               0.001056531              -0.000903482               0.002068231               0.001164749               0.000000000               0.000000000               0.000000000               0.000000000              -0.000594146               0.004757960               0.000962607              -0.000817548               0.001858487               0.001040939               0.000000000               0.000000000               0.000000000               0.000000000              -0.000519384               0.004229132               0.000862246              -0.000723409               0.001650833               0.000927424               0.000000000               0.000000000               0.000000000               0.000000000              -0.000434423               0.003716704               0.000749809              -0.000627495               0.001448054               0.000820559               0.000000000               0.000000000               0.000000000               0.000000000              -0.000335758               0.003229917               0.000616085              -0.000529648               0.001253177               0.000723530               0.000000000               0.000000000               0.000000000               0.000000000              -0.000223838               0.002780392               0.000453465              -0.000431487               0.001070617               0.000639130               0.000000000               0.000000000               0.000000000               0.000000000              -0.000111464               0.002380100               0.000248921              -0.000339311               0.000906462               0.000567152               0.000000000               0.000000000               0.000000000               0.000000000              -0.000082234               0.002135647               0.000148318              -0.000297793               0.000811140               0.000513346               0.000000000               0.000000000               0.000000000               0.000000000               0.002265116               0.015425836              -0.003839359              -0.001078811               0.005501497               0.004422686               0.000000000               0.000000000               0.000000000               0.000000000               0.000781414               0.012725263              -0.001678967              -0.001297625               0.004674253               0.003376628               0.000000000               0.000000000               0.000000000               0.000000000              -0.000131376               0.010935484               0.000357617              -0.001416198               0.004117191               0.002700993               0.000000000               0.000000000               0.000000000               0.000000000              -0.000705811               0.009703994               0.001055015              -0.001477675               0.003727191               0.002249516               0.000000000               0.000000000               0.000000000               0.000000000              -0.001029431               0.008755065               0.001258565              -0.001480416               0.003411798               0.001931381               0.000000000               0.000000000               0.000000000               0.000000000              -0.001194879               0.007954599               0.001272333              -0.001442401               0.003132307               0.001689905               0.000000000               0.000000000               0.000000000               0.000000000              -0.001251065               0.007253019               0.001215219              -0.001375774               0.002876240               0.001500466               0.000000000               0.000000000               0.000000000               0.000000000              -0.001229856               0.006609181               0.001134974              -0.001287341               0.002632152               0.001344811               0.000000000               0.000000000               0.000000000               0.000000000              -0.001148838               0.006010538               0.001049109              -0.001182129               0.002397536               0.001215407               0.000000000               0.000000000               0.000000000               0.000000000              -0.001025818               0.005452745               0.000957639              -0.001066273               0.002172988               0.001106715               0.000000000               0.000000000               0.000000000               0.000000000              -0.000883607               0.004925413               0.000856893              -0.000947027               0.001957464               0.001010436               0.000000000               0.000000000               0.000000000               0.000000000              -0.000731988               0.004431771               0.000749558              -0.000828465               0.001753397               0.000924932               0.000000000               0.000000000               0.000000000               0.000000000              -0.000577261               0.003974448               0.000635247              -0.000713277               0.001562562               0.000849284               0.000000000               0.000000000               0.000000000               0.000000000              -0.000419652               0.003565380               0.000506762              -0.000603041               0.001389462               0.000786421               0.000000000               0.000000000               0.000000000               0.000000000              -0.000265276               0.003219610               0.000359570              -0.000501929               0.001240502               0.000738574               0.000000000               0.000000000               0.000000000               0.000000000              -0.000126099               0.002954865               0.000189390              -0.000416644               0.001123827               0.000707182               0.000000000               0.000000000               0.000000000               0.000000000              -0.000076893               0.002817922               0.000108031              -0.000381074               0.001066323               0.000685249               0.000000000               0.000000000               0.000000000               0.000000000               0.001872768               0.012766942              -0.003746266              -0.000893581               0.004553464               0.003659883               0.000000000               0.000000000               0.000000000               0.000000000               0.000025707               0.011158467              -0.001686613              -0.001385166               0.004181174               0.002796008               0.000000000               0.000000000               0.000000000               0.000000000              -0.001276364               0.010321464               0.000223148              -0.001768815               0.004030058               0.002261243               0.000000000               0.000000000               0.000000000               0.000000000              -0.001817260               0.009467541               0.000823623              -0.001864911               0.003777452               0.001912542               0.000000000               0.000000000               0.000000000               0.000000000              -0.001989938               0.008670086               0.000973027              -0.001829983               0.003499994               0.001670011               0.000000000               0.000000000               0.000000000               0.000000000              -0.001980909               0.007929529               0.000969403              -0.001734028               0.003221159               0.001487131               0.000000000               0.000000000               0.000000000               0.000000000              -0.001866875               0.007248769               0.000917973              -0.001606170               0.002951622               0.001345452               0.000000000               0.000000000               0.000000000               0.000000000              -0.001687538               0.006613878               0.000851081              -0.001459558               0.002691123               0.001231565               0.000000000               0.000000000               0.000000000               0.000000000              -0.001471460               0.006024800               0.000786200              -0.001304894               0.002443211               0.001138317               0.000000000               0.000000000               0.000000000               0.000000000              -0.001242691               0.005485503               0.000713449              -0.001151694               0.002212381               0.001060687               0.000000000               0.000000000               0.000000000               0.000000000              -0.001016781               0.004990499               0.000631540              -0.001005103               0.001998517               0.000993414               0.000000000               0.000000000               0.000000000               0.000000000              -0.000797567               0.004547500               0.000542469              -0.000867523               0.001804992               0.000937469               0.000000000               0.000000000               0.000000000               0.000000000              -0.000592206               0.004157212               0.000446810              -0.000741727               0.001632966               0.000891239               0.000000000               0.000000000               0.000000000               0.000000000              -0.000400299               0.003833108               0.000345123              -0.000629249               0.001487440               0.000858191               0.000000000               0.000000000               0.000000000               0.000000000              -0.000230328               0.003591306               0.000234908              -0.000535285               0.001375518               0.000840233               0.000000000               0.000000000               0.000000000               0.000000000              -0.000099804               0.003445439               0.000118292              -0.000468105               0.001304503               0.000836398               0.000000000               0.000000000               0.000000000               0.000000000              -0.000047188               0.003401025               0.000059933              -0.000442823               0.001281271               0.000838449               0.000000000               0.000000000               0.000000000               0.000000000               0.001116335               0.010139544              -0.003284409              -0.000848818               0.003662753               0.002813935               0.000000000               0.000000000               0.000000000               0.000000000              -0.000876644               0.009638510              -0.001599424              -0.001533552               0.003723988               0.002190436               0.000000000               0.000000000               0.000000000               0.000000000              -0.002379309               0.009681782              -0.000047879              -0.002102459               0.003928048               0.001825589               0.000000000               0.000000000               0.000000000               0.000000000              -0.002772814               0.009133857               0.000408857              -0.002181532               0.003771766               0.001590234               0.000000000               0.000000000               0.000000000               0.000000000              -0.002736530               0.008454140               0.000523053              -0.002082961               0.003512339               0.001429378               0.000000000               0.000000000               0.000000000               0.000000000              -0.002525745               0.007767424               0.000532872              -0.001918077               0.003228475               0.001310397               0.000000000               0.000000000               0.000000000               0.000000000              -0.002238067               0.007110665               0.000512687              -0.001728104               0.002946233               0.001218129               0.000000000               0.000000000               0.000000000               0.000000000              -0.001911235               0.006491378               0.000480735              -0.001528132               0.002673148               0.001145017               0.000000000               0.000000000               0.000000000               0.000000000              -0.001574923               0.005924290               0.000454611              -0.001331129               0.002418453               0.001087324               0.000000000               0.000000000               0.000000000               0.000000000              -0.001249820               0.005417915               0.000420732              -0.001145919               0.002187927               0.001042008               0.000000000               0.000000000               0.000000000               0.000000000              -0.000952377               0.004971634               0.000371205              -0.000978593               0.001983392               0.001004799               0.000000000               0.000000000               0.000000000               0.000000000              -0.000682210               0.004590731               0.000312220              -0.000829668               0.001806784               0.000977116               0.000000000               0.000000000               0.000000000               0.000000000              -0.000443600               0.004283605               0.000242597              -0.000701799               0.001661787               0.000959988               0.000000000               0.000000000               0.000000000               0.000000000              -0.000248952               0.004054559               0.000168499              -0.000600175               0.001551565               0.000951389               0.000000000               0.000000000               0.000000000               0.000000000              -0.000107183               0.003910378               0.000095379              -0.000528990               0.001479776               0.000950787               0.000000000               0.000000000               0.000000000               0.000000000              -0.000028361               0.003856692               0.000035839              -0.000492721               0.001449791               0.000957071               0.000000000               0.000000000               0.000000000               0.000000000               0.000003066               0.003869247               0.000007640              -0.000482505               0.001450571               0.000968066               0.000000000               0.000000000               0.000000000               0.000000000               0.000042466               0.007709408              -0.002566326              -0.000947751               0.002885693               0.001937942               0.000000000               0.000000000               0.000000000               0.000000000              -0.001863484               0.008247865              -0.001470514              -0.001729786               0.003325856               0.001596070               0.000000000               0.000000000               0.000000000               0.000000000              -0.003325510               0.009006713              -0.000439044              -0.002372900               0.003793174               0.001420275               0.000000000               0.000000000               0.000000000               0.000000000              -0.003472049               0.008692639              -0.000109951              -0.002388592               0.003693715               0.001305122               0.000000000               0.000000000               0.000000000               0.000000000              -0.003203520               0.008116150               0.000010102              -0.002215833               0.003443967               0.001228134               0.000000000               0.000000000               0.000000000               0.000000000              -0.002799321               0.007485044               0.000060469              -0.001985371               0.003156780               0.001171409               0.000000000               0.000000000               0.000000000               0.000000000              -0.002356590               0.006861102               0.000088278              -0.001741355               0.002867463               0.001126108               0.000000000               0.000000000               0.000000000               0.000000000              -0.001902111               0.006275692               0.000104903              -0.001497749               0.002591126               0.001093377               0.000000000               0.000000000               0.000000000               0.000000000              -0.001463885               0.005753503               0.000126000              -0.001268142               0.002340529               0.001072388               0.000000000               0.000000000               0.000000000               0.000000000              -0.001064557               0.005298271               0.000136504              -0.001061490               0.002119903               0.001058412               0.000000000               0.000000000               0.000000000               0.000000000              -0.000712709               0.004917150               0.000125330              -0.000881908               0.001933003               0.001051095               0.000000000               0.000000000               0.000000000               0.000000000              -0.000417935               0.004615597               0.000099432              -0.000733673               0.001783075               0.001049401               0.000000000               0.000000000               0.000000000               0.000000000              -0.000186572               0.004399954               0.000060618              -0.000619957               0.001673289               0.001053332               0.000000000               0.000000000               0.000000000               0.000000000              -0.000026522               0.004273876               0.000018251              -0.000544179               0.001606004               0.001061825               0.000000000               0.000000000               0.000000000               0.000000000               0.000054496               0.004230988              -0.000012936              -0.000508436               0.001579794               0.001071358               0.000000000               0.000000000               0.000000000               0.000000000               0.000056536               0.004256909              -0.000021395              -0.000510911               0.001589259               0.001078348               0.000000000               0.000000000               0.000000000               0.000000000               0.000044954               0.004302318              -0.000024132              -0.000520931               0.001607735               0.001086804               0.000000000               0.000000000               0.000000000               0.000000000              -0.001212998               0.005663704              -0.001704957              -0.001162835               0.002275494               0.001112658               0.000000000               0.000000000               0.000000000               0.000000000              -0.002828591               0.007003031              -0.001335036              -0.001936096               0.002979685               0.001043589               0.000000000               0.000000000               0.000000000               0.000000000              -0.004074578               0.008314469              -0.000907448              -0.002567269               0.003627218               0.001059949               0.000000000               0.000000000               0.000000000               0.000000000              -0.003957043               0.008245668              -0.000659825              -0.002514594               0.003586726               0.001072133               0.000000000               0.000000000               0.000000000               0.000000000              -0.003489309               0.007798272              -0.000506031              -0.002283269               0.003360488               0.001077219               0.000000000               0.000000000               0.000000000               0.000000000              -0.002934350               0.007246021              -0.000400665              -0.002006129               0.003084026               0.001077897               0.000000000               0.000000000               0.000000000               0.000000000              -0.002371430               0.006678457              -0.000317173              -0.001724089               0.002800826               0.001076737               0.000000000               0.000000000               0.000000000               0.000000000              -0.001818799               0.006148155              -0.000247592              -0.001450565               0.002532886               0.001082321               0.000000000               0.000000000               0.000000000               0.000000000              -0.001302286               0.005685623              -0.000182896              -0.001199057               0.002294874               0.001095817               0.000000000               0.000000000               0.000000000               0.000000000              -0.000846433               0.005288352              -0.000127354              -0.000978454               0.002088917               0.001110464               0.000000000               0.000000000               0.000000000               0.000000000              -0.000459605               0.004963896              -0.000091071              -0.000792837               0.001918894               0.001126057               0.000000000               0.000000000               0.000000000               0.000000000              -0.000153740               0.004719354              -0.000073520              -0.000647570               0.001788959               0.001141389               0.000000000               0.000000000               0.000000000               0.000000000               0.000071089               0.004566336              -0.000066330              -0.000544132               0.001703474               0.001159342               0.000000000               0.000000000               0.000000000               0.000000000               0.000208228               0.004509531              -0.000058685              -0.000485605               0.001665030               0.001179426               0.000000000               0.000000000               0.000000000               0.000000000               0.000252355               0.004541106              -0.000044353              -0.000473004               0.001671355               0.001198351               0.000000000               0.000000000               0.000000000               0.000000000               0.000216915               0.004636205              -0.000023684              -0.000498181               0.001711447               0.001213265               0.000000000               0.000000000               0.000000000               0.000000000               0.000172141               0.004703290              -0.000012327              -0.000523357               0.001742200               0.001218843               0.000000000               0.000000000               0.000000000               0.000000000              -0.002660775               0.003779815              -0.000805969              -0.001470264               0.001750013               0.000279749               0.000000000               0.000000000               0.000000000               0.000000000              -0.003645899               0.005555387              -0.001186602              -0.002061631               0.002538987               0.000477356               0.000000000               0.000000000               0.000000000               0.000000000              -0.004535050               0.007259760              -0.001392747              -0.002608108               0.003289265               0.000681157               0.000000000               0.000000000               0.000000000               0.000000000              -0.004272261               0.007556254              -0.001236741              -0.002546623               0.003367600               0.000820977               0.000000000               0.000000000               0.000000000               0.000000000              -0.003724483               0.007369043              -0.001050714              -0.002317806               0.003228925               0.000911119               0.000000000               0.000000000               0.000000000               0.000000000              -0.003117685               0.007007334              -0.000887003              -0.002045044               0.003017436               0.000972392               0.000000000               0.000000000               0.000000000               0.000000000              -0.002520761               0.006587227              -0.000751152              -0.001768685               0.002785282               0.001016597               0.000000000               0.000000000               0.000000000               0.000000000              -0.001937370               0.006173952              -0.000636917              -0.001498254               0.002557381               0.001059127               0.000000000               0.000000000               0.000000000               0.000000000              -0.001385020               0.005800629              -0.000531691              -0.001244458               0.002348343               0.001103885               0.000000000               0.000000000               0.000000000               0.000000000              -0.000889206               0.005479636              -0.000431119              -0.001018404               0.002165995               0.001147591               0.000000000               0.000000000               0.000000000               0.000000000              -0.000462811               0.005211314              -0.000341454              -0.000824966               0.002012076               0.001187110               0.000000000               0.000000000               0.000000000               0.000000000              -0.000114211               0.004996125              -0.000270792              -0.000667343               0.001887806               0.001220463               0.000000000               0.000000000               0.000000000               0.000000000               0.000156052               0.004846993              -0.000210014              -0.000547353               0.001798099               0.001250746               0.000000000               0.000000000               0.000000000               0.000000000               0.000343080               0.004775020              -0.000145280              -0.000468222               0.001747731               0.001279510               0.000000000               0.000000000               0.000000000               0.000000000               0.000441948               0.004779192              -0.000080361              -0.000431667               0.001736937               0.001305270               0.000000000               0.000000000               0.000000000               0.000000000               0.000464308               0.004859263              -0.000030089              -0.000433291               0.001764169               0.001330877               0.000000000               0.000000000               0.000000000               0.000000000               0.000437784               0.004909235              -0.000004059              -0.000449484               0.001786224               0.001336739               0.000000000               0.000000000               0.000000000               0.000000000              -0.004492963               0.002084945               0.000054978              -0.001945476               0.001343464              -0.000602011               0.000000000               0.000000000               0.000000000               0.000000000              -0.004567879               0.004091527              -0.000982299              -0.002224391               0.002105291              -0.000119099               0.000000000               0.000000000               0.000000000               0.000000000              -0.004912001               0.005988866              -0.001780477              -0.002590603               0.002859802               0.000269200               0.000000000               0.000000000               0.000000000               0.000000000              -0.004515944               0.006627705              -0.001778592              -0.002521936               0.003049858               0.000527922               0.000000000               0.000000000               0.000000000               0.000000000              -0.003928833               0.006743787              -0.001597644              -0.002316280               0.003020000               0.000703719               0.000000000               0.000000000               0.000000000               0.000000000              -0.003300227               0.006619669              -0.001397792              -0.002065039               0.002894880               0.000829841               0.000000000               0.000000000               0.000000000               0.000000000              -0.002683891               0.006390314              -0.001220833              -0.001805244               0.002731831               0.000926587               0.000000000               0.000000000               0.000000000               0.000000000              -0.002088177               0.006122899              -0.001068664              -0.001548425               0.002557088               0.001008662               0.000000000               0.000000000               0.000000000               0.000000000              -0.001515375               0.005852738              -0.000927988              -0.001299855               0.002384178               0.001084323               0.000000000               0.000000000               0.000000000               0.000000000              -0.000983383               0.005601832              -0.000790158              -0.001068995               0.002223590               0.001154595               0.000000000               0.000000000               0.000000000               0.000000000              -0.000507462               0.005386453              -0.000656521              -0.000863603               0.002083334               0.001219731               0.000000000               0.000000000               0.000000000               0.000000000              -0.000097915               0.005206662              -0.000536065              -0.000687549               0.001964720               0.001277170               0.000000000               0.000000000               0.000000000               0.000000000               0.000237262               0.005066273              -0.000421330              -0.000544310               0.001870177               0.001325867               0.000000000               0.000000000               0.000000000               0.000000000               0.000496876               0.004970074              -0.000302654              -0.000434930               0.001801651               0.001366722               0.000000000               0.000000000               0.000000000               0.000000000               0.000677609               0.004924273              -0.000185605              -0.000361430               0.001761884               0.001400455               0.000000000               0.000000000               0.000000000               0.000000000               0.000774749               0.004939238              -0.000082243              -0.000326873               0.001755354               0.001428481               0.000000000               0.000000000               0.000000000               0.000000000               0.000788082               0.004952539              -0.000031748              -0.000323536               0.001758675               0.001435139               0.000000000               0.000000000               0.000000000               0.000000000              -0.006570740               0.000711093               0.000794845              -0.002552911               0.001087994              -0.001464917               0.000000000               0.000000000               0.000000000               0.000000000              -0.005628780               0.002697115              -0.000715317              -0.002447928               0.001715003              -0.000732925               0.000000000               0.000000000               0.000000000               0.000000000              -0.005231068               0.004518584              -0.001971452              -0.002526468               0.002348334              -0.000178134               0.000000000               0.000000000               0.000000000               0.000000000              -0.004614318               0.005396191              -0.002153275              -0.002404888               0.002600341               0.000195453               0.000000000               0.000000000               0.000000000               0.000000000              -0.003962773               0.005785649              -0.002027697              -0.002209241               0.002664944               0.000455703               0.000000000               0.000000000               0.000000000               0.000000000              -0.003321558               0.005906234              -0.001829956              -0.001983859               0.002630011               0.000646152               0.000000000               0.000000000               0.000000000               0.000000000              -0.002695839               0.005886558              -0.001636144              -0.001746755               0.002544418               0.000797662               0.000000000               0.000000000               0.000000000               0.000000000              -0.002098890               0.005791882              -0.001460346              -0.001511066               0.002434296               0.000923231               0.000000000               0.000000000               0.000000000               0.000000000              -0.001520153               0.005657931              -0.001298987              -0.001277296               0.002311723               0.001034427               0.000000000               0.000000000               0.000000000               0.000000000              -0.000964129               0.005509459              -0.001141394              -0.001050229               0.002186544               0.001136315               0.000000000               0.000000000               0.000000000               0.000000000              -0.000447177               0.005370568              -0.000985835              -0.000839011               0.002069842               0.001230831               0.000000000               0.000000000               0.000000000               0.000000000               0.000011126               0.005247810              -0.000831237              -0.000651803               0.001966520               0.001314717               0.000000000               0.000000000               0.000000000               0.000000000               0.000403907               0.005148085              -0.000675062              -0.000492044               0.001880026               0.001387982               0.000000000               0.000000000               0.000000000               0.000000000               0.000731213               0.005065355              -0.000513247              -0.000358964               0.001808089               0.001449126               0.000000000               0.000000000               0.000000000               0.000000000               0.000985728               0.005011760              -0.000342328              -0.000256821               0.001756177               0.001499356               0.000000000               0.000000000               0.000000000               0.000000000               0.001147650               0.004993273              -0.000168564              -0.000193790               0.001729004               0.001535214               0.000000000               0.000000000               0.000000000               0.000000000               0.001198932               0.004989710              -0.000083930              -0.000174114               0.001721258               0.001547144               0.000000000               0.000000000               0.000000000               0.000000000              -0.008748658              -0.000266287               0.001296712              -0.003247458               0.000993717              -0.002253742               0.000000000               0.000000000               0.000000000               0.000000000              -0.006760005               0.001459354              -0.000430773              -0.002717418               0.001392247              -0.001325170               0.000000000               0.000000000               0.000000000               0.000000000              -0.005514270               0.002991948              -0.001938452              -0.002441841               0.001811250              -0.000630591               0.000000000               0.000000000               0.000000000               0.000000000              -0.004595678               0.003977314              -0.002282320              -0.002220539               0.002065936              -0.000154603               0.000000000               0.000000000               0.000000000               0.000000000              -0.003834517               0.004573587              -0.002240072              -0.002009638               0.002194392               0.000184754               0.000000000               0.000000000               0.000000000               0.000000000              -0.003164813               0.004917264              -0.002077993              -0.001801459               0.002239557               0.000438098               0.000000000               0.000000000               0.000000000               0.000000000              -0.002544563               0.005102506              -0.001891862              -0.001592021               0.002231491               0.000639470               0.000000000               0.000000000               0.000000000               0.000000000              -0.001958467               0.005188407              -0.001714496              -0.001382973               0.002190442               0.000807469               0.000000000               0.000000000               0.000000000               0.000000000              -0.001387672               0.005210781              -0.001552189              -0.001171723               0.002127483               0.000955761               0.000000000               0.000000000               0.000000000               0.000000000              -0.000824939               0.005195856              -0.001391816              -0.000958832               0.002051545               0.001092713               0.000000000               0.000000000               0.000000000               0.000000000              -0.000284821               0.005163352              -0.001227763              -0.000752226               0.001971842               0.001219616               0.000000000               0.000000000               0.000000000               0.000000000               0.000216307               0.005123763              -0.001061764              -0.000559355               0.001894355               0.001335001               0.000000000               0.000000000               0.000000000               0.000000000               0.000674924               0.005088999              -0.000896104              -0.000383028               0.001823992               0.001440964               0.000000000               0.000000000               0.000000000               0.000000000               0.001083537               0.005054726              -0.000719321              -0.000225514               0.001760063               0.001534549               0.000000000               0.000000000               0.000000000               0.000000000               0.001429495               0.005021980              -0.000512446              -0.000091687               0.001704539               0.001612852               0.000000000               0.000000000               0.000000000               0.000000000               0.001687329               0.005003968              -0.000269202               0.000007252               0.001665556               0.001672807               0.000000000               0.000000000               0.000000000               0.000000000               0.001802353               0.005006880              -0.000144671               0.000050022               0.001652269               0.001702291               0.000000000               0.000000000               0.000000000               0.000000000              -0.010830047              -0.000869585               0.001463689              -0.003952567               0.001027653              -0.002924914               0.000000000               0.000000000               0.000000000               0.000000000              -0.007870662               0.000456144              -0.000187094              -0.003008514               0.001154878              -0.001853636               0.000000000               0.000000000               0.000000000               0.000000000              -0.005762472               0.001568963              -0.001680123              -0.002357044               0.001308660              -0.001048385               0.000000000               0.000000000               0.000000000               0.000000000              -0.004497140               0.002540804              -0.002107247              -0.002004025               0.001514932              -0.000489093               0.000000000               0.000000000               0.000000000               0.000000000              -0.003601424               0.003261110              -0.002142750              -0.001758170               0.001673081              -0.000085089               0.000000000               0.000000000               0.000000000               0.000000000              -0.002885799               0.003777372              -0.002035295              -0.001554343               0.001777225               0.000222882               0.000000000               0.000000000               0.000000000               0.000000000              -0.002267984               0.004143344              -0.001881878              -0.001368409               0.001837236               0.000468827               0.000000000               0.000000000               0.000000000               0.000000000              -0.001694877               0.004398634              -0.001729067              -0.001185406               0.001861331               0.000675925               0.000000000               0.000000000               0.000000000               0.000000000              -0.001141090               0.004573790              -0.001587180              -0.000999631               0.001857791               0.000858160               0.000000000               0.000000000               0.000000000               0.000000000              -0.000590038               0.004707423              -0.001440033              -0.000809691               0.001839022               0.001029331               0.000000000               0.000000000               0.000000000               0.000000000              -0.000042560               0.004805259              -0.001285616              -0.000616617               0.001807276               0.001190659               0.000000000               0.000000000               0.000000000               0.000000000               0.000498094               0.004871581              -0.001134002              -0.000422162               0.001764564               0.001342403               0.000000000               0.000000000               0.000000000               0.000000000               0.001026690               0.004924931              -0.000984008              -0.000230608               0.001718496               0.001487889               0.000000000               0.000000000               0.000000000               0.000000000               0.001529557               0.004961141              -0.000820444              -0.000046559               0.001669217               0.001622657               0.000000000               0.000000000               0.000000000               0.000000000               0.001996961               0.004976591              -0.000614852               0.000126785               0.001616586               0.001743370               0.000000000               0.000000000               0.000000000               0.000000000               0.002412387               0.004988355              -0.000340448               0.000281098               0.001569069               0.001850167               0.000000000               0.000000000               0.000000000               0.000000000               0.002652928               0.005015784              -0.000195289               0.000367871               0.001549288               0.001917159               0.000000000               0.000000000               0.000000000               0.000000000              -0.012560937              -0.001168819               0.001263260              -0.004564246               0.001131801              -0.003432445               0.000000000               0.000000000               0.000000000               0.000000000              -0.008826280              -0.000261763              -0.000028627              -0.003277132               0.001005116              -0.002272016               0.000000000               0.000000000               0.000000000               0.000000000              -0.005973766               0.000408708              -0.001230017              -0.002291249               0.000899979              -0.001391270               0.000000000               0.000000000               0.000000000               0.000000000              -0.004376210               0.001290347              -0.001620912              -0.001802370               0.001030898              -0.000771472               0.000000000               0.000000000               0.000000000               0.000000000              -0.003340922               0.002070304              -0.001693534              -0.001511631               0.001193970              -0.000317662               0.000000000               0.000000000               0.000000000               0.000000000              -0.002575558               0.002699737              -0.001637946              -0.001303299               0.001334335               0.000031037               0.000000000               0.000000000               0.000000000               0.000000000              -0.001946619               0.003195036              -0.001535876              -0.001129360               0.001441454               0.000312094               0.000000000               0.000000000               0.000000000               0.000000000              -0.001380292               0.003585559              -0.001429930              -0.000965802               0.001517108               0.000551306               0.000000000               0.000000000               0.000000000               0.000000000              -0.000842472               0.003900589              -0.001326576              -0.000803499               0.001568016               0.000764517               0.000000000               0.000000000               0.000000000               0.000000000              -0.000311446               0.004161066              -0.001214248              -0.000636925               0.001599316               0.000962391               0.000000000               0.000000000               0.000000000               0.000000000               0.000233070               0.004375940              -0.001095497              -0.000459591               0.001611829               0.001152238               0.000000000               0.000000000               0.000000000               0.000000000               0.000798537               0.004556267              -0.000978126              -0.000270082               0.001608768               0.001338686               0.000000000               0.000000000               0.000000000               0.000000000               0.001381035               0.004706467              -0.000860937              -0.000070421               0.001592280               0.001521860               0.000000000               0.000000000               0.000000000               0.000000000               0.001978750               0.004824183              -0.000733202               0.000139007               0.001561709               0.001700716               0.000000000               0.000000000               0.000000000               0.000000000               0.002587762               0.004908653              -0.000566627               0.000356826               0.001517259               0.001874085               0.000000000               0.000000000               0.000000000               0.000000000               0.003207190               0.004964890              -0.000322482               0.000582079               0.001460921               0.002043000               0.000000000               0.000000000               0.000000000               0.000000000               0.003633394               0.005028552              -0.000192632               0.000733946               0.001431519               0.002165465               0.000000000               0.000000000               0.000000000               0.000000000              -0.013713493              -0.001271584               0.000729107              -0.004983609               0.001237333              -0.003746276               0.000000000               0.000000000               0.000000000               0.000000000              -0.009480258              -0.000677768               0.000022954              -0.003470373               0.000930862              -0.002539511               0.000000000               0.000000000               0.000000000               0.000000000              -0.006125356              -0.000345155              -0.000645944              -0.002253863               0.000636231              -0.001617631               0.000000000               0.000000000               0.000000000               0.000000000              -0.004286243               0.000439240              -0.000880330              -0.001662244               0.000700490              -0.000961755               0.000000000               0.000000000               0.000000000               0.000000000              -0.003140483               0.001235557              -0.000936148              -0.001332124               0.000855887              -0.000476236               0.000000000               0.000000000               0.000000000               0.000000000              -0.002333463               0.001917355              -0.000915541              -0.001114716               0.001010683              -0.000104032               0.000000000               0.000000000               0.000000000               0.000000000              -0.001690584               0.002487651              -0.000866649              -0.000944923               0.001144183               0.000199259               0.000000000               0.000000000               0.000000000               0.000000000              -0.001128345               0.002969732              -0.000814421              -0.000794344               0.001254682               0.000460338               0.000000000               0.000000000               0.000000000               0.000000000              -0.000605423               0.003379719              -0.000759441              -0.000649497               0.001343061               0.000693563               0.000000000               0.000000000               0.000000000               0.000000000              -0.000085639               0.003729293              -0.000699142              -0.000498275               0.001409177               0.000910902               0.000000000               0.000000000               0.000000000               0.000000000               0.000457358               0.004026591              -0.000637084              -0.000331814               0.001452788               0.001120974               0.000000000               0.000000000               0.000000000               0.000000000               0.001037042               0.004281922              -0.000572314              -0.000146350               0.001476076               0.001329727               0.000000000               0.000000000               0.000000000               0.000000000               0.001658361               0.004499469              -0.000507493               0.000059451               0.001479991               0.001539442               0.000000000               0.000000000               0.000000000               0.000000000               0.002326300               0.004683815              -0.000437060               0.000286883               0.001465629               0.001752511               0.000000000               0.000000000               0.000000000               0.000000000               0.003048739               0.004831192              -0.000339721               0.000539373               0.001430590               0.001969963               0.000000000               0.000000000               0.000000000               0.000000000               0.003845870               0.004930709              -0.000193834               0.000825854               0.001368268               0.002194123               0.000000000               0.000000000               0.000000000               0.000000000               0.004441767               0.005028757              -0.000118829               0.001037058               0.001330550               0.002367608               0.000000000               0.000000000               0.000000000               0.000000000              -0.014120475              -0.001294325              -0.000000000              -0.005133384               0.001279678              -0.003853706               0.000000000               0.000000000               0.000000000               0.000000000              -0.009713817              -0.000816158              -0.000000000              -0.003540659               0.000908161              -0.002632498               0.000000000               0.000000000               0.000000000               0.000000000              -0.006181228              -0.000608194              -0.000000000              -0.002241935               0.000544577              -0.001697358               0.000000000               0.000000000               0.000000000               0.000000000              -0.004252835               0.000137408              -0.000000000              -0.001611987               0.000583128              -0.001028860               0.000000000               0.000000000               0.000000000               0.000000000              -0.003065598               0.000934070               0.000000000              -0.001266356               0.000733470              -0.000532886               0.000000000               0.000000000               0.000000000               0.000000000              -0.002241264               0.001630508              -0.000000000              -0.001044285               0.000891592              -0.000152694               0.000000000               0.000000000               0.000000000               0.000000000              -0.001593275               0.002225296              -0.000000000              -0.000875638               0.001033637               0.000157999               0.000000000               0.000000000               0.000000000               0.000000000              -0.001035142               0.002736352               0.000000000              -0.000730221               0.001155515               0.000425294               0.000000000               0.000000000               0.000000000               0.000000000              -0.000518506               0.003179838              -0.000000000              -0.000591918               0.001257241               0.000665323               0.000000000               0.000000000               0.000000000               0.000000000               0.000000950               0.003566076              -0.000000000              -0.000445402               0.001337148               0.000891745               0.000000000               0.000000000               0.000000000               0.000000000               0.000545641               0.003892975               0.000000000              -0.000282006               0.001391647               0.001109641               0.000000000               0.000000000               0.000000000               0.000000000               0.001132245               0.004170762               0.000000000              -0.000096753               0.001422491               0.001325738               0.000000000               0.000000000               0.000000000               0.000000000               0.001770824               0.004408341               0.000000000               0.000113015               0.001431761               0.001544776               0.000000000               0.000000000               0.000000000               0.000000000               0.002463230               0.004615716              -0.000000000               0.000346743               0.001422975               0.001769719               0.000000000               0.000000000               0.000000000               0.000000000               0.003227369               0.004789822               0.000000000               0.000611529               0.001392748               0.002004278               0.000000000               0.000000000               0.000000000               0.000000000               0.004095831               0.004911206               0.000000000               0.000922027               0.001329710               0.002251737               0.000000000               0.000000000               0.000000000               0.000000000               0.004758004               0.005024669               0.000000000               0.001156156               0.001289488               0.002445644               0.000000000               0.000000000               0.000000000               0.000000000               0.000000000               0.000000000               0.000000000               0.000000000               0.000000000               0.000000000               0.000000000               0.000000000               0.000000000               0.000000000               0.000000000               0.000000000               0.000000000               0.000000000               0.000000000               0.000000000               0.000000000               0.000000000               0.000000000               0.000000000               0.000000000               0.000000000               0.000000000               0.000000000               0.000000000               0.000000000               0.000000000               0.000000000               0.000000000               0.000000000               0.000000000               0.000000000               0.000000000               0.000000000               0.000000000               0.000000000               0.000000000               0.000000000               0.000000000               0.000000000               0.000000000               0.000000000               0.000000000               0.000000000               0.000000000               0.000000000               0.000000000               0.000000000               0.000000000               0.000000000               0.000000000               0.000000000               0.000000000               0.000000000               0.000000000               0.000000000               0.000000000               0.000000000               0.000000000               0.000000000               0.000000000               0.000000000               0.000000000               0.000000000               0.000000000               0.000000000               0.000000000               0.000000000               0.000000000               0.000000000               0.000000000               0.000000000               0.000000000               0.000000000               0.000000000               0.000000000               0.000000000               0.000000000               0.000000000               0.000000000               0.000000000               0.000000000               0.000000000               0.000000000               0.000000000               0.000000000               0.000000000               0.000000000               0.000000000               0.000000000               0.000000000               0.000000000               0.000000000               0.000000000               0.000000000               0.000000000               0.000000000               0.000000000               0.000000000               0.000000000               0.000000000               0.000000000               0.000000000               0.000000000               0.000000000               0.000000000               0.000000000               0.000000000               0.000000000               0.000000000               0.000000000               0.000000000               0.000000000               0.000000000               0.000000000               0.000000000               0.000000000               0.000000000               0.000000000               0.000000000               0.000000000               0.000000000               0.000000000               0.000000000               0.000000000               0.000000000               0.000000000               0.000000000               0.000000000               0.000000000               0.000000000               0.000000000               0.000000000               0.000000000               0.000000000               0.000000000               0.000000000               0.000000000               0.000000000               0.000000000               0.000000000               0.000000000               0.000000000               0.000000000               0.000000000               0.000000000               0.000000000               0.000000000               0.000000000               0.000000000               0.000000000               0.000000000               0.000000000               0.000000000               0.000000000               0.000000000               0.000000000               0.000000000               0.000000000               0.000000000               0.000000000               0.000000000               0.000000000               0.000000000               0.000000000               0.000000000               0.000000000               0.000000000               0.000000000               0.000000000               0.002120322               0.021262340               0.001440814              -0.001862668               0.007708265               0.005845597               0.000000000               0.000000000               0.000000000               0.000000000               0.001907201               0.016325048               0.000636731              -0.001325428               0.005883437               0.004558010               0.000000000               0.000000000               0.000000000               0.000000000               0.002330847               0.012342878              -0.000155697              -0.000668791               0.004337182               0.003668391               0.000000000               0.000000000               0.000000000               0.000000000               0.002078881               0.010069818              -0.000480682              -0.000479146               0.003516288               0.003037142               0.000000000               0.000000000               0.000000000               0.000000000               0.001659290               0.008604523              -0.000605014              -0.000453331               0.003019256               0.002565925               0.000000000               0.000000000               0.000000000               0.000000000               0.001240962               0.007555926              -0.000640832              -0.000479129               0.002678326               0.002199198               0.000000000               0.000000000               0.000000000               0.000000000               0.000876784               0.006739974              -0.000638648              -0.000513702               0.002417869               0.001904168               0.000000000               0.000000000               0.000000000               0.000000000               0.000580528               0.006055266              -0.000615799              -0.000539209               0.002198138               0.001658929               0.000000000               0.000000000               0.000000000               0.000000000               0.000351493               0.005442034              -0.000582502              -0.000548443               0.001996808               0.001448364               0.000000000               0.000000000               0.000000000               0.000000000               0.000178803               0.004863944              -0.000546859              -0.000540941               0.001801612               0.001260671               0.000000000               0.000000000               0.000000000               0.000000000               0.000057763               0.004299802              -0.000510290              -0.000515813               0.001605191               0.001089377               0.000000000               0.000000000               0.000000000               0.000000000              -0.000018704               0.003731658              -0.000470697              -0.000473470               0.001401697               0.000928227               0.000000000               0.000000000               0.000000000               0.000000000              -0.000068711               0.003143830              -0.000422376              -0.000418744               0.001187514               0.000768770               0.000000000               0.000000000               0.000000000               0.000000000              -0.000094030               0.002523214              -0.000359966              -0.000350662               0.000957950               0.000607288               0.000000000               0.000000000               0.000000000               0.000000000              -0.000091004               0.001858070              -0.000277556              -0.000266385               0.000708146               0.000441761               0.000000000               0.000000000               0.000000000               0.000000000              -0.000056877               0.001134443              -0.000159804              -0.000163134               0.000432522               0.000269388               0.000000000               0.000000000               0.000000000               0.000000000              -0.000088105               0.000595353              -0.000100415              -0.000107458               0.000234268               0.000126810               0.000000000               0.000000000               0.000000000               0.000000000               0.002259424               0.019925470               0.002652714              -0.001643397               0.007189556               0.005546159               0.000000000               0.000000000               0.000000000               0.000000000               0.001713395               0.015477430               0.001163878              -0.001292153               0.005589809               0.004297656               0.000000000               0.000000000               0.000000000               0.000000000               0.001783362               0.012002475              -0.000287988              -0.000831547               0.004277967               0.003446420               0.000000000               0.000000000               0.000000000               0.000000000               0.001410320               0.009992803              -0.000859742              -0.000720229               0.003570977               0.002850748               0.000000000               0.000000000               0.000000000               0.000000000               0.000982278               0.008667447              -0.001066162              -0.000715075               0.003127479               0.002412403               0.000000000               0.000000000               0.000000000               0.000000000               0.000604893               0.007695800              -0.001117547              -0.000735139               0.002810287               0.002075148               0.000000000               0.000000000               0.000000000               0.000000000               0.000298919               0.006915462              -0.001103187              -0.000752336               0.002555909               0.001803573               0.000000000               0.000000000               0.000000000               0.000000000               0.000071859               0.006246633              -0.001056418              -0.000753880               0.002333483               0.001579603               0.000000000               0.000000000               0.000000000               0.000000000              -0.000086711               0.005644553              -0.000993154              -0.000738084               0.002127527               0.001389442               0.000000000               0.000000000               0.000000000               0.000000000              -0.000191621               0.005075683              -0.000925380              -0.000706317               0.001927316               0.001220999               0.000000000               0.000000000               0.000000000               0.000000000              -0.000243830               0.004520572              -0.000855137              -0.000656506               0.001725678               0.001069171               0.000000000               0.000000000               0.000000000               0.000000000              -0.000254413               0.003967013              -0.000780727              -0.000591280               0.001519418               0.000928137               0.000000000               0.000000000               0.000000000               0.000000000              -0.000241197               0.003408819              -0.000694673              -0.000516550               0.001308445               0.000791894               0.000000000               0.000000000               0.000000000               0.000000000              -0.000207135               0.002847571              -0.000585469              -0.000433621               0.001093721               0.000660100               0.000000000               0.000000000               0.000000000               0.000000000              -0.000153915               0.002284175              -0.000445237              -0.000343239               0.000875797               0.000532558               0.000000000               0.000000000               0.000000000               0.000000000              -0.000084571               0.001721388              -0.000252444              -0.000246887               0.000656086               0.000409199               0.000000000               0.000000000               0.000000000               0.000000000              -0.000086408               0.001333492              -0.000154380              -0.000199089               0.000510856               0.000311767               0.000000000               0.000000000               0.000000000               0.000000000               0.002351696               0.017896998               0.003478083              -0.001355238               0.006417352               0.005062114               0.000000000               0.000000000               0.000000000               0.000000000               0.001344125               0.014219610               0.001516203              -0.001273402               0.005164290               0.003890888               0.000000000               0.000000000               0.000000000               0.000000000               0.000930442               0.011511088              -0.000368081              -0.001089968               0.004200314               0.003110346               0.000000000               0.000000000               0.000000000               0.000000000               0.000427241               0.009872159              -0.001065145              -0.001073802               0.003648621               0.002574819               0.000000000               0.000000000               0.000000000               0.000000000               0.000020307               0.008735115              -0.001296216              -0.001084272               0.003273100               0.002188828               0.000000000               0.000000000               0.000000000               0.000000000              -0.000273936               0.007856686              -0.001336259              -0.001084810               0.002980472               0.001895663               0.000000000               0.000000000               0.000000000               0.000000000              -0.000474735               0.007119471              -0.001298684              -0.001067957               0.002729119               0.001661162               0.000000000               0.000000000               0.000000000               0.000000000              -0.000595699               0.006465672              -0.001229832              -0.001031594               0.002499067               0.001467473               0.000000000               0.000000000               0.000000000               0.000000000              -0.000646862               0.005866402              -0.001145675              -0.000975872               0.002280738               0.001304867               0.000000000               0.000000000               0.000000000               0.000000000              -0.000642203               0.005301264              -0.001056531              -0.000903482               0.002068231               0.001164749               0.000000000               0.000000000               0.000000000               0.000000000              -0.000594146               0.004757960              -0.000962607              -0.000817548               0.001858487               0.001040939               0.000000000               0.000000000               0.000000000               0.000000000              -0.000519384               0.004229132              -0.000862246              -0.000723409               0.001650833               0.000927424               0.000000000               0.000000000               0.000000000               0.000000000              -0.000434423               0.003716704              -0.000749809              -0.000627495               0.001448054               0.000820559               0.000000000               0.000000000               0.000000000               0.000000000              -0.000335758               0.003229917              -0.000616085              -0.000529648               0.001253177               0.000723530               0.000000000               0.000000000               0.000000000               0.000000000              -0.000223838               0.002780392              -0.000453465              -0.000431487               0.001070617               0.000639130               0.000000000               0.000000000               0.000000000               0.000000000              -0.000111464               0.002380100              -0.000248921              -0.000339311               0.000906462               0.000567152               0.000000000               0.000000000               0.000000000               0.000000000              -0.000082234               0.002135647              -0.000148318              -0.000297793               0.000811140               0.000513346               0.000000000               0.000000000               0.000000000               0.000000000               0.002265116               0.015425836               0.003839359              -0.001078811               0.005501497               0.004422686               0.000000000               0.000000000               0.000000000               0.000000000               0.000781414               0.012725263               0.001678967              -0.001297625               0.004674253               0.003376628               0.000000000               0.000000000               0.000000000               0.000000000              -0.000131376               0.010935484              -0.000357617              -0.001416198               0.004117191               0.002700993               0.000000000               0.000000000               0.000000000               0.000000000              -0.000705811               0.009703994              -0.001055015              -0.001477675               0.003727191               0.002249516               0.000000000               0.000000000               0.000000000               0.000000000              -0.001029431               0.008755065              -0.001258565              -0.001480416               0.003411798               0.001931381               0.000000000               0.000000000               0.000000000               0.000000000              -0.001194879               0.007954599              -0.001272333              -0.001442401               0.003132307               0.001689905               0.000000000               0.000000000               0.000000000               0.000000000              -0.001251065               0.007253019              -0.001215219              -0.001375774               0.002876240               0.001500466               0.000000000               0.000000000               0.000000000               0.000000000              -0.001229856               0.006609181              -0.001134974              -0.001287341               0.002632152               0.001344811               0.000000000               0.000000000               0.000000000               0.000000000              -0.001148838               0.006010538              -0.001049109              -0.001182129               0.002397536               0.001215407               0.000000000               0.000000000               0.000000000               0.000000000              -0.001025818               0.005452745              -0.000957639              -0.001066273               0.002172988               0.001106715               0.000000000               0.000000000               0.000000000               0.000000000              -0.000883607               0.004925413              -0.000856893              -0.000947027               0.001957464               0.001010436               0.000000000               0.000000000               0.000000000               0.000000000              -0.000731988               0.004431771              -0.000749558              -0.000828465               0.001753397               0.000924932               0.000000000               0.000000000               0.000000000               0.000000000              -0.000577261               0.003974448              -0.000635247              -0.000713277               0.001562562               0.000849284               0.000000000               0.000000000               0.000000000               0.000000000              -0.000419652               0.003565380              -0.000506762              -0.000603041               0.001389462               0.000786421               0.000000000               0.000000000               0.000000000               0.000000000              -0.000265276               0.003219610              -0.000359570              -0.000501929               0.001240502               0.000738574               0.000000000               0.000000000               0.000000000               0.000000000              -0.000126099               0.002954865              -0.000189390              -0.000416644               0.001123827               0.000707182               0.000000000               0.000000000               0.000000000               0.000000000              -0.000076893               0.002817922              -0.000108031              -0.000381074               0.001066323               0.000685249               0.000000000               0.000000000               0.000000000               0.000000000               0.001872768               0.012766942               0.003746266              -0.000893581               0.004553464               0.003659883               0.000000000               0.000000000               0.000000000               0.000000000               0.000025707               0.011158467               0.001686613              -0.001385166               0.004181174               0.002796008               0.000000000               0.000000000               0.000000000               0.000000000              -0.001276364               0.010321464              -0.000223148              -0.001768815               0.004030058               0.002261243               0.000000000               0.000000000               0.000000000               0.000000000              -0.001817260               0.009467541              -0.000823623              -0.001864911               0.003777452               0.001912542               0.000000000               0.000000000               0.000000000               0.000000000              -0.001989938               0.008670086              -0.000973027              -0.001829983               0.003499994               0.001670011               0.000000000               0.000000000               0.000000000               0.000000000              -0.001980909               0.007929529              -0.000969403              -0.001734028               0.003221159               0.001487131               0.000000000               0.000000000               0.000000000               0.000000000              -0.001866875               0.007248769              -0.000917973              -0.001606170               0.002951622               0.001345452               0.000000000               0.000000000               0.000000000               0.000000000              -0.001687538               0.006613878              -0.000851081              -0.001459558               0.002691123               0.001231565               0.000000000               0.000000000               0.000000000               0.000000000              -0.001471460               0.006024800              -0.000786200              -0.001304894               0.002443211               0.001138317               0.000000000               0.000000000               0.000000000               0.000000000              -0.001242691               0.005485503              -0.000713449              -0.001151694               0.002212381               0.001060687               0.000000000               0.000000000               0.000000000               0.000000000              -0.001016781               0.004990499              -0.000631540              -0.001005103               0.001998517               0.000993414               0.000000000               0.000000000               0.000000000               0.000000000              -0.000797567               0.004547500              -0.000542469              -0.000867523               0.001804992               0.000937469               0.000000000               0.000000000               0.000000000               0.000000000              -0.000592206               0.004157212              -0.000446810              -0.000741727               0.001632966               0.000891239               0.000000000               0.000000000               0.000000000               0.000000000              -0.000400299               0.003833108              -0.000345123              -0.000629249               0.001487440               0.000858191               0.000000000               0.000000000               0.000000000               0.000000000              -0.000230328               0.003591306              -0.000234908              -0.000535285               0.001375518               0.000840233               0.000000000               0.000000000               0.000000000               0.000000000              -0.000099804               0.003445439              -0.000118292              -0.000468105               0.001304503               0.000836398               0.000000000               0.000000000               0.000000000               0.000000000              -0.000047188               0.003401025              -0.000059933              -0.000442823               0.001281271               0.000838449               0.000000000               0.000000000               0.000000000               0.000000000               0.001116335               0.010139544               0.003284409              -0.000848818               0.003662753               0.002813935               0.000000000               0.000000000               0.000000000               0.000000000              -0.000876644               0.009638510               0.001599424              -0.001533552               0.003723988               0.002190436               0.000000000               0.000000000               0.000000000               0.000000000              -0.002379309               0.009681782               0.000047879              -0.002102459               0.003928048               0.001825589               0.000000000               0.000000000               0.000000000               0.000000000              -0.002772814               0.009133857              -0.000408857              -0.002181532               0.003771766               0.001590234               0.000000000               0.000000000               0.000000000               0.000000000              -0.002736530               0.008454140              -0.000523053              -0.002082961               0.003512339               0.001429378               0.000000000               0.000000000               0.000000000               0.000000000              -0.002525745               0.007767424              -0.000532872              -0.001918077               0.003228475               0.001310397               0.000000000               0.000000000               0.000000000               0.000000000              -0.002238067               0.007110665              -0.000512687              -0.001728104               0.002946233               0.001218129               0.000000000               0.000000000               0.000000000               0.000000000              -0.001911235               0.006491378              -0.000480735              -0.001528132               0.002673148               0.001145017               0.000000000               0.000000000               0.000000000               0.000000000              -0.001574923               0.005924290              -0.000454611              -0.001331129               0.002418453               0.001087324               0.000000000               0.000000000               0.000000000               0.000000000              -0.001249820               0.005417915              -0.000420732              -0.001145919               0.002187927               0.001042008               0.000000000               0.000000000               0.000000000               0.000000000              -0.000952377               0.004971634              -0.000371205              -0.000978593               0.001983392               0.001004799               0.000000000               0.000000000               0.000000000               0.000000000              -0.000682210               0.004590731              -0.000312220              -0.000829668               0.001806784               0.000977116               0.000000000               0.000000000               0.000000000               0.000000000              -0.000443600               0.004283605              -0.000242597              -0.000701799               0.001661787               0.000959988               0.000000000               0.000000000               0.000000000               0.000000000              -0.000248952               0.004054559              -0.000168499              -0.000600175               0.001551565               0.000951389               0.000000000               0.000000000               0.000000000               0.000000000              -0.000107183               0.003910378              -0.000095379              -0.000528990               0.001479776               0.000950787               0.000000000               0.000000000               0.000000000               0.000000000              -0.000028361               0.003856692              -0.000035839              -0.000492721               0.001449791               0.000957071               0.000000000               0.000000000               0.000000000               0.000000000               0.000003066               0.003869247              -0.000007640              -0.000482505               0.001450571               0.000968066               0.000000000               0.000000000               0.000000000               0.000000000               0.000042466               0.007709408               0.002566326              -0.000947751               0.002885693               0.001937942               0.000000000               0.000000000               0.000000000               0.000000000              -0.001863484               0.008247865               0.001470514              -0.001729786               0.003325856               0.001596070               0.000000000               0.000000000               0.000000000               0.000000000              -0.003325510               0.009006713               0.000439044              -0.002372900               0.003793174               0.001420275               0.000000000               0.000000000               0.000000000               0.000000000              -0.003472049               0.008692639               0.000109951              -0.002388592               0.003693715               0.001305122               0.000000000               0.000000000               0.000000000               0.000000000              -0.003203520               0.008116150              -0.000010102              -0.002215833               0.003443967               0.001228134               0.000000000               0.000000000               0.000000000               0.000000000              -0.002799321               0.007485044              -0.000060469              -0.001985371               0.003156780               0.001171409               0.000000000               0.000000000               0.000000000               0.000000000              -0.002356590               0.006861102              -0.000088278              -0.001741355               0.002867463               0.001126108               0.000000000               0.000000000               0.000000000               0.000000000              -0.001902111               0.006275692              -0.000104903              -0.001497749               0.002591126               0.001093377               0.000000000               0.000000000               0.000000000               0.000000000              -0.001463885               0.005753503              -0.000126000              -0.001268142               0.002340529               0.001072388               0.000000000               0.000000000               0.000000000               0.000000000              -0.001064557               0.005298271              -0.000136504              -0.001061490               0.002119903               0.001058412               0.000000000               0.000000000               0.000000000               0.000000000              -0.000712709               0.004917150              -0.000125330              -0.000881908               0.001933003               0.001051095               0.000000000               0.000000000               0.000000000               0.000000000              -0.000417935               0.004615597              -0.000099432              -0.000733673               0.001783075               0.001049401               0.000000000               0.000000000               0.000000000               0.000000000              -0.000186572               0.004399954              -0.000060618              -0.000619957               0.001673289               0.001053332               0.000000000               0.000000000               0.000000000               0.000000000              -0.000026522               0.004273876              -0.000018251              -0.000544179               0.001606004               0.001061825               0.000000000               0.000000000               0.000000000               0.000000000               0.000054496               0.004230988               0.000012936              -0.000508436               0.001579794               0.001071358               0.000000000               0.000000000               0.000000000               0.000000000               0.000056536               0.004256909               0.000021395              -0.000510911               0.001589259               0.001078348               0.000000000               0.000000000               0.000000000               0.000000000               0.000044954               0.004302318               0.000024132              -0.000520931               0.001607735               0.001086804               0.000000000               0.000000000               0.000000000               0.000000000              -0.001212998               0.005663704               0.001704957              -0.001162835               0.002275494               0.001112658               0.000000000               0.000000000               0.000000000               0.000000000              -0.002828591               0.007003031               0.001335036              -0.001936096               0.002979685               0.001043589               0.000000000               0.000000000               0.000000000               0.000000000              -0.004074578               0.008314469               0.000907448              -0.002567269               0.003627218               0.001059949               0.000000000               0.000000000               0.000000000               0.000000000              -0.003957043               0.008245668               0.000659825              -0.002514594               0.003586726               0.001072133               0.000000000               0.000000000               0.000000000               0.000000000              -0.003489309               0.007798272               0.000506031              -0.002283269               0.003360488               0.001077219               0.000000000               0.000000000               0.000000000               0.000000000              -0.002934350               0.007246021               0.000400665              -0.002006129               0.003084026               0.001077897               0.000000000               0.000000000               0.000000000               0.000000000              -0.002371430               0.006678457               0.000317173              -0.001724089               0.002800826               0.001076737               0.000000000               0.000000000               0.000000000               0.000000000              -0.001818799               0.006148155               0.000247592              -0.001450565               0.002532886               0.001082321               0.000000000               0.000000000               0.000000000               0.000000000              -0.001302286               0.005685623               0.000182896              -0.001199057               0.002294874               0.001095817               0.000000000               0.000000000               0.000000000               0.000000000              -0.000846433               0.005288352               0.000127354              -0.000978454               0.002088917               0.001110464               0.000000000               0.000000000               0.000000000               0.000000000              -0.000459605               0.004963896               0.000091071              -0.000792837               0.001918894               0.001126057               0.000000000               0.000000000               0.000000000               0.000000000              -0.000153740               0.004719354               0.000073520              -0.000647570               0.001788959               0.001141389               0.000000000               0.000000000               0.000000000               0.000000000               0.000071089               0.004566336               0.000066330              -0.000544132               0.001703474               0.001159342               0.000000000               0.000000000               0.000000000               0.000000000               0.000208228               0.004509531               0.000058685              -0.000485605               0.001665030               0.001179426               0.000000000               0.000000000               0.000000000               0.000000000               0.000252355               0.004541106               0.000044353              -0.000473004               0.001671355               0.001198351               0.000000000               0.000000000               0.000000000               0.000000000               0.000216915               0.004636205               0.000023684              -0.000498181               0.001711447               0.001213265               0.000000000               0.000000000               0.000000000               0.000000000               0.000172141               0.004703290               0.000012327              -0.000523357               0.001742200               0.001218843               0.000000000               0.000000000               0.000000000               0.000000000              -0.002660775               0.003779815               0.000805969              -0.001470264               0.001750013               0.000279749               0.000000000               0.000000000               0.000000000               0.000000000              -0.003645899               0.005555387               0.001186602              -0.002061631               0.002538987               0.000477356               0.000000000               0.000000000               0.000000000               0.000000000              -0.004535050               0.007259760               0.001392747              -0.002608108               0.003289265               0.000681157               0.000000000               0.000000000               0.000000000               0.000000000              -0.004272261               0.007556254               0.001236741              -0.002546623               0.003367600               0.000820977               0.000000000               0.000000000               0.000000000               0.000000000              -0.003724483               0.007369043               0.001050714              -0.002317806               0.003228925               0.000911119               0.000000000               0.000000000               0.000000000               0.000000000              -0.003117685               0.007007334               0.000887003              -0.002045044               0.003017436               0.000972392               0.000000000               0.000000000               0.000000000               0.000000000              -0.002520761               0.006587227               0.000751152              -0.001768685               0.002785282               0.001016597               0.000000000               0.000000000               0.000000000               0.000000000              -0.001937370               0.006173952               0.000636917              -0.001498254               0.002557381               0.001059127               0.000000000               0.000000000               0.000000000               0.000000000              -0.001385020               0.005800629               0.000531691              -0.001244458               0.002348343               0.001103885               0.000000000               0.000000000               0.000000000               0.000000000              -0.000889206               0.005479636               0.000431119              -0.001018404               0.002165995               0.001147591               0.000000000               0.000000000               0.000000000               0.000000000              -0.000462811               0.005211314               0.000341454              -0.000824966               0.002012076               0.001187110               0.000000000               0.000000000               0.000000000               0.000000000              -0.000114211               0.004996125               0.000270792              -0.000667343               0.001887806               0.001220463               0.000000000               0.000000000               0.000000000               0.000000000               0.000156052               0.004846993               0.000210014              -0.000547353               0.001798099               0.001250746               0.000000000               0.000000000               0.000000000               0.000000000               0.000343080               0.004775020               0.000145280              -0.000468222               0.001747731               0.001279510               0.000000000               0.000000000               0.000000000               0.000000000               0.000441948               0.004779192               0.000080361              -0.000431667               0.001736937               0.001305270               0.000000000               0.000000000               0.000000000               0.000000000               0.000464308               0.004859263               0.000030089              -0.000433291               0.001764169               0.001330877               0.000000000               0.000000000               0.000000000               0.000000000               0.000437784               0.004909235               0.000004059              -0.000449484               0.001786224               0.001336739               0.000000000               0.000000000               0.000000000               0.000000000              -0.004492963               0.002084945              -0.000054978              -0.001945476               0.001343464              -0.000602011               0.000000000               0.000000000               0.000000000               0.000000000              -0.004567879               0.004091527               0.000982299              -0.002224391               0.002105291              -0.000119099               0.000000000               0.000000000               0.000000000               0.000000000              -0.004912001               0.005988866               0.001780477              -0.002590603               0.002859802               0.000269200               0.000000000               0.000000000               0.000000000               0.000000000              -0.004515944               0.006627705               0.001778592              -0.002521936               0.003049858               0.000527922               0.000000000               0.000000000               0.000000000               0.000000000              -0.003928833               0.006743787               0.001597644              -0.002316280               0.003020000               0.000703719               0.000000000               0.000000000               0.000000000               0.000000000              -0.003300227               0.006619669               0.001397792              -0.002065039               0.002894880               0.000829841               0.000000000               0.000000000               0.000000000               0.000000000              -0.002683891               0.006390314               0.001220833              -0.001805244               0.002731831               0.000926587               0.000000000               0.000000000               0.000000000               0.000000000              -0.002088177               0.006122899               0.001068664              -0.001548425               0.002557088               0.001008662               0.000000000               0.000000000               0.000000000               0.000000000              -0.001515375               0.005852738               0.000927988              -0.001299855               0.002384178               0.001084323               0.000000000               0.000000000               0.000000000               0.000000000              -0.000983383               0.005601832               0.000790158              -0.001068995               0.002223590               0.001154595               0.000000000               0.000000000               0.000000000               0.000000000              -0.000507462               0.005386453               0.000656521              -0.000863603               0.002083334               0.001219731               0.000000000               0.000000000               0.000000000               0.000000000              -0.000097915               0.005206662               0.000536065              -0.000687549               0.001964720               0.001277170               0.000000000               0.000000000               0.000000000               0.000000000               0.000237262               0.005066273               0.000421330              -0.000544310               0.001870177               0.001325867               0.000000000               0.000000000               0.000000000               0.000000000               0.000496876               0.004970074               0.000302654              -0.000434930               0.001801651               0.001366722               0.000000000               0.000000000               0.000000000               0.000000000               0.000677609               0.004924273               0.000185605              -0.000361430               0.001761884               0.001400455               0.000000000               0.000000000               0.000000000               0.000000000               0.000774749               0.004939238               0.000082243              -0.000326873               0.001755354               0.001428481               0.000000000               0.000000000               0.000000000               0.000000000               0.000788082               0.004952539               0.000031748              -0.000323536               0.001758675               0.001435139               0.000000000               0.000000000               0.000000000               0.000000000              -0.006570740               0.000711093              -0.000794845              -0.002552911               0.001087994              -0.001464917               0.000000000               0.000000000               0.000000000               0.000000000              -0.005628780               0.002697115               0.000715317              -0.002447928               0.001715003              -0.000732925               0.000000000               0.000000000               0.000000000               0.000000000              -0.005231068               0.004518584               0.001971452              -0.002526468               0.002348334              -0.000178134               0.000000000               0.000000000               0.000000000               0.000000000              -0.004614318               0.005396191               0.002153275              -0.002404888               0.002600341               0.000195453               0.000000000               0.000000000               0.000000000               0.000000000              -0.003962773               0.005785649               0.002027697              -0.002209241               0.002664944               0.000455703               0.000000000               0.000000000               0.000000000               0.000000000              -0.003321558               0.005906234               0.001829956              -0.001983859               0.002630011               0.000646152               0.000000000               0.000000000               0.000000000               0.000000000              -0.002695839               0.005886558               0.001636144              -0.001746755               0.002544418               0.000797662               0.000000000               0.000000000               0.000000000               0.000000000              -0.002098890               0.005791882               0.001460346              -0.001511066               0.002434296               0.000923231               0.000000000               0.000000000               0.000000000               0.000000000              -0.001520153               0.005657931               0.001298987              -0.001277296               0.002311723               0.001034427               0.000000000               0.000000000               0.000000000               0.000000000              -0.000964129               0.005509459               0.001141394              -0.001050229               0.002186544               0.001136315               0.000000000               0.000000000               0.000000000               0.000000000              -0.000447177               0.005370568               0.000985835              -0.000839011               0.002069842               0.001230831               0.000000000               0.000000000               0.000000000               0.000000000               0.000011126               0.005247810               0.000831237              -0.000651803               0.001966520               0.001314717               0.000000000               0.000000000               0.000000000               0.000000000               0.000403907               0.005148085               0.000675062              -0.000492044               0.001880026               0.001387982               0.000000000               0.000000000               0.000000000               0.000000000               0.000731213               0.005065355               0.000513247              -0.000358964               0.001808089               0.001449126               0.000000000               0.000000000               0.000000000               0.000000000               0.000985728               0.005011760               0.000342328              -0.000256821               0.001756177               0.001499356               0.000000000               0.000000000               0.000000000               0.000000000               0.001147650               0.004993273               0.000168564              -0.000193790               0.001729004               0.001535214               0.000000000               0.000000000               0.000000000               0.000000000               0.001198932               0.004989710               0.000083930              -0.000174114               0.001721258               0.001547144               0.000000000               0.000000000               0.000000000               0.000000000              -0.008748658              -0.000266287              -0.001296712              -0.003247458               0.000993717              -0.002253742               0.000000000               0.000000000               0.000000000               0.000000000              -0.006760005               0.001459354               0.000430773              -0.002717418               0.001392247              -0.001325170               0.000000000               0.000000000               0.000000000               0.000000000              -0.005514270               0.002991948               0.001938452              -0.002441841               0.001811250              -0.000630591               0.000000000               0.000000000               0.000000000               0.000000000              -0.004595678               0.003977314               0.002282320              -0.002220539               0.002065936              -0.000154603               0.000000000               0.000000000               0.000000000               0.000000000              -0.003834517               0.004573587               0.002240072              -0.002009638               0.002194392               0.000184754               0.000000000               0.000000000               0.000000000               0.000000000              -0.003164813               0.004917264               0.002077993              -0.001801459               0.002239557               0.000438098               0.000000000               0.000000000               0.000000000               0.000000000              -0.002544563               0.005102506               0.001891862              -0.001592021               0.002231491               0.000639470               0.000000000               0.000000000               0.000000000               0.000000000              -0.001958467               0.005188407               0.001714496              -0.001382973               0.002190442               0.000807469               0.000000000               0.000000000               0.000000000               0.000000000              -0.001387672               0.005210781               0.001552189              -0.001171723               0.002127483               0.000955761               0.000000000               0.000000000               0.000000000               0.000000000              -0.000824939               0.005195856               0.001391816              -0.000958832               0.002051545               0.001092713               0.000000000               0.000000000               0.000000000               0.000000000              -0.000284821               0.005163352               0.001227763              -0.000752226               0.001971842               0.001219616               0.000000000               0.000000000               0.000000000               0.000000000               0.000216307               0.005123763               0.001061764              -0.000559355               0.001894355               0.001335001               0.000000000               0.000000000               0.000000000               0.000000000               0.000674924               0.005088999               0.000896104              -0.000383028               0.001823992               0.001440964               0.000000000               0.000000000               0.000000000               0.000000000               0.001083537               0.005054726               0.000719321              -0.000225514               0.001760063               0.001534549               0.000000000               0.000000000               0.000000000               0.000000000               0.001429495               0.005021980               0.000512446              -0.000091687               0.001704539               0.001612852               0.000000000               0.000000000               0.000000000               0.000000000               0.001687329               0.005003968               0.000269202               0.000007252               0.001665556               0.001672807               0.000000000               0.000000000               0.000000000               0.000000000               0.001802353               0.005006880               0.000144671               0.000050022               0.001652269               0.001702291               0.000000000               0.000000000               0.000000000               0.000000000              -0.010830047              -0.000869585              -0.001463689              -0.003952567               0.001027653              -0.002924914               0.000000000               0.000000000               0.000000000               0.000000000              -0.007870662               0.000456144               0.000187094              -0.003008514               0.001154878              -0.001853636               0.000000000               0.000000000               0.000000000               0.000000000              -0.005762472               0.001568963               0.001680123              -0.002357044               0.001308660              -0.001048385               0.000000000               0.000000000               0.000000000               0.000000000              -0.004497140               0.002540804               0.002107247              -0.002004025               0.001514932              -0.000489093               0.000000000               0.000000000               0.000000000               0.000000000              -0.003601424               0.003261110               0.002142750              -0.001758170               0.001673081              -0.000085089               0.000000000               0.000000000               0.000000000               0.000000000              -0.002885799               0.003777372               0.002035295              -0.001554343               0.001777225               0.000222882               0.000000000               0.000000000               0.000000000               0.000000000              -0.002267984               0.004143344               0.001881878              -0.001368409               0.001837236               0.000468827               0.000000000               0.000000000               0.000000000               0.000000000              -0.001694877               0.004398634               0.001729067              -0.001185406               0.001861331               0.000675925               0.000000000               0.000000000               0.000000000               0.000000000              -0.001141090               0.004573790               0.001587180              -0.000999631               0.001857791               0.000858160               0.000000000               0.000000000               0.000000000               0.000000000              -0.000590038               0.004707423               0.001440033              -0.000809691               0.001839022               0.001029331               0.000000000               0.000000000               0.000000000               0.000000000              -0.000042560               0.004805259               0.001285616              -0.000616617               0.001807276               0.001190659               0.000000000               0.000000000               0.000000000               0.000000000               0.000498094               0.004871581               0.001134002              -0.000422162               0.001764564               0.001342403               0.000000000               0.000000000               0.000000000               0.000000000               0.001026690               0.004924931               0.000984008              -0.000230608               0.001718496               0.001487889               0.000000000               0.000000000               0.000000000               0.000000000               0.001529557               0.004961141               0.000820444              -0.000046559               0.001669217               0.001622657               0.000000000               0.000000000               0.000000000               0.000000000               0.001996961               0.004976591               0.000614852               0.000126785               0.001616586               0.001743370               0.000000000               0.000000000               0.000000000               0.000000000               0.002412387               0.004988355               0.000340448               0.000281098               0.001569069               0.001850167               0.000000000               0.000000000               0.000000000               0.000000000               0.002652928               0.005015784               0.000195289               0.000367871               0.001549288               0.001917159               0.000000000               0.000000000               0.000000000               0.000000000              -0.012560937              -0.001168819              -0.001263260              -0.004564246               0.001131801              -0.003432445               0.000000000               0.000000000               0.000000000               0.000000000              -0.008826280              -0.000261763               0.000028627              -0.003277132               0.001005116              -0.002272016               0.000000000               0.000000000               0.000000000               0.000000000              -0.005973766               0.000408708               0.001230017              -0.002291249               0.000899979              -0.001391270               0.000000000               0.000000000               0.000000000               0.000000000              -0.004376210               0.001290347               0.001620912              -0.001802370               0.001030898              -0.000771472               0.000000000               0.000000000               0.000000000               0.000000000              -0.003340922               0.002070304               0.001693534              -0.001511631               0.001193970              -0.000317662               0.000000000               0.000000000               0.000000000               0.000000000              -0.002575558               0.002699737               0.001637946              -0.001303299               0.001334335               0.000031037               0.000000000               0.000000000               0.000000000               0.000000000              -0.001946619               0.003195036               0.001535876              -0.001129360               0.001441454               0.000312094               0.000000000               0.000000000               0.000000000               0.000000000              -0.001380292               0.003585559               0.001429930              -0.000965802               0.001517108               0.000551306               0.000000000               0.000000000               0.000000000               0.000000000              -0.000842472               0.003900589               0.001326576              -0.000803499               0.001568016               0.000764517               0.000000000               0.000000000               0.000000000               0.000000000              -0.000311446               0.004161066               0.001214248              -0.000636925               0.001599316               0.000962391               0.000000000               0.000000000               0.000000000               0.000000000               0.000233070               0.004375940               0.001095497              -0.000459591               0.001611829               0.001152238               0.000000000               0.000000000               0.000000000               0.000000000               0.000798537               0.004556267               0.000978126              -0.000270082               0.001608768               0.001338686               0.000000000               0.000000000               0.000000000               0.000000000               0.001381035               0.004706467               0.000860937              -0.000070421               0.001592280               0.001521860               0.000000000               0.000000000               0.000000000               0.000000000               0.001978750               0.004824183               0.000733202               0.000139007               0.001561709               0.001700716               0.000000000               0.000000000               0.000000000               0.000000000               0.002587762               0.004908653               0.000566627               0.000356826               0.001517259               0.001874085               0.000000000               0.000000000               0.000000000               0.000000000               0.003207190               0.004964890               0.000322482               0.000582079               0.001460921               0.002043000               0.000000000               0.000000000               0.000000000               0.000000000               0.003633394               0.005028552               0.000192632               0.000733946               0.001431519               0.002165465               0.000000000               0.000000000               0.000000000               0.000000000              -0.013713493              -0.001271584              -0.000729107              -0.004983609               0.001237333              -0.003746276               0.000000000               0.000000000               0.000000000               0.000000000              -0.009480258              -0.000677768              -0.000022954              -0.003470373               0.000930862              -0.002539511               0.000000000               0.000000000               0.000000000               0.000000000              -0.006125356              -0.000345155               0.000645944              -0.002253863               0.000636231              -0.001617631               0.000000000               0.000000000               0.000000000               0.000000000              -0.004286243               0.000439240               0.000880330              -0.001662244               0.000700490              -0.000961755               0.000000000               0.000000000               0.000000000               0.000000000              -0.003140483               0.001235557               0.000936148              -0.001332124               0.000855887              -0.000476236               0.000000000               0.000000000               0.000000000               0.000000000              -0.002333463               0.001917355               0.000915541              -0.001114716               0.001010683              -0.000104032               0.000000000               0.000000000               0.000000000               0.000000000              -0.001690584               0.002487651               0.000866649              -0.000944923               0.001144183               0.000199259               0.000000000               0.000000000               0.000000000               0.000000000              -0.001128345               0.002969732               0.000814421              -0.000794344               0.001254682               0.000460338               0.000000000               0.000000000               0.000000000               0.000000000              -0.000605423               0.003379719               0.000759441              -0.000649497               0.001343061               0.000693563               0.000000000               0.000000000               0.000000000               0.000000000              -0.000085639               0.003729293               0.000699142              -0.000498275               0.001409177               0.000910902               0.000000000               0.000000000               0.000000000               0.000000000               0.000457358               0.004026591               0.000637084              -0.000331814               0.001452788               0.001120974               0.000000000               0.000000000               0.000000000               0.000000000               0.001037042               0.004281922               0.000572314              -0.000146350               0.001476076               0.001329727               0.000000000               0.000000000               0.000000000               0.000000000               0.001658361               0.004499469               0.000507493               0.000059451               0.001479991               0.001539442               0.000000000               0.000000000               0.000000000               0.000000000               0.002326300               0.004683815               0.000437060               0.000286883               0.001465629               0.001752511               0.000000000               0.000000000               0.000000000               0.000000000               0.003048739               0.004831192               0.000339721               0.000539373               0.001430590               0.001969963               0.000000000               0.000000000               0.000000000               0.000000000               0.003845870               0.004930709               0.000193834               0.000825854               0.001368268               0.002194123               0.000000000               0.000000000               0.000000000               0.000000000               0.004441767               0.005028757               0.000118829               0.001037058               0.001330550               0.002367608               0.000000000               0.000000000               0.000000000               0.000000000              -0.014120475              -0.001294325               0.000000000              -0.005133384               0.001279678              -0.003853706               0.000000000               0.000000000               0.000000000               0.000000000              -0.009713817              -0.000816158               0.000000000              -0.003540659               0.000908161              -0.002632498               0.000000000               0.000000000               0.000000000               0.000000000              -0.006181228              -0.000608194               0.000000000              -0.002241935               0.000544577              -0.001697358               0.000000000               0.000000000               0.000000000               0.000000000              -0.004252835               0.000137408               0.000000000              -0.001611987               0.000583128              -0.001028860               0.000000000               0.000000000               0.000000000               0.000000000              -0.003065598               0.000934070               0.000000000              -0.001266356               0.000733470              -0.000532886               0.000000000               0.000000000               0.000000000               0.000000000              -0.002241264               0.001630508              -0.000000000              -0.001044285               0.000891592              -0.000152694               0.000000000               0.000000000               0.000000000               0.000000000              -0.001593275               0.002225296               0.000000000              -0.000875638               0.001033637               0.000157999               0.000000000               0.000000000               0.000000000               0.000000000              -0.001035142               0.002736352              -0.000000000              -0.000730221               0.001155515               0.000425294               0.000000000               0.000000000               0.000000000               0.000000000              -0.000518506               0.003179838              -0.000000000              -0.000591918               0.001257241               0.000665323               0.000000000               0.000000000               0.000000000               0.000000000               0.000000950               0.003566076              -0.000000000              -0.000445402               0.001337148               0.000891745               0.000000000               0.000000000               0.000000000               0.000000000               0.000545641               0.003892975               0.000000000              -0.000282006               0.001391647               0.001109641               0.000000000               0.000000000               0.000000000               0.000000000               0.001132245               0.004170762              -0.000000000              -0.000096753               0.001422491               0.001325738               0.000000000               0.000000000               0.000000000               0.000000000               0.001770824               0.004408341              -0.000000000               0.000113015               0.001431761               0.001544776               0.000000000               0.000000000               0.000000000               0.000000000               0.002463230               0.004615716              -0.000000000               0.000346743               0.001422975               0.001769719               0.000000000               0.000000000               0.000000000               0.000000000               0.003227369               0.004789822              -0.000000000               0.000611529               0.001392748               0.002004278               0.000000000               0.000000000               0.000000000               0.000000000               0.004095831               0.004911206               0.000000000               0.000922027               0.001329710               0.002251737               0.000000000               0.000000000               0.000000000               0.000000000               0.004758004               0.005024669               0.000000000               0.001156156               0.001289488               0.002445644               0.000000000               0.000000000               0.000000000               0.000000000               0.002054931               0.021729277               0.000000000              -0.001945556               0.007891538               0.005945983               0.000000000               0.000000000               0.000000000               0.000000000               0.001963462               0.016625174               0.000000000              -0.001341845               0.005988951               0.004647106               0.000000000               0.000000000               0.000000000               0.000000000               0.002517527               0.012464669               0.000000000              -0.000614010               0.004359518               0.003745508               0.000000000               0.000000000               0.000000000               0.000000000               0.002314960               0.010096496               0.000000000              -0.000393951               0.003496782               0.003102831               0.000000000               0.000000000               0.000000000               0.000000000               0.001903568               0.008580614              -0.000000000              -0.000358738               0.002979755               0.002621017               0.000000000               0.000000000               0.000000000               0.000000000               0.001475162               0.007502969              -0.000000000              -0.000384684               0.002629193               0.002244508               0.000000000               0.000000000               0.000000000               0.000000000               0.001093078               0.006669796               0.000000000              -0.000423819               0.002364516               0.001940697               0.000000000               0.000000000               0.000000000               0.000000000               0.000772592               0.005978077              -0.000000000              -0.000457537               0.002145185               0.001687648               0.000000000               0.000000000               0.000000000               0.000000000               0.000518374               0.005358413               0.000000000              -0.000475410               0.001944590               0.001469180               0.000000000               0.000000000               0.000000000               0.000000000               0.000324579               0.004774206               0.000000000              -0.000475058               0.001749739               0.001274681               0.000000000               0.000000000               0.000000000               0.000000000               0.000180326               0.004205904               0.000000000              -0.000458115               0.001554659               0.001096544               0.000000000               0.000000000               0.000000000               0.000000000               0.000075429               0.003634813               0.000000000              -0.000426065               0.001353614               0.000927549               0.000000000               0.000000000               0.000000000               0.000000000              -0.000001298               0.003038175              -0.000000000              -0.000380258               0.001139468               0.000759210               0.000000000               0.000000000               0.000000000               0.000000000              -0.000048046               0.002394942               0.000000000              -0.000317384               0.000904101               0.000586716               0.000000000               0.000000000               0.000000000               0.000000000              -0.000066140               0.001686620               0.000000000              -0.000235629               0.000640744               0.000405115               0.000000000               0.000000000               0.000000000               0.000000000              -0.000045800               0.000892282               0.000000000              -0.000128710               0.000340328               0.000211617               0.000000000               0.000000000               0.000000000               0.000000000              -0.000086834               0.000288165               0.000000000              -0.000068583               0.000118915               0.000050332               0.000000000               0.000000000               0.000000000               0.000000000               0.002120322               0.021262340              -0.001440814              -0.001862668               0.007708265               0.005845597               0.000000000               0.000000000               0.000000000               0.000000000               0.001907201               0.016325048              -0.000636731              -0.001325428               0.005883437               0.004558010               0.000000000               0.000000000               0.000000000               0.000000000               0.002330847               0.012342878               0.000155697              -0.000668791               0.004337182               0.003668391               0.000000000               0.000000000               0.000000000               0.000000000               0.002078881               0.010069818               0.000480682              -0.000479146               0.003516288               0.003037142               0.000000000               0.000000000               0.000000000               0.000000000               0.001659290               0.008604523               0.000605014              -0.000453331               0.003019256               0.002565925               0.000000000               0.000000000               0.000000000               0.000000000               0.001240962               0.007555926               0.000640832              -0.000479129               0.002678326               0.002199198               0.000000000               0.000000000               0.000000000               0.000000000               0.000876784               0.006739974               0.000638648              -0.000513702               0.002417869               0.001904168               0.000000000               0.000000000               0.000000000               0.000000000               0.000580528               0.006055266               0.000615799              -0.000539209               0.002198138               0.001658929               0.000000000               0.000000000               0.000000000               0.000000000               0.000351493               0.005442034               0.000582502              -0.000548443               0.001996808               0.001448364               0.000000000               0.000000000               0.000000000               0.000000000               0.000178803               0.004863944               0.000546859              -0.000540941               0.001801612               0.001260671               0.000000000               0.000000000               0.000000000               0.000000000               0.000057763               0.004299802               0.000510290              -0.000515813               0.001605191               0.001089377               0.000000000               0.000000000               0.000000000               0.000000000              -0.000018704               0.003731658               0.000470697              -0.000473470               0.001401697               0.000928227               0.000000000               0.000000000               0.000000000               0.000000000              -0.000068711               0.003143830               0.000422376              -0.000418744               0.001187514               0.000768770               0.000000000               0.000000000               0.000000000               0.000000000              -0.000094030               0.002523214               0.000359966              -0.000350662               0.000957950               0.000607288               0.000000000               0.000000000               0.000000000               0.000000000              -0.000091004               0.001858070               0.000277556              -0.000266385               0.000708146               0.000441761               0.000000000               0.000000000               0.000000000               0.000000000              -0.000056877               0.001134443               0.000159804              -0.000163134               0.000432522               0.000269388               0.000000000               0.000000000               0.000000000               0.000000000              -0.000088105               0.000595353               0.000100415              -0.000107458               0.000234268               0.000126810               0.000000000               0.000000000               0.000000000               0.000000000               0.002259424               0.019925470              -0.002652714              -0.001643397               0.007189556               0.005546159               0.000000000               0.000000000               0.000000000               0.000000000               0.001713395               0.015477430              -0.001163878              -0.001292153               0.005589809               0.004297656               0.000000000               0.000000000               0.000000000               0.000000000               0.001783362               0.012002475               0.000287988              -0.000831547               0.004277967               0.003446420               0.000000000               0.000000000               0.000000000               0.000000000               0.001410320               0.009992803               0.000859742              -0.000720229               0.003570977               0.002850748               0.000000000               0.000000000               0.000000000               0.000000000               0.000982278               0.008667447               0.001066162              -0.000715075               0.003127479               0.002412403               0.000000000               0.000000000               0.000000000               0.000000000               0.000604893               0.007695800               0.001117547              -0.000735139               0.002810287               0.002075148               0.000000000               0.000000000               0.000000000               0.000000000               0.000298919               0.006915462               0.001103187              -0.000752336               0.002555909               0.001803573               0.000000000               0.000000000               0.000000000               0.000000000               0.000071859               0.006246633               0.001056418              -0.000753880               0.002333483               0.001579603               0.000000000               0.000000000               0.000000000               0.000000000              -0.000086711               0.005644553               0.000993154              -0.000738084               0.002127527               0.001389442               0.000000000               0.000000000               0.000000000               0.000000000              -0.000191621               0.005075683               0.000925380              -0.000706317               0.001927316               0.001220999               0.000000000               0.000000000               0.000000000               0.000000000              -0.000243830               0.004520572               0.000855137              -0.000656506               0.001725678               0.001069171               0.000000000               0.000000000               0.000000000               0.000000000              -0.000254413               0.003967013               0.000780727              -0.000591280               0.001519418               0.000928137               0.000000000               0.000000000               0.000000000               0.000000000              -0.000241197               0.003408819               0.000694673              -0.000516550               0.001308445               0.000791894               0.000000000               0.000000000               0.000000000               0.000000000              -0.000207135               0.002847571               0.000585469              -0.000433621               0.001093721               0.000660100               0.000000000               0.000000000               0.000000000               0.000000000              -0.000153915               0.002284175               0.000445237              -0.000343239               0.000875797               0.000532558               0.000000000               0.000000000               0.000000000               0.000000000              -0.000084571               0.001721388               0.000252444              -0.000246887               0.000656086               0.000409199               0.000000000               0.000000000               0.000000000               0.000000000              -0.000086408               0.001333492               0.000154380              -0.000199089               0.000510856               0.000311767               0.000000000               0.000000000               0.000000000               0.000000000               0.002351696               0.017896998              -0.003478083              -0.001355238               0.006417352               0.005062114               0.000000000               0.000000000               0.000000000               0.000000000               0.001344125               0.014219610              -0.001516203              -0.001273402               0.005164290               0.003890888               0.000000000               0.000000000               0.000000000               0.000000000               0.000930442               0.011511088               0.000368081              -0.001089968               0.004200314               0.003110346               0.000000000               0.000000000               0.000000000               0.000000000               0.000427241               0.009872159               0.001065145              -0.001073802               0.003648621               0.002574819               0.000000000               0.000000000               0.000000000               0.000000000               0.000020307               0.008735115               0.001296216              -0.001084272               0.003273100               0.002188828               0.000000000               0.000000000               0.000000000               0.000000000              -0.000273936               0.007856686               0.001336259              -0.001084810               0.002980472               0.001895663               0.000000000               0.000000000               0.000000000               0.000000000              -0.000474735               0.007119471               0.001298684              -0.001067957               0.002729119               0.001661162               0.000000000               0.000000000               0.000000000               0.000000000              -0.000595699               0.006465672               0.001229832              -0.001031594               0.002499067               0.001467473               0.000000000               0.000000000               0.000000000               0.000000000              -0.000646862               0.005866402               0.001145675              -0.000975872               0.002280738               0.001304867               0.000000000               0.000000000               0.000000000               0.000000000              -0.000642203               0.005301264               0.001056531              -0.000903482               0.002068231               0.001164749               0.000000000               0.000000000               0.000000000               0.000000000              -0.000594146               0.004757960               0.000962607              -0.000817548               0.001858487               0.001040939               0.000000000               0.000000000               0.000000000               0.000000000              -0.000519384               0.004229132               0.000862246              -0.000723409               0.001650833               0.000927424               0.000000000               0.000000000               0.000000000               0.000000000              -0.000434423               0.003716704               0.000749809              -0.000627495               0.001448054               0.000820559               0.000000000               0.000000000               0.000000000               0.000000000              -0.000335758               0.003229917               0.000616085              -0.000529648               0.001253177               0.000723530               0.000000000               0.000000000               0.000000000               0.000000000              -0.000223838               0.002780392               0.000453465              -0.000431487               0.001070617               0.000639130               0.000000000               0.000000000               0.000000000               0.000000000              -0.000111464               0.002380100               0.000248921              -0.000339311               0.000906462               0.000567152               0.000000000               0.000000000               0.000000000               0.000000000              -0.000082234               0.002135647               0.000148318              -0.000297793               0.000811140               0.000513346               0.000000000               0.000000000               0.000000000               0.000000000               0.002265116               0.015425836              -0.003839359              -0.001078811               0.005501497               0.004422686               0.000000000               0.000000000               0.000000000               0.000000000               0.000781414               0.012725263              -0.001678967              -0.001297625               0.004674253               0.003376628               0.000000000               0.000000000               0.000000000               0.000000000              -0.000131376               0.010935484               0.000357617              -0.001416198               0.004117191               0.002700993               0.000000000               0.000000000               0.000000000               0.000000000              -0.000705811               0.009703994               0.001055015              -0.001477675               0.003727191               0.002249516               0.000000000               0.000000000               0.000000000               0.000000000              -0.001029431               0.008755065               0.001258565              -0.001480416               0.003411798               0.001931381               0.000000000               0.000000000               0.000000000               0.000000000              -0.001194879               0.007954599               0.001272333              -0.001442401               0.003132307               0.001689905               0.000000000               0.000000000               0.000000000               0.000000000              -0.001251065               0.007253019               0.001215219              -0.001375774               0.002876240               0.001500466               0.000000000               0.000000000               0.000000000               0.000000000              -0.001229856               0.006609181               0.001134974              -0.001287341               0.002632152               0.001344811               0.000000000               0.000000000               0.000000000               0.000000000              -0.001148838               0.006010538               0.001049109              -0.001182129               0.002397536               0.001215407               0.000000000               0.000000000               0.000000000               0.000000000              -0.001025818               0.005452745               0.000957639              -0.001066273               0.002172988               0.001106715               0.000000000               0.000000000               0.000000000               0.000000000              -0.000883607               0.004925413               0.000856893              -0.000947027               0.001957464               0.001010436               0.000000000               0.000000000               0.000000000               0.000000000              -0.000731988               0.004431771               0.000749558              -0.000828465               0.001753397               0.000924932               0.000000000               0.000000000               0.000000000               0.000000000              -0.000577261               0.003974448               0.000635247              -0.000713277               0.001562562               0.000849284               0.000000000               0.000000000               0.000000000               0.000000000              -0.000419652               0.003565380               0.000506762              -0.000603041               0.001389462               0.000786421               0.000000000               0.000000000               0.000000000               0.000000000              -0.000265276               0.003219610               0.000359570              -0.000501929               0.001240502               0.000738574               0.000000000               0.000000000               0.000000000               0.000000000              -0.000126099               0.002954865               0.000189390              -0.000416644               0.001123827               0.000707182               0.000000000               0.000000000               0.000000000               0.000000000              -0.000076893               0.002817922               0.000108031              -0.000381074               0.001066323               0.000685249               0.000000000               0.000000000               0.000000000               0.000000000               0.001872768               0.012766942              -0.003746266              -0.000893581               0.004553464               0.003659883               0.000000000               0.000000000               0.000000000               0.000000000               0.000025707               0.011158467              -0.001686613              -0.001385166               0.004181174               0.002796008               0.000000000               0.000000000               0.000000000               0.000000000              -0.001276364               0.010321464               0.000223148              -0.001768815               0.004030058               0.002261243               0.000000000               0.000000000               0.000000000               0.000000000              -0.001817260               0.009467541               0.000823623              -0.001864911               0.003777452               0.001912542               0.000000000               0.000000000               0.000000000               0.000000000              -0.001989938               0.008670086               0.000973027              -0.001829983               0.003499994               0.001670011               0.000000000               0.000000000               0.000000000               0.000000000              -0.001980909               0.007929529               0.000969403              -0.001734028               0.003221159               0.001487131               0.000000000               0.000000000               0.000000000               0.000000000              -0.001866875               0.007248769               0.000917973              -0.001606170               0.002951622               0.001345452               0.000000000               0.000000000               0.000000000               0.000000000              -0.001687538               0.006613878               0.000851081              -0.001459558               0.002691123               0.001231565               0.000000000               0.000000000               0.000000000               0.000000000              -0.001471460               0.006024800               0.000786200              -0.001304894               0.002443211               0.001138317               0.000000000               0.000000000               0.000000000               0.000000000              -0.001242691               0.005485503               0.000713449              -0.001151694               0.002212381               0.001060687               0.000000000               0.000000000               0.000000000               0.000000000              -0.001016781               0.004990499               0.000631540              -0.001005103               0.001998517               0.000993414               0.000000000               0.000000000               0.000000000               0.000000000              -0.000797567               0.004547500               0.000542469              -0.000867523               0.001804992               0.000937469               0.000000000               0.000000000               0.000000000               0.000000000              -0.000592206               0.004157212               0.000446810              -0.000741727               0.001632966               0.000891239               0.000000000               0.000000000               0.000000000               0.000000000              -0.000400299               0.003833108               0.000345123              -0.000629249               0.001487440               0.000858191               0.000000000               0.000000000               0.000000000               0.000000000              -0.000230328               0.003591306               0.000234908              -0.000535285               0.001375518               0.000840233               0.000000000               0.000000000               0.000000000               0.000000000              -0.000099804               0.003445439               0.000118292              -0.000468105               0.001304503               0.000836398               0.000000000               0.000000000               0.000000000               0.000000000              -0.000047188               0.003401025               0.000059933              -0.000442823               0.001281271               0.000838449               0.000000000               0.000000000               0.000000000               0.000000000               0.001116335               0.010139544              -0.003284409              -0.000848818               0.003662753               0.002813935               0.000000000               0.000000000               0.000000000               0.000000000              -0.000876644               0.009638510              -0.001599424              -0.001533552               0.003723988               0.002190436               0.000000000               0.000000000               0.000000000               0.000000000              -0.002379309               0.009681782              -0.000047879              -0.002102459               0.003928048               0.001825589               0.000000000               0.000000000               0.000000000               0.000000000              -0.002772814               0.009133857               0.000408857              -0.002181532               0.003771766               0.001590234               0.000000000               0.000000000               0.000000000               0.000000000              -0.002736530               0.008454140               0.000523053              -0.002082961               0.003512339               0.001429378               0.000000000               0.000000000               0.000000000               0.000000000              -0.002525745               0.007767424               0.000532872              -0.001918077               0.003228475               0.001310397               0.000000000               0.000000000               0.000000000               0.000000000              -0.002238067               0.007110665               0.000512687              -0.001728104               0.002946233               0.001218129               0.000000000               0.000000000               0.000000000               0.000000000              -0.001911235               0.006491378               0.000480735              -0.001528132               0.002673148               0.001145017               0.000000000               0.000000000               0.000000000               0.000000000              -0.001574923               0.005924290               0.000454611              -0.001331129               0.002418453               0.001087324               0.000000000               0.000000000               0.000000000               0.000000000              -0.001249820               0.005417915               0.000420732              -0.001145919               0.002187927               0.001042008               0.000000000               0.000000000               0.000000000               0.000000000              -0.000952377               0.004971634               0.000371205              -0.000978593               0.001983392               0.001004799               0.000000000               0.000000000               0.000000000               0.000000000              -0.000682210               0.004590731               0.000312220              -0.000829668               0.001806784               0.000977116               0.000000000               0.000000000               0.000000000               0.000000000              -0.000443600               0.004283605               0.000242597              -0.000701799               0.001661787               0.000959988               0.000000000               0.000000000               0.000000000               0.000000000              -0.000248952               0.004054559               0.000168499              -0.000600175               0.001551565               0.000951389               0.000000000               0.000000000               0.000000000               0.000000000              -0.000107183               0.003910378               0.000095379              -0.000528990               0.001479776               0.000950787               0.000000000               0.000000000               0.000000000               0.000000000              -0.000028361               0.003856692               0.000035839              -0.000492721               0.001449791               0.000957071               0.000000000               0.000000000               0.000000000               0.000000000               0.000003066               0.003869247               0.000007640              -0.000482505               0.001450571               0.000968066               0.000000000               0.000000000               0.000000000               0.000000000               0.000042466               0.007709408              -0.002566326              -0.000947751               0.002885693               0.001937942               0.000000000               0.000000000               0.000000000               0.000000000              -0.001863484               0.008247865              -0.001470514              -0.001729786               0.003325856               0.001596070               0.000000000               0.000000000               0.000000000               0.000000000              -0.003325510               0.009006713              -0.000439044              -0.002372900               0.003793174               0.001420275               0.000000000               0.000000000               0.000000000               0.000000000              -0.003472049               0.008692639              -0.000109951              -0.002388592               0.003693715               0.001305122               0.000000000               0.000000000               0.000000000               0.000000000              -0.003203520               0.008116150               0.000010102              -0.002215833               0.003443967               0.001228134               0.000000000               0.000000000               0.000000000               0.000000000              -0.002799321               0.007485044               0.000060469              -0.001985371               0.003156780               0.001171409               0.000000000               0.000000000               0.000000000               0.000000000              -0.002356590               0.006861102               0.000088278              -0.001741355               0.002867463               0.001126108               0.000000000               0.000000000               0.000000000               0.000000000              -0.001902111               0.006275692               0.000104903              -0.001497749               0.002591126               0.001093377               0.000000000               0.000000000               0.000000000               0.000000000              -0.001463885               0.005753503               0.000126000              -0.001268142               0.002340529               0.001072388               0.000000000               0.000000000               0.000000000               0.000000000              -0.001064557               0.005298271               0.000136504              -0.001061490               0.002119903               0.001058412               0.000000000               0.000000000               0.000000000               0.000000000              -0.000712709               0.004917150               0.000125330              -0.000881908               0.001933003               0.001051095               0.000000000               0.000000000               0.000000000               0.000000000              -0.000417935               0.004615597               0.000099432              -0.000733673               0.001783075               0.001049401               0.000000000               0.000000000               0.000000000               0.000000000              -0.000186572               0.004399954               0.000060618              -0.000619957               0.001673289               0.001053332               0.000000000               0.000000000               0.000000000               0.000000000              -0.000026522               0.004273876               0.000018251              -0.000544179               0.001606004               0.001061825               0.000000000               0.000000000               0.000000000               0.000000000               0.000054496               0.004230988              -0.000012936              -0.000508436               0.001579794               0.001071358               0.000000000               0.000000000               0.000000000               0.000000000               0.000056536               0.004256909              -0.000021395              -0.000510911               0.001589259               0.001078348               0.000000000               0.000000000               0.000000000               0.000000000               0.000044954               0.004302318              -0.000024132              -0.000520931               0.001607735               0.001086804               0.000000000               0.000000000               0.000000000               0.000000000              -0.001212998               0.005663704              -0.001704957              -0.001162835               0.002275494               0.001112658               0.000000000               0.000000000               0.000000000               0.000000000              -0.002828591               0.007003031              -0.001335036              -0.001936096               0.002979685               0.001043589               0.000000000               0.000000000               0.000000000               0.000000000              -0.004074578               0.008314469              -0.000907448              -0.002567269               0.003627218               0.001059949               0.000000000               0.000000000               0.000000000               0.000000000              -0.003957043               0.008245668              -0.000659825              -0.002514594               0.003586726               0.001072133               0.000000000               0.000000000               0.000000000               0.000000000              -0.003489309               0.007798272              -0.000506031              -0.002283269               0.003360488               0.001077219               0.000000000               0.000000000               0.000000000               0.000000000              -0.002934350               0.007246021              -0.000400665              -0.002006129               0.003084026               0.001077897               0.000000000               0.000000000               0.000000000               0.000000000              -0.002371430               0.006678457              -0.000317173              -0.001724089               0.002800826               0.001076737               0.000000000               0.000000000               0.000000000               0.000000000              -0.001818799               0.006148155              -0.000247592              -0.001450565               0.002532886               0.001082321               0.000000000               0.000000000               0.000000000               0.000000000              -0.001302286               0.005685623              -0.000182896              -0.001199057               0.002294874               0.001095817               0.000000000               0.000000000               0.000000000               0.000000000              -0.000846433               0.005288352              -0.000127354              -0.000978454               0.002088917               0.001110464               0.000000000               0.000000000               0.000000000               0.000000000              -0.000459605               0.004963896              -0.000091071              -0.000792837               0.001918894               0.001126057               0.000000000               0.000000000               0.000000000               0.000000000              -0.000153740               0.004719354              -0.000073520              -0.000647570               0.001788959               0.001141389               0.000000000               0.000000000               0.000000000               0.000000000               0.000071089               0.004566336              -0.000066330              -0.000544132               0.001703474               0.001159342               0.000000000               0.000000000               0.000000000               0.000000000               0.000208228               0.004509531              -0.000058685              -0.000485605               0.001665030               0.001179426               0.000000000               0.000000000               0.000000000               0.000000000               0.000252355               0.004541106              -0.000044353              -0.000473004               0.001671355               0.001198351               0.000000000               0.000000000               0.000000000               0.000000000               0.000216915               0.004636205              -0.000023684              -0.000498181               0.001711447               0.001213265               0.000000000               0.000000000               0.000000000               0.000000000               0.000172141               0.004703290              -0.000012327              -0.000523357               0.001742200               0.001218843               0.000000000               0.000000000               0.000000000               0.000000000              -0.002660775               0.003779815              -0.000805969              -0.001470264               0.001750013               0.000279749               0.000000000               0.000000000               0.000000000               0.000000000              -0.003645899               0.005555387              -0.001186602              -0.002061631               0.002538987               0.000477356               0.000000000               0.000000000               0.000000000               0.000000000              -0.004535050               0.007259760              -0.001392747              -0.002608108               0.003289265               0.000681157               0.000000000               0.000000000               0.000000000               0.000000000              -0.004272261               0.007556254              -0.001236741              -0.002546623               0.003367600               0.000820977               0.000000000               0.000000000               0.000000000               0.000000000              -0.003724483               0.007369043              -0.001050714              -0.002317806               0.003228925               0.000911119               0.000000000               0.000000000               0.000000000               0.000000000              -0.003117685               0.007007334              -0.000887003              -0.002045044               0.003017436               0.000972392               0.000000000               0.000000000               0.000000000               0.000000000              -0.002520761               0.006587227              -0.000751152              -0.001768685               0.002785282               0.001016597               0.000000000               0.000000000               0.000000000               0.000000000              -0.001937370               0.006173952              -0.000636917              -0.001498254               0.002557381               0.001059127               0.000000000               0.000000000               0.000000000               0.000000000              -0.001385020               0.005800629              -0.000531691              -0.001244458               0.002348343               0.001103885               0.000000000               0.000000000               0.000000000               0.000000000              -0.000889206               0.005479636              -0.000431119              -0.001018404               0.002165995               0.001147591               0.000000000               0.000000000               0.000000000               0.000000000              -0.000462811               0.005211314              -0.000341454              -0.000824966               0.002012076               0.001187110               0.000000000               0.000000000               0.000000000               0.000000000              -0.000114211               0.004996125              -0.000270792              -0.000667343               0.001887806               0.001220463               0.000000000               0.000000000               0.000000000               0.000000000               0.000156052               0.004846993              -0.000210014              -0.000547353               0.001798099               0.001250746               0.000000000               0.000000000               0.000000000               0.000000000               0.000343080               0.004775020              -0.000145280              -0.000468222               0.001747731               0.001279510               0.000000000               0.000000000               0.000000000               0.000000000               0.000441948               0.004779192              -0.000080361              -0.000431667               0.001736937               0.001305270               0.000000000               0.000000000               0.000000000               0.000000000               0.000464308               0.004859263              -0.000030089              -0.000433291               0.001764169               0.001330877               0.000000000               0.000000000               0.000000000               0.000000000               0.000437784               0.004909235              -0.000004059              -0.000449484               0.001786224               0.001336739               0.000000000               0.000000000               0.000000000               0.000000000              -0.004492963               0.002084945               0.000054978              -0.001945476               0.001343464              -0.000602011               0.000000000               0.000000000               0.000000000               0.000000000              -0.004567879               0.004091527              -0.000982299              -0.002224391               0.002105291              -0.000119099               0.000000000               0.000000000               0.000000000               0.000000000              -0.004912001               0.005988866              -0.001780477              -0.002590603               0.002859802               0.000269200               0.000000000               0.000000000               0.000000000               0.000000000              -0.004515944               0.006627705              -0.001778592              -0.002521936               0.003049858               0.000527922               0.000000000               0.000000000               0.000000000               0.000000000              -0.003928833               0.006743787              -0.001597644              -0.002316280               0.003020000               0.000703719               0.000000000               0.000000000               0.000000000               0.000000000              -0.003300227               0.006619669              -0.001397792              -0.002065039               0.002894880               0.000829841               0.000000000               0.000000000               0.000000000               0.000000000              -0.002683891               0.006390314              -0.001220833              -0.001805244               0.002731831               0.000926587               0.000000000               0.000000000               0.000000000               0.000000000              -0.002088177               0.006122899              -0.001068664              -0.001548425               0.002557088               0.001008662               0.000000000               0.000000000               0.000000000               0.000000000              -0.001515375               0.005852738              -0.000927988              -0.001299855               0.002384178               0.001084323               0.000000000               0.000000000               0.000000000               0.000000000              -0.000983383               0.005601832              -0.000790158              -0.001068995               0.002223590               0.001154595               0.000000000               0.000000000               0.000000000               0.000000000              -0.000507462               0.005386453              -0.000656521              -0.000863603               0.002083334               0.001219731               0.000000000               0.000000000               0.000000000               0.000000000              -0.000097915               0.005206662              -0.000536065              -0.000687549               0.001964720               0.001277170               0.000000000               0.000000000               0.000000000               0.000000000               0.000237262               0.005066273              -0.000421330              -0.000544310               0.001870177               0.001325867               0.000000000               0.000000000               0.000000000               0.000000000               0.000496876               0.004970074              -0.000302654              -0.000434930               0.001801651               0.001366722               0.000000000               0.000000000               0.000000000               0.000000000               0.000677609               0.004924273              -0.000185605              -0.000361430               0.001761884               0.001400455               0.000000000               0.000000000               0.000000000               0.000000000               0.000774749               0.004939238              -0.000082243              -0.000326873               0.001755354               0.001428481               0.000000000               0.000000000               0.000000000               0.000000000               0.000788082               0.004952539              -0.000031748              -0.000323536               0.001758675               0.001435139               0.000000000               0.000000000               0.000000000               0.000000000              -0.006570740               0.000711093               0.000794845              -0.002552911               0.001087994              -0.001464917               0.000000000               0.000000000               0.000000000               0.000000000              -0.005628780               0.002697115              -0.000715317              -0.002447928               0.001715003              -0.000732925               0.000000000               0.000000000               0.000000000               0.000000000              -0.005231068               0.004518584              -0.001971452              -0.002526468               0.002348334              -0.000178134               0.000000000               0.000000000               0.000000000               0.000000000              -0.004614318               0.005396191              -0.002153275              -0.002404888               0.002600341               0.000195453               0.000000000               0.000000000               0.000000000               0.000000000              -0.003962773               0.005785649              -0.002027697              -0.002209241               0.002664944               0.000455703               0.000000000               0.000000000               0.000000000               0.000000000              -0.003321558               0.005906234              -0.001829956              -0.001983859               0.002630011               0.000646152               0.000000000               0.000000000               0.000000000               0.000000000              -0.002695839               0.005886558              -0.001636144              -0.001746755               0.002544418               0.000797662               0.000000000               0.000000000               0.000000000               0.000000000              -0.002098890               0.005791882              -0.001460346              -0.001511066               0.002434296               0.000923231               0.000000000               0.000000000               0.000000000               0.000000000              -0.001520153               0.005657931              -0.001298987              -0.001277296               0.002311723               0.001034427               0.000000000               0.000000000               0.000000000               0.000000000              -0.000964129               0.005509459              -0.001141394              -0.001050229               0.002186544               0.001136315               0.000000000               0.000000000               0.000000000               0.000000000              -0.000447177               0.005370568              -0.000985835              -0.000839011               0.002069842               0.001230831               0.000000000               0.000000000               0.000000000               0.000000000               0.000011126               0.005247810              -0.000831237              -0.000651803               0.001966520               0.001314717               0.000000000               0.000000000               0.000000000               0.000000000               0.000403907               0.005148085              -0.000675062              -0.000492044               0.001880026               0.001387982               0.000000000               0.000000000               0.000000000               0.000000000               0.000731213               0.005065355              -0.000513247              -0.000358964               0.001808089               0.001449126               0.000000000               0.000000000               0.000000000               0.000000000               0.000985728               0.005011760              -0.000342328              -0.000256821               0.001756177               0.001499356               0.000000000               0.000000000               0.000000000               0.000000000               0.001147650               0.004993273              -0.000168564              -0.000193790               0.001729004               0.001535214               0.000000000               0.000000000               0.000000000               0.000000000               0.001198932               0.004989710              -0.000083930              -0.000174114               0.001721258               0.001547144               0.000000000               0.000000000               0.000000000               0.000000000              -0.008748658              -0.000266287               0.001296712              -0.003247458               0.000993717              -0.002253742               0.000000000               0.000000000               0.000000000               0.000000000              -0.006760005               0.001459354              -0.000430773              -0.002717418               0.001392247              -0.001325170               0.000000000               0.000000000               0.000000000               0.000000000              -0.005514270               0.002991948              -0.001938452              -0.002441841               0.001811250              -0.000630591               0.000000000               0.000000000               0.000000000               0.000000000              -0.004595678               0.003977314              -0.002282320              -0.002220539               0.002065936              -0.000154603               0.000000000               0.000000000               0.000000000               0.000000000              -0.003834517               0.004573587              -0.002240072              -0.002009638               0.002194392               0.000184754               0.000000000               0.000000000               0.000000000               0.000000000              -0.003164813               0.004917264              -0.002077993              -0.001801459               0.002239557               0.000438098               0.000000000               0.000000000               0.000000000               0.000000000              -0.002544563               0.005102506              -0.001891862              -0.001592021               0.002231491               0.000639470               0.000000000               0.000000000               0.000000000               0.000000000              -0.001958467               0.005188407              -0.001714496              -0.001382973               0.002190442               0.000807469               0.000000000               0.000000000               0.000000000               0.000000000              -0.001387672               0.005210781              -0.001552189              -0.001171723               0.002127483               0.000955761               0.000000000               0.000000000               0.000000000               0.000000000              -0.000824939               0.005195856              -0.001391816              -0.000958832               0.002051545               0.001092713               0.000000000               0.000000000               0.000000000               0.000000000              -0.000284821               0.005163352              -0.001227763              -0.000752226               0.001971842               0.001219616               0.000000000               0.000000000               0.000000000               0.000000000               0.000216307               0.005123763              -0.001061764              -0.000559355               0.001894355               0.001335001               0.000000000               0.000000000               0.000000000               0.000000000               0.000674924               0.005088999              -0.000896104              -0.000383028               0.001823992               0.001440964               0.000000000               0.000000000               0.000000000               0.000000000               0.001083537               0.005054726              -0.000719321              -0.000225514               0.001760063               0.001534549               0.000000000               0.000000000               0.000000000               0.000000000               0.001429495               0.005021980              -0.000512446              -0.000091687               0.001704539               0.001612852               0.000000000               0.000000000               0.000000000               0.000000000               0.001687329               0.005003968              -0.000269202               0.000007252               0.001665556               0.001672807               0.000000000               0.000000000               0.000000000               0.000000000               0.001802353               0.005006880              -0.000144671               0.000050022               0.001652269               0.001702291               0.000000000               0.000000000               0.000000000               0.000000000              -0.010830047              -0.000869585               0.001463689              -0.003952567               0.001027653              -0.002924914               0.000000000               0.000000000               0.000000000               0.000000000              -0.007870662               0.000456144              -0.000187094              -0.003008514               0.001154878              -0.001853636               0.000000000               0.000000000               0.000000000               0.000000000              -0.005762472               0.001568963              -0.001680123              -0.002357044               0.001308660              -0.001048385               0.000000000               0.000000000               0.000000000               0.000000000              -0.004497140               0.002540804              -0.002107247              -0.002004025               0.001514932              -0.000489093               0.000000000               0.000000000               0.000000000               0.000000000              -0.003601424               0.003261110              -0.002142750              -0.001758170               0.001673081              -0.000085089               0.000000000               0.000000000               0.000000000               0.000000000              -0.002885799               0.003777372              -0.002035295              -0.001554343               0.001777225               0.000222882               0.000000000               0.000000000               0.000000000               0.000000000              -0.002267984               0.004143344              -0.001881878              -0.001368409               0.001837236               0.000468827               0.000000000               0.000000000               0.000000000               0.000000000              -0.001694877               0.004398634              -0.001729067              -0.001185406               0.001861331               0.000675925               0.000000000               0.000000000               0.000000000               0.000000000              -0.001141090               0.004573790              -0.001587180              -0.000999631               0.001857791               0.000858160               0.000000000               0.000000000               0.000000000               0.000000000              -0.000590038               0.004707423              -0.001440033              -0.000809691               0.001839022               0.001029331               0.000000000               0.000000000               0.000000000               0.000000000              -0.000042560               0.004805259              -0.001285616              -0.000616617               0.001807276               0.001190659               0.000000000               0.000000000               0.000000000               0.000000000               0.000498094               0.004871581              -0.001134002              -0.000422162               0.001764564               0.001342403               0.000000000               0.000000000               0.000000000               0.000000000               0.001026690               0.004924931              -0.000984008              -0.000230608               0.001718496               0.001487889               0.000000000               0.000000000               0.000000000               0.000000000               0.001529557               0.004961141              -0.000820444              -0.000046559               0.001669217               0.001622657               0.000000000               0.000000000               0.000000000               0.000000000               0.001996961               0.004976591              -0.000614852               0.000126785               0.001616586               0.001743370               0.000000000               0.000000000               0.000000000               0.000000000               0.002412387               0.004988355              -0.000340448               0.000281098               0.001569069               0.001850167               0.000000000               0.000000000               0.000000000               0.000000000               0.002652928               0.005015784              -0.000195289               0.000367871               0.001549288               0.001917159               0.000000000               0.000000000               0.000000000               0.000000000              -0.012560937              -0.001168819               0.001263260              -0.004564246               0.001131801              -0.003432445               0.000000000               0.000000000               0.000000000               0.000000000              -0.008826280              -0.000261763              -0.000028627              -0.003277132               0.001005116              -0.002272016               0.000000000               0.000000000               0.000000000               0.000000000              -0.005973766               0.000408708              -0.001230017              -0.002291249               0.000899979              -0.001391270               0.000000000               0.000000000               0.000000000               0.000000000              -0.004376210               0.001290347              -0.001620912              -0.001802370               0.001030898              -0.000771472               0.000000000               0.000000000               0.000000000               0.000000000              -0.003340922               0.002070304              -0.001693534              -0.001511631               0.001193970              -0.000317662               0.000000000               0.000000000               0.000000000               0.000000000              -0.002575558               0.002699737              -0.001637946              -0.001303299               0.001334335               0.000031037               0.000000000               0.000000000               0.000000000               0.000000000              -0.001946619               0.003195036              -0.001535876              -0.001129360               0.001441454               0.000312094               0.000000000               0.000000000               0.000000000               0.000000000              -0.001380292               0.003585559              -0.001429930              -0.000965802               0.001517108               0.000551306               0.000000000               0.000000000               0.000000000               0.000000000              -0.000842472               0.003900589              -0.001326576              -0.000803499               0.001568016               0.000764517               0.000000000               0.000000000               0.000000000               0.000000000              -0.000311446               0.004161066              -0.001214248              -0.000636925               0.001599316               0.000962391               0.000000000               0.000000000               0.000000000               0.000000000               0.000233070               0.004375940              -0.001095497              -0.000459591               0.001611829               0.001152238               0.000000000               0.000000000               0.000000000               0.000000000               0.000798537               0.004556267              -0.000978126              -0.000270082               0.001608768               0.001338686               0.000000000               0.000000000               0.000000000               0.000000000               0.001381035               0.004706467              -0.000860937              -0.000070421               0.001592280               0.001521860               0.000000000               0.000000000               0.000000000               0.000000000               0.001978750               0.004824183              -0.000733202               0.000139007               0.001561709               0.001700716               0.000000000               0.000000000               0.000000000               0.000000000               0.002587762               0.004908653              -0.000566627               0.000356826               0.001517259               0.001874085               0.000000000               0.000000000               0.000000000               0.000000000               0.003207190               0.004964890              -0.000322482               0.000582079               0.001460921               0.002043000               0.000000000               0.000000000               0.000000000               0.000000000               0.003633394               0.005028552              -0.000192632               0.000733946               0.001431519               0.002165465               0.000000000               0.000000000               0.000000000               0.000000000              -0.013713493              -0.001271584               0.000729107              -0.004983609               0.001237333              -0.003746276               0.000000000               0.000000000               0.000000000               0.000000000              -0.009480258              -0.000677768               0.000022954              -0.003470373               0.000930862              -0.002539511               0.000000000               0.000000000               0.000000000               0.000000000              -0.006125356              -0.000345155              -0.000645944              -0.002253863               0.000636231              -0.001617631               0.000000000               0.000000000               0.000000000               0.000000000              -0.004286243               0.000439240              -0.000880330              -0.001662244               0.000700490              -0.000961755               0.000000000               0.000000000               0.000000000               0.000000000              -0.003140483               0.001235557              -0.000936148              -0.001332124               0.000855887              -0.000476236               0.000000000               0.000000000               0.000000000               0.000000000              -0.002333463               0.001917355              -0.000915541              -0.001114716               0.001010683              -0.000104032               0.000000000               0.000000000               0.000000000               0.000000000              -0.001690584               0.002487651              -0.000866649              -0.000944923               0.001144183               0.000199259               0.000000000               0.000000000               0.000000000               0.000000000              -0.001128345               0.002969732              -0.000814421              -0.000794344               0.001254682               0.000460338               0.000000000               0.000000000               0.000000000               0.000000000              -0.000605423               0.003379719              -0.000759441              -0.000649497               0.001343061               0.000693563               0.000000000               0.000000000               0.000000000               0.000000000              -0.000085639               0.003729293              -0.000699142              -0.000498275               0.001409177               0.000910902               0.000000000               0.000000000               0.000000000               0.000000000               0.000457358               0.004026591              -0.000637084              -0.000331814               0.001452788               0.001120974               0.000000000               0.000000000               0.000000000               0.000000000               0.001037042               0.004281922              -0.000572314              -0.000146350               0.001476076               0.001329727               0.000000000               0.000000000               0.000000000               0.000000000               0.001658361               0.004499469              -0.000507493               0.000059451               0.001479991               0.001539442               0.000000000               0.000000000               0.000000000               0.000000000               0.002326300               0.004683815              -0.000437060               0.000286883               0.001465629               0.001752511               0.000000000               0.000000000               0.000000000               0.000000000               0.003048739               0.004831192              -0.000339721               0.000539373               0.001430590               0.001969963               0.000000000               0.000000000               0.000000000               0.000000000               0.003845870               0.004930709              -0.000193834               0.000825854               0.001368268               0.002194123               0.000000000               0.000000000               0.000000000               0.000000000               0.004441767               0.005028757              -0.000118829               0.001037058               0.001330550               0.002367608               0.000000000               0.000000000               0.000000000               0.000000000               0.000000000               0.000000000               0.000000000               0.000000000               0.000000000               0.000000000               0.000000000               0.000000000               0.000000000               0.000000000               0.000000000               0.000000000               0.000000000               0.000000000               0.000000000               0.000000000               0.000000000               0.000000000               0.000000000               0.000000000               0.000000000               0.000000000               0.000000000               0.000000000               0.000000000               0.000000000               0.000000000               0.000000000               0.000000000               0.000000000               0.000000000               0.000000000               0.000000000               0.000000000               0.000000000               0.000000000               0.000000000               0.000000000               0.000000000               0.000000000               0.000000000               0.000000000               0.000000000               0.000000000               0.000000000               0.000000000               0.000000000               0.000000000               0.000000000               0.000000000               0.000000000               0.000000000               0.000000000               0.000000000               0.000000000               0.000000000               0.000000000               0.000000000               0.000000000               0.000000000               0.000000000               0.000000000               0.000000000               0.000000000               0.000000000               0.000000000               0.000000000               0.000000000               0.000000000               0.000000000               0.000000000               0.000000000               0.000000000               0.000000000               0.000000000               0.000000000               0.000000000               0.000000000               0.000000000               0.000000000               0.000000000               0.000000000               0.000000000               0.000000000               0.000000000               0.000000000               0.000000000               0.000000000               0.000000000               0.000000000               0.000000000               0.000000000               0.000000000               0.000000000               0.000000000               0.000000000               0.000000000               0.000000000               0.000000000               0.000000000               0.000000000               0.000000000               0.000000000               0.000000000               0.000000000               0.000000000               0.000000000               0.000000000               0.000000000               0.000000000               0.000000000               0.000000000               0.000000000               0.000000000               0.000000000               0.000000000               0.000000000               0.000000000               0.000000000               0.000000000               0.000000000               0.000000000               0.000000000               0.000000000               0.000000000               0.000000000               0.000000000               0.000000000               0.000000000               0.000000000               0.000000000               0.000000000               0.000000000               0.000000000               0.000000000               0.000000000               0.000000000               0.000000000               0.000000000               0.000000000               0.000000000               0.000000000               0.000000000               0.000000000               0.000000000               0.000000000               0.000000000               0.000000000               0.000000000               0.000000000               0.000000000               0.000000000               0.000000000               0.000000000               0.000000000               0.000000000               0.000000000               0.000000000               0.000000000               0.000000000               0.000000000               0.000000000               0.000000000               0.000000000               0.000000000               0.000000000               0.000000000               0.000000000               0.000000000               0.000000000               0.000000000               0.000000000               0.000000000               0.000000000               0.000000000               0.000000000               0.000000000               0.000000000               0.000000000               0.000000000               0.000000000               0.000000000               0.000000000               0.000000000               0.000000000               0.000000000               0.000000000               0.000000000               0.000000000               0.000000000               0.000000000               0.000000000               0.000000000               0.000000000               0.000000000               0.000000000               0.000000000               0.000000000               0.000000000               0.000000000               0.000000000               0.000000000               0.000000000               0.000000000               0.000000000               0.000000000               0.000000000               0.000000000               0.000000000               0.000000000               0.000000000               0.000000000               0.000000000               0.000000000               0.000000000               0.000000000               0.000000000               0.000000000               0.000000000               0.000000000               0.000000000               0.000000000               0.000000000               0.000000000               0.000000000               0.000000000               0.000000000               0.000000000               0.000000000               0.000000000               0.000000000               0.000000000               0.000000000               0.000000000               0.000000000               0.000000000               0.000000000               0.000000000               0.000000000               0.000000000               0.000000000               0.000000000               0.000000000               0.000000000               0.000000000               0.000000000               0.000000000               0.000000000               0.000000000               0.000000000               0.000000000               0.000000000               0.000000000               0.000000000               0.000000000               0.000000000               0.000000000               0.000000000               0.000000000               0.000000000               0.000000000               0.000000000               0.000000000               0.000000000               0.000000000               0.000000000               0.000000000               0.000000000               0.000000000               0.000000000               0.000000000               0.000000000               0.000000000               0.000000000               0.000000000               0.000000000               0.000000000               0.000000000               0.000000000               0.000000000               0.000000000               0.000000000               0.000000000               0.000000000               0.000000000               0.000000000               0.000000000               0.000000000               0.000000000               0.000000000               0.000000000               0.000000000               0.000000000               0.000000000               0.000000000               0.000000000               0.000000000               0.000000000               0.000000000               0.000000000               0.000000000               0.000000000               0.000000000               0.000000000               0.000000000               0.000000000               0.000000000               0.000000000               0.000000000               0.000000000               0.000000000               0.000000000               0.000000000               0.000000000               0.000000000               0.000000000               0.000000000               0.000000000               0.000000000               0.000000000               0.000000000               0.000000000               0.000000000               0.000000000               0.000000000               0.000000000               0.000000000               0.000000000               0.000000000               0.000000000               0.000000000               0.000000000               0.000000000               0.000000000               0.000000000               0.000000000               0.000000000               0.000000000               0.000000000               0.000000000               0.002120322               0.021262340               0.001440814              -0.001862668               0.007708265               0.005845597               0.000000000               0.000000000               0.000000000               0.000000000               0.001907201               0.016325048               0.000636731              -0.001325428               0.005883437               0.004558010               0.000000000               0.000000000               0.000000000               0.000000000               0.002330847               0.012342878              -0.000155697              -0.000668791               0.004337182               0.003668391               0.000000000               0.000000000               0.000000000               0.000000000               0.002078881               0.010069818              -0.000480682              -0.000479146               0.003516288               0.003037142               0.000000000               0.000000000               0.000000000               0.000000000               0.001659290               0.008604523              -0.000605014              -0.000453331               0.003019256               0.002565925               0.000000000               0.000000000               0.000000000               0.000000000               0.001240962               0.007555926              -0.000640832              -0.000479129               0.002678326               0.002199198               0.000000000               0.000000000               0.000000000               0.000000000               0.000876784               0.006739974              -0.000638648              -0.000513702               0.002417869               0.001904168               0.000000000               0.000000000               0.000000000               0.000000000               0.000580528               0.006055266              -0.000615799              -0.000539209               0.002198138               0.001658929               0.000000000               0.000000000               0.000000000               0.000000000               0.000351493               0.005442034              -0.000582502              -0.000548443               0.001996808               0.001448364               0.000000000               0.000000000               0.000000000               0.000000000               0.000178803               0.004863944              -0.000546859              -0.000540941               0.001801612               0.001260671               0.000000000               0.000000000               0.000000000               0.000000000               0.000057763               0.004299802              -0.000510290              -0.000515813               0.001605191               0.001089377               0.000000000               0.000000000               0.000000000               0.000000000              -0.000018704               0.003731658              -0.000470697              -0.000473470               0.001401697               0.000928227               0.000000000               0.000000000               0.000000000               0.000000000              -0.000068711               0.003143830              -0.000422376              -0.000418744               0.001187514               0.000768770               0.000000000               0.000000000               0.000000000               0.000000000              -0.000094030               0.002523214              -0.000359966              -0.000350662               0.000957950               0.000607288               0.000000000               0.000000000               0.000000000               0.000000000              -0.000091004               0.001858070              -0.000277556              -0.000266385               0.000708146               0.000441761               0.000000000               0.000000000               0.000000000               0.000000000              -0.000056877               0.001134443              -0.000159804              -0.000163134               0.000432522               0.000269388               0.000000000               0.000000000               0.000000000               0.000000000              -0.000088105               0.000595353              -0.000100415              -0.000107458               0.000234268               0.000126810               0.000000000               0.000000000               0.000000000               0.000000000               0.002259424               0.019925470               0.002652714              -0.001643397               0.007189556               0.005546159               0.000000000               0.000000000               0.000000000               0.000000000               0.001713395               0.015477430               0.001163878              -0.001292153               0.005589809               0.004297656               0.000000000               0.000000000               0.000000000               0.000000000               0.001783362               0.012002475              -0.000287988              -0.000831547               0.004277967               0.003446420               0.000000000               0.000000000               0.000000000               0.000000000               0.001410320               0.009992803              -0.000859742              -0.000720229               0.003570977               0.002850748               0.000000000               0.000000000               0.000000000               0.000000000               0.000982278               0.008667447              -0.001066162              -0.000715075               0.003127479               0.002412403               0.000000000               0.000000000               0.000000000               0.000000000               0.000604893               0.007695800              -0.001117547              -0.000735139               0.002810287               0.002075148               0.000000000               0.000000000               0.000000000               0.000000000               0.000298919               0.006915462              -0.001103187              -0.000752336               0.002555909               0.001803573               0.000000000               0.000000000               0.000000000               0.000000000               0.000071859               0.006246633              -0.001056418              -0.000753880               0.002333483               0.001579603               0.000000000               0.000000000               0.000000000               0.000000000              -0.000086711               0.005644553              -0.000993154              -0.000738084               0.002127527               0.001389442               0.000000000               0.000000000               0.000000000               0.000000000              -0.000191621               0.005075683              -0.000925380              -0.000706317               0.001927316               0.001220999               0.000000000               0.000000000               0.000000000               0.000000000              -0.000243830               0.004520572              -0.000855137              -0.000656506               0.001725678               0.001069171               0.000000000               0.000000000               0.000000000               0.000000000              -0.000254413               0.003967013              -0.000780727              -0.000591280               0.001519418               0.000928137               0.000000000               0.000000000               0.000000000               0.000000000              -0.000241197               0.003408819              -0.000694673              -0.000516550               0.001308445               0.000791894               0.000000000               0.000000000               0.000000000               0.000000000              -0.000207135               0.002847571              -0.000585469              -0.000433621               0.001093721               0.000660100               0.000000000               0.000000000               0.000000000               0.000000000              -0.000153915               0.002284175              -0.000445237              -0.000343239               0.000875797               0.000532558               0.000000000               0.000000000               0.000000000               0.000000000              -0.000084571               0.001721388              -0.000252444              -0.000246887               0.000656086               0.000409199               0.000000000               0.000000000               0.000000000               0.000000000              -0.000086408               0.001333492              -0.000154380              -0.000199089               0.000510856               0.000311767               0.000000000               0.000000000               0.000000000               0.000000000               0.002351696               0.017896998               0.003478083              -0.001355238               0.006417352               0.005062114               0.000000000               0.000000000               0.000000000               0.000000000               0.001344125               0.014219610               0.001516203              -0.001273402               0.005164290               0.003890888               0.000000000               0.000000000               0.000000000               0.000000000               0.000930442               0.011511088              -0.000368081              -0.001089968               0.004200314               0.003110346               0.000000000               0.000000000               0.000000000               0.000000000               0.000427241               0.009872159              -0.001065145              -0.001073802               0.003648621               0.002574819               0.000000000               0.000000000               0.000000000               0.000000000               0.000020307               0.008735115              -0.001296216              -0.001084272               0.003273100               0.002188828               0.000000000               0.000000000               0.000000000               0.000000000              -0.000273936               0.007856686              -0.001336259              -0.001084810               0.002980472               0.001895663               0.000000000               0.000000000               0.000000000               0.000000000              -0.000474735               0.007119471              -0.001298684              -0.001067957               0.002729119               0.001661162               0.000000000               0.000000000               0.000000000               0.000000000              -0.000595699               0.006465672              -0.001229832              -0.001031594               0.002499067               0.001467473               0.000000000               0.000000000               0.000000000               0.000000000              -0.000646862               0.005866402              -0.001145675              -0.000975872               0.002280738               0.001304867               0.000000000               0.000000000               0.000000000               0.000000000              -0.000642203               0.005301264              -0.001056531              -0.000903482               0.002068231               0.001164749               0.000000000               0.000000000               0.000000000               0.000000000              -0.000594146               0.004757960              -0.000962607              -0.000817548               0.001858487               0.001040939               0.000000000               0.000000000               0.000000000               0.000000000              -0.000519384               0.004229132              -0.000862246              -0.000723409               0.001650833               0.000927424               0.000000000               0.000000000               0.000000000               0.000000000              -0.000434423               0.003716704              -0.000749809              -0.000627495               0.001448054               0.000820559               0.000000000               0.000000000               0.000000000               0.000000000              -0.000335758               0.003229917              -0.000616085              -0.000529648               0.001253177               0.000723530               0.000000000               0.000000000               0.000000000               0.000000000              -0.000223838               0.002780392              -0.000453465              -0.000431487               0.001070617               0.000639130               0.000000000               0.000000000               0.000000000               0.000000000              -0.000111464               0.002380100              -0.000248921              -0.000339311               0.000906462               0.000567152               0.000000000               0.000000000               0.000000000               0.000000000              -0.000082234               0.002135647              -0.000148318              -0.000297793               0.000811140               0.000513346               0.000000000               0.000000000               0.000000000               0.000000000               0.002265116               0.015425836               0.003839359              -0.001078811               0.005501497               0.004422686               0.000000000               0.000000000               0.000000000               0.000000000               0.000781414               0.012725263               0.001678967              -0.001297625               0.004674253               0.003376628               0.000000000               0.000000000               0.000000000               0.000000000              -0.000131376               0.010935484              -0.000357617              -0.001416198               0.004117191               0.002700993               0.000000000               0.000000000               0.000000000               0.000000000              -0.000705811               0.009703994              -0.001055015              -0.001477675               0.003727191               0.002249516               0.000000000               0.000000000               0.000000000               0.000000000              -0.001029431               0.008755065              -0.001258565              -0.001480416               0.003411798               0.001931381               0.000000000               0.000000000               0.000000000               0.000000000              -0.001194879               0.007954599              -0.001272333              -0.001442401               0.003132307               0.001689905               0.000000000               0.000000000               0.000000000               0.000000000              -0.001251065               0.007253019              -0.001215219              -0.001375774               0.002876240               0.001500466               0.000000000               0.000000000               0.000000000               0.000000000              -0.001229856               0.006609181              -0.001134974              -0.001287341               0.002632152               0.001344811               0.000000000               0.000000000               0.000000000               0.000000000              -0.001148838               0.006010538              -0.001049109              -0.001182129               0.002397536               0.001215407               0.000000000               0.000000000               0.000000000               0.000000000              -0.001025818               0.005452745              -0.000957639              -0.001066273               0.002172988               0.001106715               0.000000000               0.000000000               0.000000000               0.000000000              -0.000883607               0.004925413              -0.000856893              -0.000947027               0.001957464               0.001010436               0.000000000               0.000000000               0.000000000               0.000000000              -0.000731988               0.004431771              -0.000749558              -0.000828465               0.001753397               0.000924932               0.000000000               0.000000000               0.000000000               0.000000000              -0.000577261               0.003974448              -0.000635247              -0.000713277               0.001562562               0.000849284               0.000000000               0.000000000               0.000000000               0.000000000              -0.000419652               0.003565380              -0.000506762              -0.000603041               0.001389462               0.000786421               0.000000000               0.000000000               0.000000000               0.000000000              -0.000265276               0.003219610              -0.000359570              -0.000501929               0.001240502               0.000738574               0.000000000               0.000000000               0.000000000               0.000000000              -0.000126099               0.002954865              -0.000189390              -0.000416644               0.001123827               0.000707182               0.000000000               0.000000000               0.000000000               0.000000000              -0.000076893               0.002817922              -0.000108031              -0.000381074               0.001066323               0.000685249               0.000000000               0.000000000               0.000000000               0.000000000               0.001872768               0.012766942               0.003746266              -0.000893581               0.004553464               0.003659883               0.000000000               0.000000000               0.000000000               0.000000000               0.000025707               0.011158467               0.001686613              -0.001385166               0.004181174               0.002796008               0.000000000               0.000000000               0.000000000               0.000000000              -0.001276364               0.010321464              -0.000223148              -0.001768815               0.004030058               0.002261243               0.000000000               0.000000000               0.000000000               0.000000000              -0.001817260               0.009467541              -0.000823623              -0.001864911               0.003777452               0.001912542               0.000000000               0.000000000               0.000000000               0.000000000              -0.001989938               0.008670086              -0.000973027              -0.001829983               0.003499994               0.001670011               0.000000000               0.000000000               0.000000000               0.000000000              -0.001980909               0.007929529              -0.000969403              -0.001734028               0.003221159               0.001487131               0.000000000               0.000000000               0.000000000               0.000000000              -0.001866875               0.007248769              -0.000917973              -0.001606170               0.002951622               0.001345452               0.000000000               0.000000000               0.000000000               0.000000000              -0.001687538               0.006613878              -0.000851081              -0.001459558               0.002691123               0.001231565               0.000000000               0.000000000               0.000000000               0.000000000              -0.001471460               0.006024800              -0.000786200              -0.001304894               0.002443211               0.001138317               0.000000000               0.000000000               0.000000000               0.000000000              -0.001242691               0.005485503              -0.000713449              -0.001151694               0.002212381               0.001060687               0.000000000               0.000000000               0.000000000               0.000000000              -0.001016781               0.004990499              -0.000631540              -0.001005103               0.001998517               0.000993414               0.000000000               0.000000000               0.000000000               0.000000000              -0.000797567               0.004547500              -0.000542469              -0.000867523               0.001804992               0.000937469               0.000000000               0.000000000               0.000000000               0.000000000              -0.000592206               0.004157212              -0.000446810              -0.000741727               0.001632966               0.000891239               0.000000000               0.000000000               0.000000000               0.000000000              -0.000400299               0.003833108              -0.000345123              -0.000629249               0.001487440               0.000858191               0.000000000               0.000000000               0.000000000               0.000000000              -0.000230328               0.003591306              -0.000234908              -0.000535285               0.001375518               0.000840233               0.000000000               0.000000000               0.000000000               0.000000000              -0.000099804               0.003445439              -0.000118292              -0.000468105               0.001304503               0.000836398               0.000000000               0.000000000               0.000000000               0.000000000              -0.000047188               0.003401025              -0.000059933              -0.000442823               0.001281271               0.000838449               0.000000000               0.000000000               0.000000000               0.000000000               0.001116335               0.010139544               0.003284409              -0.000848818               0.003662753               0.002813935               0.000000000               0.000000000               0.000000000               0.000000000              -0.000876644               0.009638510               0.001599424              -0.001533552               0.003723988               0.002190436               0.000000000               0.000000000               0.000000000               0.000000000              -0.002379309               0.009681782               0.000047879              -0.002102459               0.003928048               0.001825589               0.000000000               0.000000000               0.000000000               0.000000000              -0.002772814               0.009133857              -0.000408857              -0.002181532               0.003771766               0.001590234               0.000000000               0.000000000               0.000000000               0.000000000              -0.002736530               0.008454140              -0.000523053              -0.002082961               0.003512339               0.001429378               0.000000000               0.000000000               0.000000000               0.000000000              -0.002525745               0.007767424              -0.000532872              -0.001918077               0.003228475               0.001310397               0.000000000               0.000000000               0.000000000               0.000000000              -0.002238067               0.007110665              -0.000512687              -0.001728104               0.002946233               0.001218129               0.000000000               0.000000000               0.000000000               0.000000000              -0.001911235               0.006491378              -0.000480735              -0.001528132               0.002673148               0.001145017               0.000000000               0.000000000               0.000000000               0.000000000              -0.001574923               0.005924290              -0.000454611              -0.001331129               0.002418453               0.001087324               0.000000000               0.000000000               0.000000000               0.000000000              -0.001249820               0.005417915              -0.000420732              -0.001145919               0.002187927               0.001042008               0.000000000               0.000000000               0.000000000               0.000000000              -0.000952377               0.004971634              -0.000371205              -0.000978593               0.001983392               0.001004799               0.000000000               0.000000000               0.000000000               0.000000000              -0.000682210               0.004590731              -0.000312220              -0.000829668               0.001806784               0.000977116               0.000000000               0.000000000               0.000000000               0.000000000              -0.000443600               0.004283605              -0.000242597              -0.000701799               0.001661787               0.000959988               0.000000000               0.000000000               0.000000000               0.000000000              -0.000248952               0.004054559              -0.000168499              -0.000600175               0.001551565               0.000951389               0.000000000               0.000000000               0.000000000               0.000000000              -0.000107183               0.003910378              -0.000095379              -0.000528990               0.001479776               0.000950787               0.000000000               0.000000000               0.000000000               0.000000000              -0.000028361               0.003856692              -0.000035839              -0.000492721               0.001449791               0.000957071               0.000000000               0.000000000               0.000000000               0.000000000               0.000003066               0.003869247              -0.000007640              -0.000482505               0.001450571               0.000968066               0.000000000               0.000000000               0.000000000               0.000000000               0.000042466               0.007709408               0.002566326              -0.000947751               0.002885693               0.001937942               0.000000000               0.000000000               0.000000000               0.000000000              -0.001863484               0.008247865               0.001470514              -0.001729786               0.003325856               0.001596070               0.000000000               0.000000000               0.000000000               0.000000000              -0.003325510               0.009006713               0.000439044              -0.002372900               0.003793174               0.001420275               0.000000000               0.000000000               0.000000000               0.000000000              -0.003472049               0.008692639               0.000109951              -0.002388592               0.003693715               0.001305122               0.000000000               0.000000000               0.000000000               0.000000000              -0.003203520               0.008116150              -0.000010102              -0.002215833               0.003443967               0.001228134               0.000000000               0.000000000               0.000000000               0.000000000              -0.002799321               0.007485044              -0.000060469              -0.001985371               0.003156780               0.001171409               0.000000000               0.000000000               0.000000000               0.000000000              -0.002356590               0.006861102              -0.000088278              -0.001741355               0.002867463               0.001126108               0.000000000               0.000000000               0.000000000               0.000000000              -0.001902111               0.006275692              -0.000104903              -0.001497749               0.002591126               0.001093377               0.000000000               0.000000000               0.000000000               0.000000000              -0.001463885               0.005753503              -0.000126000              -0.001268142               0.002340529               0.001072388               0.000000000               0.000000000               0.000000000               0.000000000              -0.001064557               0.005298271              -0.000136504              -0.001061490               0.002119903               0.001058412               0.000000000               0.000000000               0.000000000               0.000000000              -0.000712709               0.004917150              -0.000125330              -0.000881908               0.001933003               0.001051095               0.000000000               0.000000000               0.000000000               0.000000000              -0.000417935               0.004615597              -0.000099432              -0.000733673               0.001783075               0.001049401               0.000000000               0.000000000               0.000000000               0.000000000              -0.000186572               0.004399954              -0.000060618              -0.000619957               0.001673289               0.001053332               0.000000000               0.000000000               0.000000000               0.000000000              -0.000026522               0.004273876              -0.000018251              -0.000544179               0.001606004               0.001061825               0.000000000               0.000000000               0.000000000               0.000000000               0.000054496               0.004230988               0.000012936              -0.000508436               0.001579794               0.001071358               0.000000000               0.000000000               0.000000000               0.000000000               0.000056536               0.004256909               0.000021395              -0.000510911               0.001589259               0.001078348               0.000000000               0.000000000               0.000000000               0.000000000               0.000044954               0.004302318               0.000024132              -0.000520931               0.001607735               0.001086804               0.000000000               0.000000000               0.000000000               0.000000000              -0.001212998               0.005663704               0.001704957              -0.001162835               0.002275494               0.001112658               0.000000000               0.000000000               0.000000000               0.000000000              -0.002828591               0.007003031               0.001335036              -0.001936096               0.002979685               0.001043589               0.000000000               0.000000000               0.000000000               0.000000000              -0.004074578               0.008314469               0.000907448              -0.002567269               0.003627218               0.001059949               0.000000000               0.000000000               0.000000000               0.000000000              -0.003957043               0.008245668               0.000659825              -0.002514594               0.003586726               0.001072133               0.000000000               0.000000000               0.000000000               0.000000000              -0.003489309               0.007798272               0.000506031              -0.002283269               0.003360488               0.001077219               0.000000000               0.000000000               0.000000000               0.000000000              -0.002934350               0.007246021               0.000400665              -0.002006129               0.003084026               0.001077897               0.000000000               0.000000000               0.000000000               0.000000000              -0.002371430               0.006678457               0.000317173              -0.001724089               0.002800826               0.001076737               0.000000000               0.000000000               0.000000000               0.000000000              -0.001818799               0.006148155               0.000247592              -0.001450565               0.002532886               0.001082321               0.000000000               0.000000000               0.000000000               0.000000000              -0.001302286               0.005685623               0.000182896              -0.001199057               0.002294874               0.001095817               0.000000000               0.000000000               0.000000000               0.000000000              -0.000846433               0.005288352               0.000127354              -0.000978454               0.002088917               0.001110464               0.000000000               0.000000000               0.000000000               0.000000000              -0.000459605               0.004963896               0.000091071              -0.000792837               0.001918894               0.001126057               0.000000000               0.000000000               0.000000000               0.000000000              -0.000153740               0.004719354               0.000073520              -0.000647570               0.001788959               0.001141389               0.000000000               0.000000000               0.000000000               0.000000000               0.000071089               0.004566336               0.000066330              -0.000544132               0.001703474               0.001159342               0.000000000               0.000000000               0.000000000               0.000000000               0.000208228               0.004509531               0.000058685              -0.000485605               0.001665030               0.001179426               0.000000000               0.000000000               0.000000000               0.000000000               0.000252355               0.004541106               0.000044353              -0.000473004               0.001671355               0.001198351               0.000000000               0.000000000               0.000000000               0.000000000               0.000216915               0.004636205               0.000023684              -0.000498181               0.001711447               0.001213265               0.000000000               0.000000000               0.000000000               0.000000000               0.000172141               0.004703290               0.000012327              -0.000523357               0.001742200               0.001218843               0.000000000               0.000000000               0.000000000               0.000000000              -0.002660775               0.003779815               0.000805969              -0.001470264               0.001750013               0.000279749               0.000000000               0.000000000               0.000000000               0.000000000              -0.003645899               0.005555387               0.001186602              -0.002061631               0.002538987               0.000477356               0.000000000               0.000000000               0.000000000               0.000000000              -0.004535050               0.007259760               0.001392747              -0.002608108               0.003289265               0.000681157               0.000000000               0.000000000               0.000000000               0.000000000              -0.004272261               0.007556254               0.001236741              -0.002546623               0.003367600               0.000820977               0.000000000               0.000000000               0.000000000               0.000000000              -0.003724483               0.007369043               0.001050714              -0.002317806               0.003228925               0.000911119               0.000000000               0.000000000               0.000000000               0.000000000              -0.003117685               0.007007334               0.000887003              -0.002045044               0.003017436               0.000972392               0.000000000               0.000000000               0.000000000               0.000000000              -0.002520761               0.006587227               0.000751152              -0.001768685               0.002785282               0.001016597               0.000000000               0.000000000               0.000000000               0.000000000              -0.001937370               0.006173952               0.000636917              -0.001498254               0.002557381               0.001059127               0.000000000               0.000000000               0.000000000               0.000000000              -0.001385020               0.005800629               0.000531691              -0.001244458               0.002348343               0.001103885               0.000000000               0.000000000               0.000000000               0.000000000              -0.000889206               0.005479636               0.000431119              -0.001018404               0.002165995               0.001147591               0.000000000               0.000000000               0.000000000               0.000000000              -0.000462811               0.005211314               0.000341454              -0.000824966               0.002012076               0.001187110               0.000000000               0.000000000               0.000000000               0.000000000              -0.000114211               0.004996125               0.000270792              -0.000667343               0.001887806               0.001220463               0.000000000               0.000000000               0.000000000               0.000000000               0.000156052               0.004846993               0.000210014              -0.000547353               0.001798099               0.001250746               0.000000000               0.000000000               0.000000000               0.000000000               0.000343080               0.004775020               0.000145280              -0.000468222               0.001747731               0.001279510               0.000000000               0.000000000               0.000000000               0.000000000               0.000441948               0.004779192               0.000080361              -0.000431667               0.001736937               0.001305270               0.000000000               0.000000000               0.000000000               0.000000000               0.000464308               0.004859263               0.000030089              -0.000433291               0.001764169               0.001330877               0.000000000               0.000000000               0.000000000               0.000000000               0.000437784               0.004909235               0.000004059              -0.000449484               0.001786224               0.001336739               0.000000000               0.000000000               0.000000000               0.000000000              -0.004492963               0.002084945              -0.000054978              -0.001945476               0.001343464              -0.000602011               0.000000000               0.000000000               0.000000000               0.000000000              -0.004567879               0.004091527               0.000982299              -0.002224391               0.002105291              -0.000119099               0.000000000               0.000000000               0.000000000               0.000000000              -0.004912001               0.005988866               0.001780477              -0.002590603               0.002859802               0.000269200               0.000000000               0.000000000               0.000000000               0.000000000              -0.004515944               0.006627705               0.001778592              -0.002521936               0.003049858               0.000527922               0.000000000               0.000000000               0.000000000               0.000000000              -0.003928833               0.006743787               0.001597644              -0.002316280               0.003020000               0.000703719               0.000000000               0.000000000               0.000000000               0.000000000              -0.003300227               0.006619669               0.001397792              -0.002065039               0.002894880               0.000829841               0.000000000               0.000000000               0.000000000               0.000000000              -0.002683891               0.006390314               0.001220833              -0.001805244               0.002731831               0.000926587               0.000000000               0.000000000               0.000000000               0.000000000              -0.002088177               0.006122899               0.001068664              -0.001548425               0.002557088               0.001008662               0.000000000               0.000000000               0.000000000               0.000000000              -0.001515375               0.005852738               0.000927988              -0.001299855               0.002384178               0.001084323               0.000000000               0.000000000               0.000000000               0.000000000              -0.000983383               0.005601832               0.000790158              -0.001068995               0.002223590               0.001154595               0.000000000               0.000000000               0.000000000               0.000000000              -0.000507462               0.005386453               0.000656521              -0.000863603               0.002083334               0.001219731               0.000000000               0.000000000               0.000000000               0.000000000              -0.000097915               0.005206662               0.000536065              -0.000687549               0.001964720               0.001277170               0.000000000               0.000000000               0.000000000               0.000000000               0.000237262               0.005066273               0.000421330              -0.000544310               0.001870177               0.001325867               0.000000000               0.000000000               0.000000000               0.000000000               0.000496876               0.004970074               0.000302654              -0.000434930               0.001801651               0.001366722               0.000000000               0.000000000               0.000000000               0.000000000               0.000677609               0.004924273               0.000185605              -0.000361430               0.001761884               0.001400455               0.000000000               0.000000000               0.000000000               0.000000000               0.000774749               0.004939238               0.000082243              -0.000326873               0.001755354               0.001428481               0.000000000               0.000000000               0.000000000               0.000000000               0.000788082               0.004952539               0.000031748              -0.000323536               0.001758675               0.001435139               0.000000000               0.000000000               0.000000000               0.000000000              -0.006570740               0.000711093              -0.000794845              -0.002552911               0.001087994              -0.001464917               0.000000000               0.000000000               0.000000000               0.000000000              -0.005628780               0.002697115               0.000715317              -0.002447928               0.001715003              -0.000732925               0.000000000               0.000000000               0.000000000               0.000000000              -0.005231068               0.004518584               0.001971452              -0.002526468               0.002348334              -0.000178134               0.000000000               0.000000000               0.000000000               0.000000000              -0.004614318               0.005396191               0.002153275              -0.002404888               0.002600341               0.000195453               0.000000000               0.000000000               0.000000000               0.000000000              -0.003962773               0.005785649               0.002027697              -0.002209241               0.002664944               0.000455703               0.000000000               0.000000000               0.000000000               0.000000000              -0.003321558               0.005906234               0.001829956              -0.001983859               0.002630011               0.000646152               0.000000000               0.000000000               0.000000000               0.000000000              -0.002695839               0.005886558               0.001636144              -0.001746755               0.002544418               0.000797662               0.000000000               0.000000000               0.000000000               0.000000000              -0.002098890               0.005791882               0.001460346              -0.001511066               0.002434296               0.000923231               0.000000000               0.000000000               0.000000000               0.000000000              -0.001520153               0.005657931               0.001298987              -0.001277296               0.002311723               0.001034427               0.000000000               0.000000000               0.000000000               0.000000000              -0.000964129               0.005509459               0.001141394              -0.001050229               0.002186544               0.001136315               0.000000000               0.000000000               0.000000000               0.000000000              -0.000447177               0.005370568               0.000985835              -0.000839011               0.002069842               0.001230831               0.000000000               0.000000000               0.000000000               0.000000000               0.000011126               0.005247810               0.000831237              -0.000651803               0.001966520               0.001314717               0.000000000               0.000000000               0.000000000               0.000000000               0.000403907               0.005148085               0.000675062              -0.000492044               0.001880026               0.001387982               0.000000000               0.000000000               0.000000000               0.000000000               0.000731213               0.005065355               0.000513247              -0.000358964               0.001808089               0.001449126               0.000000000               0.000000000               0.000000000               0.000000000               0.000985728               0.005011760               0.000342328              -0.000256821               0.001756177               0.001499356               0.000000000               0.000000000               0.000000000               0.000000000               0.001147650               0.004993273               0.000168564              -0.000193790               0.001729004               0.001535214               0.000000000               0.000000000               0.000000000               0.000000000               0.001198932               0.004989710               0.000083930              -0.000174114               0.001721258               0.001547144               0.000000000               0.000000000               0.000000000               0.000000000              -0.008748658              -0.000266287              -0.001296712              -0.003247458               0.000993717              -0.002253742               0.000000000               0.000000000               0.000000000               0.000000000              -0.006760005               0.001459354               0.000430773              -0.002717418               0.001392247              -0.001325170               0.000000000               0.000000000               0.000000000               0.000000000              -0.005514270               0.002991948               0.001938452              -0.002441841               0.001811250              -0.000630591               0.000000000               0.000000000               0.000000000               0.000000000              -0.004595678               0.003977314               0.002282320              -0.002220539               0.002065936              -0.000154603               0.000000000               0.000000000               0.000000000               0.000000000              -0.003834517               0.004573587               0.002240072              -0.002009638               0.002194392               0.000184754               0.000000000               0.000000000               0.000000000               0.000000000              -0.003164813               0.004917264               0.002077993              -0.001801459               0.002239557               0.000438098               0.000000000               0.000000000               0.000000000               0.000000000              -0.002544563               0.005102506               0.001891862              -0.001592021               0.002231491               0.000639470               0.000000000               0.000000000               0.000000000               0.000000000              -0.001958467               0.005188407               0.001714496              -0.001382973               0.002190442               0.000807469               0.000000000               0.000000000               0.000000000               0.000000000              -0.001387672               0.005210781               0.001552189              -0.001171723               0.002127483               0.000955761               0.000000000               0.000000000               0.000000000               0.000000000              -0.000824939               0.005195856               0.001391816              -0.000958832               0.002051545               0.001092713               0.000000000               0.000000000               0.000000000               0.000000000              -0.000284821               0.005163352               0.001227763              -0.000752226               0.001971842               0.001219616               0.000000000               0.000000000               0.000000000               0.000000000               0.000216307               0.005123763               0.001061764              -0.000559355               0.001894355               0.001335001               0.000000000               0.000000000               0.000000000               0.000000000               0.000674924               0.005088999               0.000896104              -0.000383028               0.001823992               0.001440964               0.000000000               0.000000000               0.000000000               0.000000000               0.001083537               0.005054726               0.000719321              -0.000225514               0.001760063               0.001534549               0.000000000               0.000000000               0.000000000               0.000000000               0.001429495               0.005021980               0.000512446              -0.000091687               0.001704539               0.001612852               0.000000000               0.000000000               0.000000000               0.000000000               0.001687329               0.005003968               0.000269202               0.000007252               0.001665556               0.001672807               0.000000000               0.000000000               0.000000000               0.000000000               0.001802353               0.005006880               0.000144671               0.000050022               0.001652269               0.001702291               0.000000000               0.000000000               0.000000000               0.000000000              -0.010830047              -0.000869585              -0.001463689              -0.003952567               0.001027653              -0.002924914               0.000000000               0.000000000               0.000000000               0.000000000              -0.007870662               0.000456144               0.000187094              -0.003008514               0.001154878              -0.001853636               0.000000000               0.000000000               0.000000000               0.000000000              -0.005762472               0.001568963               0.001680123              -0.002357044               0.001308660              -0.001048385               0.000000000               0.000000000               0.000000000               0.000000000              -0.004497140               0.002540804               0.002107247              -0.002004025               0.001514932              -0.000489093               0.000000000               0.000000000               0.000000000               0.000000000              -0.003601424               0.003261110               0.002142750              -0.001758170               0.001673081              -0.000085089               0.000000000               0.000000000               0.000000000               0.000000000              -0.002885799               0.003777372               0.002035295              -0.001554343               0.001777225               0.000222882               0.000000000               0.000000000               0.000000000               0.000000000              -0.002267984               0.004143344               0.001881878              -0.001368409               0.001837236               0.000468827               0.000000000               0.000000000               0.000000000               0.000000000              -0.001694877               0.004398634               0.001729067              -0.001185406               0.001861331               0.000675925               0.000000000               0.000000000               0.000000000               0.000000000              -0.001141090               0.004573790               0.001587180              -0.000999631               0.001857791               0.000858160               0.000000000               0.000000000               0.000000000               0.000000000              -0.000590038               0.004707423               0.001440033              -0.000809691               0.001839022               0.001029331               0.000000000               0.000000000               0.000000000               0.000000000              -0.000042560               0.004805259               0.001285616              -0.000616617               0.001807276               0.001190659               0.000000000               0.000000000               0.000000000               0.000000000               0.000498094               0.004871581               0.001134002              -0.000422162               0.001764564               0.001342403               0.000000000               0.000000000               0.000000000               0.000000000               0.001026690               0.004924931               0.000984008              -0.000230608               0.001718496               0.001487889               0.000000000               0.000000000               0.000000000               0.000000000               0.001529557               0.004961141               0.000820444              -0.000046559               0.001669217               0.001622657               0.000000000               0.000000000               0.000000000               0.000000000               0.001996961               0.004976591               0.000614852               0.000126785               0.001616586               0.001743370               0.000000000               0.000000000               0.000000000               0.000000000               0.002412387               0.004988355               0.000340448               0.000281098               0.001569069               0.001850167               0.000000000               0.000000000               0.000000000               0.000000000               0.002652928               0.005015784               0.000195289               0.000367871               0.001549288               0.001917159               0.000000000               0.000000000               0.000000000               0.000000000              -0.012560937              -0.001168819              -0.001263260              -0.004564246               0.001131801              -0.003432445               0.000000000               0.000000000               0.000000000               0.000000000              -0.008826280              -0.000261763               0.000028627              -0.003277132               0.001005116              -0.002272016               0.000000000               0.000000000               0.000000000               0.000000000              -0.005973766               0.000408708               0.001230017              -0.002291249               0.000899979              -0.001391270               0.000000000               0.000000000               0.000000000               0.000000000              -0.004376210               0.001290347               0.001620912              -0.001802370               0.001030898              -0.000771472               0.000000000               0.000000000               0.000000000               0.000000000              -0.003340922               0.002070304               0.001693534              -0.001511631               0.001193970              -0.000317662               0.000000000               0.000000000               0.000000000               0.000000000              -0.002575558               0.002699737               0.001637946              -0.001303299               0.001334335               0.000031037               0.000000000               0.000000000               0.000000000               0.000000000              -0.001946619               0.003195036               0.001535876              -0.001129360               0.001441454               0.000312094               0.000000000               0.000000000               0.000000000               0.000000000              -0.001380292               0.003585559               0.001429930              -0.000965802               0.001517108               0.000551306               0.000000000               0.000000000               0.000000000               0.000000000              -0.000842472               0.003900589               0.001326576              -0.000803499               0.001568016               0.000764517               0.000000000               0.000000000               0.000000000               0.000000000              -0.000311446               0.004161066               0.001214248              -0.000636925               0.001599316               0.000962391               0.000000000               0.000000000               0.000000000               0.000000000               0.000233070               0.004375940               0.001095497              -0.000459591               0.001611829               0.001152238               0.000000000               0.000000000               0.000000000               0.000000000               0.000798537               0.004556267               0.000978126              -0.000270082               0.001608768               0.001338686               0.000000000               0.000000000               0.000000000               0.000000000               0.001381035               0.004706467               0.000860937              -0.000070421               0.001592280               0.001521860               0.000000000               0.000000000               0.000000000               0.000000000               0.001978750               0.004824183               0.000733202               0.000139007               0.001561709               0.001700716               0.000000000               0.000000000               0.000000000               0.000000000               0.002587762               0.004908653               0.000566627               0.000356826               0.001517259               0.001874085               0.000000000               0.000000000               0.000000000               0.000000000               0.003207190               0.004964890               0.000322482               0.000582079               0.001460921               0.002043000               0.000000000               0.000000000               0.000000000               0.000000000               0.003633394               0.005028552               0.000192632               0.000733946               0.001431519               0.002165465               0.000000000               0.000000000               0.000000000               0.000000000              -0.013713493              -0.001271584              -0.000729107              -0.004983609               0.001237333              -0.003746276               0.000000000               0.000000000               0.000000000               0.000000000              -0.009480258              -0.000677768              -0.000022954              -0.003470373               0.000930862              -0.002539511               0.000000000               0.000000000               0.000000000               0.000000000              -0.006125356              -0.000345155               0.000645944              -0.002253863               0.000636231              -0.001617631               0.000000000               0.000000000               0.000000000               0.000000000              -0.004286243               0.000439240               0.000880330              -0.001662244               0.000700490              -0.000961755               0.000000000               0.000000000               0.000000000               0.000000000              -0.003140483               0.001235557               0.000936148              -0.001332124               0.000855887              -0.000476236               0.000000000               0.000000000               0.000000000               0.000000000              -0.002333463               0.001917355               0.000915541              -0.001114716               0.001010683              -0.000104032               0.000000000               0.000000000               0.000000000               0.000000000              -0.001690584               0.002487651               0.000866649              -0.000944923               0.001144183               0.000199259               0.000000000               0.000000000               0.000000000               0.000000000              -0.001128345               0.002969732               0.000814421              -0.000794344               0.001254682               0.000460338               0.000000000               0.000000000               0.000000000               0.000000000              -0.000605423               0.003379719               0.000759441              -0.000649497               0.001343061               0.000693563               0.000000000               0.000000000               0.000000000               0.000000000              -0.000085639               0.003729293               0.000699142              -0.000498275               0.001409177               0.000910902               0.000000000               0.000000000               0.000000000               0.000000000               0.000457358               0.004026591               0.000637084              -0.000331814               0.001452788               0.001120974               0.000000000               0.000000000               0.000000000               0.000000000               0.001037042               0.004281922               0.000572314              -0.000146350               0.001476076               0.001329727               0.000000000               0.000000000               0.000000000               0.000000000               0.001658361               0.004499469               0.000507493               0.000059451               0.001479991               0.001539442               0.000000000               0.000000000               0.000000000               0.000000000               0.002326300               0.004683815               0.000437060               0.000286883               0.001465629               0.001752511               0.000000000               0.000000000               0.000000000               0.000000000               0.003048739               0.004831192               0.000339721               0.000539373               0.001430590               0.001969963               0.000000000               0.000000000               0.000000000               0.000000000               0.003845870               0.004930709               0.000193834               0.000825854               0.001368268               0.002194123               0.000000000               0.000000000               0.000000000               0.000000000               0.004441767               0.005028757               0.000118829               0.001037058               0.001330550               0.002367608               0.000000000               0.000000000               0.000000000               0.000000000               0.000000000               0.000000000               0.000000000               0.000000000               0.000000000               0.000000000               0.000000000               0.000000000               0.000000000               0.000000000               0.000000000               0.000000000               0.000000000               0.000000000               0.000000000               0.000000000               0.000000000               0.000000000               0.000000000               0.000000000               0.000000000               0.000000000               0.000000000               0.000000000               0.000000000               0.000000000               0.000000000               0.000000000               0.000000000               0.000000000               0.000000000               0.000000000               0.000000000               0.000000000               0.000000000               0.000000000               0.000000000               0.000000000               0.000000000               0.000000000               0.000000000               0.000000000               0.000000000               0.000000000               0.000000000               0.000000000               0.000000000               0.000000000               0.000000000               0.000000000               0.000000000               0.000000000               0.000000000               0.000000000               0.000000000               0.000000000               0.000000000               0.000000000               0.000000000               0.000000000               0.000000000               0.000000000               0.000000000               0.000000000               0.000000000               0.000000000               0.000000000               0.000000000               0.000000000               0.000000000               0.000000000               0.000000000               0.000000000               0.000000000               0.000000000               0.000000000               0.000000000               0.000000000               0.000000000               0.000000000               0.000000000               0.000000000               0.000000000               0.000000000               0.000000000               0.000000000               0.000000000               0.000000000               0.000000000               0.000000000               0.000000000               0.000000000               0.000000000               0.000000000               0.000000000               0.000000000               0.000000000               0.000000000               0.000000000               0.000000000               0.000000000               0.000000000               0.000000000               0.000000000               0.000000000               0.000000000               0.000000000               0.000000000               0.000000000               0.000000000               0.000000000               0.000000000               0.000000000               0.000000000               0.000000000               0.000000000               0.000000000               0.000000000               0.000000000               0.000000000               0.000000000               0.000000000               0.000000000               0.000000000               0.000000000               0.000000000               0.000000000               0.000000000               0.000000000               0.000000000               0.000000000               0.000000000               0.000000000               0.000000000               0.000000000               0.000000000               0.000000000               0.000000000               0.000000000               0.000000000               0.000000000               0.000000000               0.000000000               0.000000000               0.000000000               0.000000000               0.000000000               0.000000000               0.000000000               0.000000000               0.000000000               0.000000000               0.000000000               0.000000000               0.000000000               0.000000000               0.000000000               0.000000000               0.000000000               0.000000000               0.000000000               0.000000000               0.000000000               0.000000000               0.000000000               0.000000000               0.000000000               0.000000000               0.000000000               0.000000000 </DataArray>
</PointData>
</Piece>
</UnstructuredGrid> </VTKFile>
