<?xml version="1.0"?>
<VTKFile type="UnstructuredGrid" version="0.1">
<UnstructuredGrid>
<Piece NumberOfPoints="      1156" NumberOfCells="      1024">
<Points>
<DataArray type="Float64"                                    Name="coordinates"                                                      NumberOfComponents=" 3" format="ascii">
              0.133000000               0.000000000               0.000000000               0.155937500               0.000000000               0.000000000               0.178875000               0.000000000               0.000000000               0.201812500               0.000000000               0.000000000               0.224750000               0.000000000               0.000000000               0.247687500               0.000000000               0.000000000               0.270625000               0.000000000               0.000000000               0.293562500               0.000000000               0.000000000               0.316500000               0.000000000               0.000000000               0.339437500               0.000000000               0.000000000               0.362375000               0.000000000               0.000000000               0.385312500               0.000000000               0.000000000               0.408250000               0.000000000               0.000000000               0.431187500               0.000000000               0.000000000               0.454125000               0.000000000               0.000000000               0.477062500               0.000000000               0.000000000               0.500000000               0.000000000               0.000000000               0.132359569               0.013036280               0.000000000               0.155337096               0.016127762               0.000000000               0.178314623               0.019219245               0.000000000               0.201292150               0.022310727               0.000000000               0.224269676               0.025402210               0.000000000               0.247247203               0.028493692               0.000000000               0.270224730               0.031585175               0.000000000               0.293202257               0.034676657               0.000000000               0.316179784               0.037768140               0.000000000               0.339157311               0.040859622               0.000000000               0.362134838               0.043951105               0.000000000               0.385112365               0.047042587               0.000000000               0.408089892               0.050134070               0.000000000               0.431067419               0.053225552               0.000000000               0.454044946               0.056317035               0.000000000               0.477022473               0.059408517               0.000000000               0.500000000               0.062500000               0.000000000               0.130444442               0.025947013               0.000000000               0.153541665               0.032137825               0.000000000               0.176638887               0.038328636               0.000000000               0.199736109               0.044519448               0.000000000               0.222833332               0.050710260               0.000000000               0.245930554               0.056901071               0.000000000               0.269027776               0.063091883               0.000000000               0.292124999               0.069282695               0.000000000               0.315222221               0.075473506               0.000000000               0.338319444               0.081664318               0.000000000               0.361416666               0.087855130               0.000000000               0.384513888               0.094045942               0.000000000               0.407611111               0.100236753               0.000000000               0.430708333               0.106427565               0.000000000               0.453805555               0.112618377               0.000000000               0.476902778               0.118809188               0.000000000               0.500000000               0.125000000               0.000000000               0.127273065               0.038607862               0.000000000               0.150568498               0.047913621               0.000000000               0.173863932               0.057219379               0.000000000               0.197159365               0.066525138               0.000000000               0.220454798               0.075830897               0.000000000               0.243750232               0.085136655               0.000000000               0.267045665               0.094442414               0.000000000               0.290341099               0.103748172               0.000000000               0.313636532               0.113053931               0.000000000               0.336931966               0.122359690               0.000000000               0.360227399               0.131665448               0.000000000               0.383522833               0.140971207               0.000000000               0.406818266               0.150276966               0.000000000               0.430113700               0.159582724               0.000000000               0.453409133               0.168888483               0.000000000               0.476704567               0.178194241               0.000000000               0.500000000               0.187500000               0.000000000               0.122875978               0.050896897               0.000000000               0.146446229               0.063340840               0.000000000               0.170016481               0.075784784               0.000000000               0.193586732               0.088228728               0.000000000               0.217156983               0.100672672               0.000000000               0.240727235               0.113116616               0.000000000               0.264297486               0.125560560               0.000000000               0.287867738               0.138004504               0.000000000               0.311437989               0.150448448               0.000000000               0.335008240               0.162892392               0.000000000               0.358578492               0.175336336               0.000000000               0.382148743               0.187780280               0.000000000               0.405718994               0.200224224               0.000000000               0.429289246               0.212668168               0.000000000               0.452859497               0.225112112               0.000000000               0.476429749               0.237556056               0.000000000               0.500000000               0.250000000               0.000000000               0.117295528               0.062695766               0.000000000               0.141214558               0.078308531               0.000000000               0.165133587               0.093921295               0.000000000               0.189052617               0.109534060               0.000000000               0.212971646               0.125146824               0.000000000               0.236890676               0.140759589               0.000000000               0.260809705               0.156372354               0.000000000               0.284728735               0.171985118               0.000000000               0.308647764               0.187597883               0.000000000               0.332566794               0.203210648               0.000000000               0.356485823               0.218823412               0.000000000               0.380404853               0.234436177               0.000000000               0.404323882               0.250048941               0.000000000               0.428242912               0.265661706               0.000000000               0.452161941               0.281274471               0.000000000               0.476080971               0.296887235               0.000000000               0.500000000               0.312500000               0.000000000               0.110585458               0.073890841               0.000000000               0.134923867               0.092710163               0.000000000               0.159262276               0.111529486               0.000000000               0.183600685               0.130348808               0.000000000               0.207939094               0.149168131               0.000000000               0.232277503               0.167987453               0.000000000               0.256615912               0.186806776               0.000000000               0.280954320               0.205626098               0.000000000               0.305292729               0.224445420               0.000000000               0.329631138               0.243264743               0.000000000               0.353969547               0.262084065               0.000000000               0.378307956               0.280903388               0.000000000               0.402646365               0.299722710               0.000000000               0.426984773               0.318542033               0.000000000               0.451323182               0.337361355               0.000000000               0.475661591               0.356180678               0.000000000               0.500000000               0.375000000               0.000000000               0.102810390               0.084374307               0.000000000               0.127634741               0.106444663               0.000000000               0.152459092               0.128515018               0.000000000               0.177283442               0.150585374               0.000000000               0.202107793               0.172655730               0.000000000               0.226932143               0.194726086               0.000000000               0.251756494               0.216796442               0.000000000               0.276580845               0.238866798               0.000000000               0.301405195               0.260937153               0.000000000               0.326229546               0.283007509               0.000000000               0.351053896               0.305077865               0.000000000               0.375878247               0.327148221               0.000000000               0.400702598               0.349218577               0.000000000               0.425526948               0.371288933               0.000000000               0.450351299               0.393359288               0.000000000               0.475175649               0.415429644               0.000000000               0.500000000               0.437500000               0.000000000               0.094045202               0.094045202               0.000000000               0.119417377               0.119417377               0.000000000               0.144789552               0.144789552               0.000000000               0.170161727               0.170161727               0.000000000               0.195533901               0.195533901               0.000000000               0.220906076               0.220906076               0.000000000               0.246278251               0.246278251               0.000000000               0.271650426               0.271650426               0.000000000               0.297022601               0.297022601               0.000000000               0.322394776               0.322394776               0.000000000               0.347766951               0.347766951               0.000000000               0.373139126               0.373139126               0.000000000               0.398511300               0.398511300               0.000000000               0.423883475               0.423883475               0.000000000               0.449255650               0.449255650               0.000000000               0.474627825               0.474627825               0.000000000               0.500000000               0.500000000               0.000000000               0.084374307               0.102810390               0.000000000               0.106444663               0.127634741               0.000000000               0.128515018               0.152459092               0.000000000               0.150585374               0.177283442               0.000000000               0.172655730               0.202107793               0.000000000               0.194726086               0.226932143               0.000000000               0.216796442               0.251756494               0.000000000               0.238866798               0.276580845               0.000000000               0.260937153               0.301405195               0.000000000               0.283007509               0.326229546               0.000000000               0.305077865               0.351053896               0.000000000               0.327148221               0.375878247               0.000000000               0.349218577               0.400702598               0.000000000               0.371288933               0.425526948               0.000000000               0.393359288               0.450351299               0.000000000               0.415429644               0.475175649               0.000000000               0.437500000               0.500000000               0.000000000               0.073890841               0.110585458               0.000000000               0.092710163               0.134923867               0.000000000               0.111529486               0.159262276               0.000000000               0.130348808               0.183600685               0.000000000               0.149168131               0.207939094               0.000000000               0.167987453               0.232277503               0.000000000               0.186806776               0.256615912               0.000000000               0.205626098               0.280954320               0.000000000               0.224445420               0.305292729               0.000000000               0.243264743               0.329631138               0.000000000               0.262084065               0.353969547               0.000000000               0.280903388               0.378307956               0.000000000               0.299722710               0.402646365               0.000000000               0.318542033               0.426984773               0.000000000               0.337361355               0.451323182               0.000000000               0.356180678               0.475661591               0.000000000               0.375000000               0.500000000               0.000000000               0.062695766               0.117295528               0.000000000               0.078308531               0.141214558               0.000000000               0.093921295               0.165133587               0.000000000               0.109534060               0.189052617               0.000000000               0.125146824               0.212971646               0.000000000               0.140759589               0.236890676               0.000000000               0.156372354               0.260809705               0.000000000               0.171985118               0.284728735               0.000000000               0.187597883               0.308647764               0.000000000               0.203210648               0.332566794               0.000000000               0.218823412               0.356485823               0.000000000               0.234436177               0.380404853               0.000000000               0.250048941               0.404323882               0.000000000               0.265661706               0.428242912               0.000000000               0.281274471               0.452161941               0.000000000               0.296887235               0.476080971               0.000000000               0.312500000               0.500000000               0.000000000               0.050896897               0.122875978               0.000000000               0.063340840               0.146446229               0.000000000               0.075784784               0.170016481               0.000000000               0.088228728               0.193586732               0.000000000               0.100672672               0.217156983               0.000000000               0.113116616               0.240727235               0.000000000               0.125560560               0.264297486               0.000000000               0.138004504               0.287867738               0.000000000               0.150448448               0.311437989               0.000000000               0.162892392               0.335008240               0.000000000               0.175336336               0.358578492               0.000000000               0.187780280               0.382148743               0.000000000               0.200224224               0.405718994               0.000000000               0.212668168               0.429289246               0.000000000               0.225112112               0.452859497               0.000000000               0.237556056               0.476429749               0.000000000               0.250000000               0.500000000               0.000000000               0.038607862               0.127273065               0.000000000               0.047913621               0.150568498               0.000000000               0.057219379               0.173863932               0.000000000               0.066525138               0.197159365               0.000000000               0.075830897               0.220454798               0.000000000               0.085136655               0.243750232               0.000000000               0.094442414               0.267045665               0.000000000               0.103748172               0.290341099               0.000000000               0.113053931               0.313636532               0.000000000               0.122359690               0.336931966               0.000000000               0.131665448               0.360227399               0.000000000               0.140971207               0.383522833               0.000000000               0.150276966               0.406818266               0.000000000               0.159582724               0.430113700               0.000000000               0.168888483               0.453409133               0.000000000               0.178194241               0.476704567               0.000000000               0.187500000               0.500000000               0.000000000               0.025947013               0.130444442               0.000000000               0.032137825               0.153541665               0.000000000               0.038328636               0.176638887               0.000000000               0.044519448               0.199736109               0.000000000               0.050710260               0.222833332               0.000000000               0.056901071               0.245930554               0.000000000               0.063091883               0.269027776               0.000000000               0.069282695               0.292124999               0.000000000               0.075473506               0.315222221               0.000000000               0.081664318               0.338319444               0.000000000               0.087855130               0.361416666               0.000000000               0.094045942               0.384513888               0.000000000               0.100236753               0.407611111               0.000000000               0.106427565               0.430708333               0.000000000               0.112618377               0.453805555               0.000000000               0.118809188               0.476902778               0.000000000               0.125000000               0.500000000               0.000000000               0.013036280               0.132359569               0.000000000               0.016127762               0.155337096               0.000000000               0.019219245               0.178314623               0.000000000               0.022310727               0.201292150               0.000000000               0.025402210               0.224269676               0.000000000               0.028493692               0.247247203               0.000000000               0.031585175               0.270224730               0.000000000               0.034676657               0.293202257               0.000000000               0.037768140               0.316179784               0.000000000               0.040859622               0.339157311               0.000000000               0.043951105               0.362134838               0.000000000               0.047042587               0.385112365               0.000000000               0.050134070               0.408089892               0.000000000               0.053225552               0.431067419               0.000000000               0.056317035               0.454044946               0.000000000               0.059408517               0.477022473               0.000000000               0.062500000               0.500000000               0.000000000               0.000000000               0.133000000               0.000000000               0.000000000               0.155937500               0.000000000               0.000000000               0.178875000               0.000000000               0.000000000               0.201812500               0.000000000               0.000000000               0.224750000               0.000000000               0.000000000               0.247687500               0.000000000               0.000000000               0.270625000               0.000000000               0.000000000               0.293562500               0.000000000               0.000000000               0.316500000               0.000000000               0.000000000               0.339437500               0.000000000               0.000000000               0.362375000               0.000000000               0.000000000               0.385312500               0.000000000               0.000000000               0.408250000               0.000000000               0.000000000               0.431187500               0.000000000               0.000000000               0.454125000               0.000000000               0.000000000               0.477062500               0.000000000               0.000000000               0.500000000               0.000000000               0.133000000               0.000000000               0.000000000               0.155937500               0.000000000               0.000000000               0.178875000               0.000000000               0.000000000               0.201812500               0.000000000               0.000000000               0.224750000               0.000000000               0.000000000               0.247687500               0.000000000               0.000000000               0.270625000               0.000000000               0.000000000               0.293562500               0.000000000               0.000000000               0.316500000               0.000000000               0.000000000               0.339437500               0.000000000               0.000000000               0.362375000               0.000000000               0.000000000               0.385312500               0.000000000               0.000000000               0.408250000               0.000000000               0.000000000               0.431187500               0.000000000               0.000000000               0.454125000               0.000000000               0.000000000               0.477062500               0.000000000               0.000000000               0.500000000               0.000000000               0.000000000               0.132359569              -0.013036280               0.000000000               0.155337096              -0.016127762               0.000000000               0.178314623              -0.019219245               0.000000000               0.201292150              -0.022310727               0.000000000               0.224269676              -0.025402210               0.000000000               0.247247203              -0.028493692               0.000000000               0.270224730              -0.031585175               0.000000000               0.293202257              -0.034676657               0.000000000               0.316179784              -0.037768140               0.000000000               0.339157311              -0.040859622               0.000000000               0.362134838              -0.043951105               0.000000000               0.385112365              -0.047042587               0.000000000               0.408089892              -0.050134070               0.000000000               0.431067419              -0.053225552               0.000000000               0.454044946              -0.056317035               0.000000000               0.477022473              -0.059408517               0.000000000               0.500000000              -0.062500000               0.000000000               0.130444442              -0.025947013               0.000000000               0.153541665              -0.032137825               0.000000000               0.176638887              -0.038328636               0.000000000               0.199736109              -0.044519448               0.000000000               0.222833332              -0.050710260               0.000000000               0.245930554              -0.056901071               0.000000000               0.269027776              -0.063091883               0.000000000               0.292124999              -0.069282695               0.000000000               0.315222221              -0.075473506               0.000000000               0.338319444              -0.081664318               0.000000000               0.361416666              -0.087855130               0.000000000               0.384513888              -0.094045942               0.000000000               0.407611111              -0.100236753               0.000000000               0.430708333              -0.106427565               0.000000000               0.453805555              -0.112618377               0.000000000               0.476902778              -0.118809188               0.000000000               0.500000000              -0.125000000               0.000000000               0.127273065              -0.038607862               0.000000000               0.150568498              -0.047913621               0.000000000               0.173863932              -0.057219379               0.000000000               0.197159365              -0.066525138               0.000000000               0.220454798              -0.075830897               0.000000000               0.243750232              -0.085136655               0.000000000               0.267045665              -0.094442414               0.000000000               0.290341099              -0.103748172               0.000000000               0.313636532              -0.113053931               0.000000000               0.336931966              -0.122359690               0.000000000               0.360227399              -0.131665448               0.000000000               0.383522833              -0.140971207               0.000000000               0.406818266              -0.150276966               0.000000000               0.430113700              -0.159582724               0.000000000               0.453409133              -0.168888483               0.000000000               0.476704567              -0.178194241               0.000000000               0.500000000              -0.187500000               0.000000000               0.122875978              -0.050896897               0.000000000               0.146446229              -0.063340840               0.000000000               0.170016481              -0.075784784               0.000000000               0.193586732              -0.088228728               0.000000000               0.217156983              -0.100672672               0.000000000               0.240727235              -0.113116616               0.000000000               0.264297486              -0.125560560               0.000000000               0.287867738              -0.138004504               0.000000000               0.311437989              -0.150448448               0.000000000               0.335008240              -0.162892392               0.000000000               0.358578492              -0.175336336               0.000000000               0.382148743              -0.187780280               0.000000000               0.405718994              -0.200224224               0.000000000               0.429289246              -0.212668168               0.000000000               0.452859497              -0.225112112               0.000000000               0.476429749              -0.237556056               0.000000000               0.500000000              -0.250000000               0.000000000               0.117295528              -0.062695766               0.000000000               0.141214558              -0.078308531               0.000000000               0.165133587              -0.093921295               0.000000000               0.189052617              -0.109534060               0.000000000               0.212971646              -0.125146824               0.000000000               0.236890676              -0.140759589               0.000000000               0.260809705              -0.156372354               0.000000000               0.284728735              -0.171985118               0.000000000               0.308647764              -0.187597883               0.000000000               0.332566794              -0.203210648               0.000000000               0.356485823              -0.218823412               0.000000000               0.380404853              -0.234436177               0.000000000               0.404323882              -0.250048941               0.000000000               0.428242912              -0.265661706               0.000000000               0.452161941              -0.281274471               0.000000000               0.476080971              -0.296887235               0.000000000               0.500000000              -0.312500000               0.000000000               0.110585458              -0.073890841               0.000000000               0.134923867              -0.092710163               0.000000000               0.159262276              -0.111529486               0.000000000               0.183600685              -0.130348808               0.000000000               0.207939094              -0.149168131               0.000000000               0.232277503              -0.167987453               0.000000000               0.256615912              -0.186806776               0.000000000               0.280954320              -0.205626098               0.000000000               0.305292729              -0.224445420               0.000000000               0.329631138              -0.243264743               0.000000000               0.353969547              -0.262084065               0.000000000               0.378307956              -0.280903388               0.000000000               0.402646365              -0.299722710               0.000000000               0.426984773              -0.318542033               0.000000000               0.451323182              -0.337361355               0.000000000               0.475661591              -0.356180678               0.000000000               0.500000000              -0.375000000               0.000000000               0.102810390              -0.084374307               0.000000000               0.127634741              -0.106444663               0.000000000               0.152459092              -0.128515018               0.000000000               0.177283442              -0.150585374               0.000000000               0.202107793              -0.172655730               0.000000000               0.226932143              -0.194726086               0.000000000               0.251756494              -0.216796442               0.000000000               0.276580845              -0.238866798               0.000000000               0.301405195              -0.260937153               0.000000000               0.326229546              -0.283007509               0.000000000               0.351053896              -0.305077865               0.000000000               0.375878247              -0.327148221               0.000000000               0.400702598              -0.349218577               0.000000000               0.425526948              -0.371288933               0.000000000               0.450351299              -0.393359288               0.000000000               0.475175649              -0.415429644               0.000000000               0.500000000              -0.437500000               0.000000000               0.094045202              -0.094045202               0.000000000               0.119417377              -0.119417377               0.000000000               0.144789552              -0.144789552               0.000000000               0.170161727              -0.170161727               0.000000000               0.195533901              -0.195533901               0.000000000               0.220906076              -0.220906076               0.000000000               0.246278251              -0.246278251               0.000000000               0.271650426              -0.271650426               0.000000000               0.297022601              -0.297022601               0.000000000               0.322394776              -0.322394776               0.000000000               0.347766951              -0.347766951               0.000000000               0.373139126              -0.373139126               0.000000000               0.398511300              -0.398511300               0.000000000               0.423883475              -0.423883475               0.000000000               0.449255650              -0.449255650               0.000000000               0.474627825              -0.474627825               0.000000000               0.500000000              -0.500000000               0.000000000               0.084374307              -0.102810390               0.000000000               0.106444663              -0.127634741               0.000000000               0.128515018              -0.152459092               0.000000000               0.150585374              -0.177283442               0.000000000               0.172655730              -0.202107793               0.000000000               0.194726086              -0.226932143               0.000000000               0.216796442              -0.251756494               0.000000000               0.238866798              -0.276580845               0.000000000               0.260937153              -0.301405195               0.000000000               0.283007509              -0.326229546               0.000000000               0.305077865              -0.351053896               0.000000000               0.327148221              -0.375878247               0.000000000               0.349218577              -0.400702598               0.000000000               0.371288933              -0.425526948               0.000000000               0.393359288              -0.450351299               0.000000000               0.415429644              -0.475175649               0.000000000               0.437500000              -0.500000000               0.000000000               0.073890841              -0.110585458               0.000000000               0.092710163              -0.134923867               0.000000000               0.111529486              -0.159262276               0.000000000               0.130348808              -0.183600685               0.000000000               0.149168131              -0.207939094               0.000000000               0.167987453              -0.232277503               0.000000000               0.186806776              -0.256615912               0.000000000               0.205626098              -0.280954320               0.000000000               0.224445420              -0.305292729               0.000000000               0.243264743              -0.329631138               0.000000000               0.262084065              -0.353969547               0.000000000               0.280903388              -0.378307956               0.000000000               0.299722710              -0.402646365               0.000000000               0.318542033              -0.426984773               0.000000000               0.337361355              -0.451323182               0.000000000               0.356180678              -0.475661591               0.000000000               0.375000000              -0.500000000               0.000000000               0.062695766              -0.117295528               0.000000000               0.078308531              -0.141214558               0.000000000               0.093921295              -0.165133587               0.000000000               0.109534060              -0.189052617               0.000000000               0.125146824              -0.212971646               0.000000000               0.140759589              -0.236890676               0.000000000               0.156372354              -0.260809705               0.000000000               0.171985118              -0.284728735               0.000000000               0.187597883              -0.308647764               0.000000000               0.203210648              -0.332566794               0.000000000               0.218823412              -0.356485823               0.000000000               0.234436177              -0.380404853               0.000000000               0.250048941              -0.404323882               0.000000000               0.265661706              -0.428242912               0.000000000               0.281274471              -0.452161941               0.000000000               0.296887235              -0.476080971               0.000000000               0.312500000              -0.500000000               0.000000000               0.050896897              -0.122875978               0.000000000               0.063340840              -0.146446229               0.000000000               0.075784784              -0.170016481               0.000000000               0.088228728              -0.193586732               0.000000000               0.100672672              -0.217156983               0.000000000               0.113116616              -0.240727235               0.000000000               0.125560560              -0.264297486               0.000000000               0.138004504              -0.287867738               0.000000000               0.150448448              -0.311437989               0.000000000               0.162892392              -0.335008240               0.000000000               0.175336336              -0.358578492               0.000000000               0.187780280              -0.382148743               0.000000000               0.200224224              -0.405718994               0.000000000               0.212668168              -0.429289246               0.000000000               0.225112112              -0.452859497               0.000000000               0.237556056              -0.476429749               0.000000000               0.250000000              -0.500000000               0.000000000               0.038607862              -0.127273065               0.000000000               0.047913621              -0.150568498               0.000000000               0.057219379              -0.173863932               0.000000000               0.066525138              -0.197159365               0.000000000               0.075830897              -0.220454798               0.000000000               0.085136655              -0.243750232               0.000000000               0.094442414              -0.267045665               0.000000000               0.103748172              -0.290341099               0.000000000               0.113053931              -0.313636532               0.000000000               0.122359690              -0.336931966               0.000000000               0.131665448              -0.360227399               0.000000000               0.140971207              -0.383522833               0.000000000               0.150276966              -0.406818266               0.000000000               0.159582724              -0.430113700               0.000000000               0.168888483              -0.453409133               0.000000000               0.178194241              -0.476704567               0.000000000               0.187500000              -0.500000000               0.000000000               0.025947013              -0.130444442               0.000000000               0.032137825              -0.153541665               0.000000000               0.038328636              -0.176638887               0.000000000               0.044519448              -0.199736109               0.000000000               0.050710260              -0.222833332               0.000000000               0.056901071              -0.245930554               0.000000000               0.063091883              -0.269027776               0.000000000               0.069282695              -0.292124999               0.000000000               0.075473506              -0.315222221               0.000000000               0.081664318              -0.338319444               0.000000000               0.087855130              -0.361416666               0.000000000               0.094045942              -0.384513888               0.000000000               0.100236753              -0.407611111               0.000000000               0.106427565              -0.430708333               0.000000000               0.112618377              -0.453805555               0.000000000               0.118809188              -0.476902778               0.000000000               0.125000000              -0.500000000               0.000000000               0.013036280              -0.132359569               0.000000000               0.016127762              -0.155337096               0.000000000               0.019219245              -0.178314623               0.000000000               0.022310727              -0.201292150               0.000000000               0.025402210              -0.224269676               0.000000000               0.028493692              -0.247247203               0.000000000               0.031585175              -0.270224730               0.000000000               0.034676657              -0.293202257               0.000000000               0.037768140              -0.316179784               0.000000000               0.040859622              -0.339157311               0.000000000               0.043951105              -0.362134838               0.000000000               0.047042587              -0.385112365               0.000000000               0.050134070              -0.408089892               0.000000000               0.053225552              -0.431067419               0.000000000               0.056317035              -0.454044946               0.000000000               0.059408517              -0.477022473               0.000000000               0.062500000              -0.500000000               0.000000000               0.000000000              -0.133000000               0.000000000               0.000000000              -0.155937500               0.000000000               0.000000000              -0.178875000               0.000000000               0.000000000              -0.201812500               0.000000000               0.000000000              -0.224750000               0.000000000               0.000000000              -0.247687500               0.000000000               0.000000000              -0.270625000               0.000000000               0.000000000              -0.293562500               0.000000000               0.000000000              -0.316500000               0.000000000               0.000000000              -0.339437500               0.000000000               0.000000000              -0.362375000               0.000000000               0.000000000              -0.385312500               0.000000000               0.000000000              -0.408250000               0.000000000               0.000000000              -0.431187500               0.000000000               0.000000000              -0.454125000               0.000000000               0.000000000              -0.477062500               0.000000000               0.000000000              -0.500000000               0.000000000              -0.133000000               0.000000000               0.000000000              -0.155937500               0.000000000               0.000000000              -0.178875000               0.000000000               0.000000000              -0.201812500               0.000000000               0.000000000              -0.224750000               0.000000000               0.000000000              -0.247687500               0.000000000               0.000000000              -0.270625000               0.000000000               0.000000000              -0.293562500               0.000000000               0.000000000              -0.316500000               0.000000000               0.000000000              -0.339437500               0.000000000               0.000000000              -0.362375000               0.000000000               0.000000000              -0.385312500               0.000000000               0.000000000              -0.408250000               0.000000000               0.000000000              -0.431187500               0.000000000               0.000000000              -0.454125000               0.000000000               0.000000000              -0.477062500               0.000000000               0.000000000              -0.500000000               0.000000000               0.000000000              -0.132359569              -0.013036280               0.000000000              -0.155337096              -0.016127762               0.000000000              -0.178314623              -0.019219245               0.000000000              -0.201292150              -0.022310727               0.000000000              -0.224269676              -0.025402210               0.000000000              -0.247247203              -0.028493692               0.000000000              -0.270224730              -0.031585175               0.000000000              -0.293202257              -0.034676657               0.000000000              -0.316179784              -0.037768140               0.000000000              -0.339157311              -0.040859622               0.000000000              -0.362134838              -0.043951105               0.000000000              -0.385112365              -0.047042587               0.000000000              -0.408089892              -0.050134070               0.000000000              -0.431067419              -0.053225552               0.000000000              -0.454044946              -0.056317035               0.000000000              -0.477022473              -0.059408517               0.000000000              -0.500000000              -0.062500000               0.000000000              -0.130444442              -0.025947013               0.000000000              -0.153541665              -0.032137825               0.000000000              -0.176638887              -0.038328636               0.000000000              -0.199736109              -0.044519448               0.000000000              -0.222833332              -0.050710260               0.000000000              -0.245930554              -0.056901071               0.000000000              -0.269027776              -0.063091883               0.000000000              -0.292124999              -0.069282695               0.000000000              -0.315222221              -0.075473506               0.000000000              -0.338319444              -0.081664318               0.000000000              -0.361416666              -0.087855130               0.000000000              -0.384513888              -0.094045942               0.000000000              -0.407611111              -0.100236753               0.000000000              -0.430708333              -0.106427565               0.000000000              -0.453805555              -0.112618377               0.000000000              -0.476902778              -0.118809188               0.000000000              -0.500000000              -0.125000000               0.000000000              -0.127273065              -0.038607862               0.000000000              -0.150568498              -0.047913621               0.000000000              -0.173863932              -0.057219379               0.000000000              -0.197159365              -0.066525138               0.000000000              -0.220454798              -0.075830897               0.000000000              -0.243750232              -0.085136655               0.000000000              -0.267045665              -0.094442414               0.000000000              -0.290341099              -0.103748172               0.000000000              -0.313636532              -0.113053931               0.000000000              -0.336931966              -0.122359690               0.000000000              -0.360227399              -0.131665448               0.000000000              -0.383522833              -0.140971207               0.000000000              -0.406818266              -0.150276966               0.000000000              -0.430113700              -0.159582724               0.000000000              -0.453409133              -0.168888483               0.000000000              -0.476704567              -0.178194241               0.000000000              -0.500000000              -0.187500000               0.000000000              -0.122875978              -0.050896897               0.000000000              -0.146446229              -0.063340840               0.000000000              -0.170016481              -0.075784784               0.000000000              -0.193586732              -0.088228728               0.000000000              -0.217156983              -0.100672672               0.000000000              -0.240727235              -0.113116616               0.000000000              -0.264297486              -0.125560560               0.000000000              -0.287867738              -0.138004504               0.000000000              -0.311437989              -0.150448448               0.000000000              -0.335008240              -0.162892392               0.000000000              -0.358578492              -0.175336336               0.000000000              -0.382148743              -0.187780280               0.000000000              -0.405718994              -0.200224224               0.000000000              -0.429289246              -0.212668168               0.000000000              -0.452859497              -0.225112112               0.000000000              -0.476429749              -0.237556056               0.000000000              -0.500000000              -0.250000000               0.000000000              -0.117295528              -0.062695766               0.000000000              -0.141214558              -0.078308531               0.000000000              -0.165133587              -0.093921295               0.000000000              -0.189052617              -0.109534060               0.000000000              -0.212971646              -0.125146824               0.000000000              -0.236890676              -0.140759589               0.000000000              -0.260809705              -0.156372354               0.000000000              -0.284728735              -0.171985118               0.000000000              -0.308647764              -0.187597883               0.000000000              -0.332566794              -0.203210648               0.000000000              -0.356485823              -0.218823412               0.000000000              -0.380404853              -0.234436177               0.000000000              -0.404323882              -0.250048941               0.000000000              -0.428242912              -0.265661706               0.000000000              -0.452161941              -0.281274471               0.000000000              -0.476080971              -0.296887235               0.000000000              -0.500000000              -0.312500000               0.000000000              -0.110585458              -0.073890841               0.000000000              -0.134923867              -0.092710163               0.000000000              -0.159262276              -0.111529486               0.000000000              -0.183600685              -0.130348808               0.000000000              -0.207939094              -0.149168131               0.000000000              -0.232277503              -0.167987453               0.000000000              -0.256615912              -0.186806776               0.000000000              -0.280954320              -0.205626098               0.000000000              -0.305292729              -0.224445420               0.000000000              -0.329631138              -0.243264743               0.000000000              -0.353969547              -0.262084065               0.000000000              -0.378307956              -0.280903388               0.000000000              -0.402646365              -0.299722710               0.000000000              -0.426984773              -0.318542033               0.000000000              -0.451323182              -0.337361355               0.000000000              -0.475661591              -0.356180678               0.000000000              -0.500000000              -0.375000000               0.000000000              -0.102810390              -0.084374307               0.000000000              -0.127634741              -0.106444663               0.000000000              -0.152459092              -0.128515018               0.000000000              -0.177283442              -0.150585374               0.000000000              -0.202107793              -0.172655730               0.000000000              -0.226932143              -0.194726086               0.000000000              -0.251756494              -0.216796442               0.000000000              -0.276580845              -0.238866798               0.000000000              -0.301405195              -0.260937153               0.000000000              -0.326229546              -0.283007509               0.000000000              -0.351053896              -0.305077865               0.000000000              -0.375878247              -0.327148221               0.000000000              -0.400702598              -0.349218577               0.000000000              -0.425526948              -0.371288933               0.000000000              -0.450351299              -0.393359288               0.000000000              -0.475175649              -0.415429644               0.000000000              -0.500000000              -0.437500000               0.000000000              -0.094045202              -0.094045202               0.000000000              -0.119417377              -0.119417377               0.000000000              -0.144789552              -0.144789552               0.000000000              -0.170161727              -0.170161727               0.000000000              -0.195533901              -0.195533901               0.000000000              -0.220906076              -0.220906076               0.000000000              -0.246278251              -0.246278251               0.000000000              -0.271650426              -0.271650426               0.000000000              -0.297022601              -0.297022601               0.000000000              -0.322394776              -0.322394776               0.000000000              -0.347766951              -0.347766951               0.000000000              -0.373139126              -0.373139126               0.000000000              -0.398511300              -0.398511300               0.000000000              -0.423883475              -0.423883475               0.000000000              -0.449255650              -0.449255650               0.000000000              -0.474627825              -0.474627825               0.000000000              -0.500000000              -0.500000000               0.000000000              -0.084374307              -0.102810390               0.000000000              -0.106444663              -0.127634741               0.000000000              -0.128515018              -0.152459092               0.000000000              -0.150585374              -0.177283442               0.000000000              -0.172655730              -0.202107793               0.000000000              -0.194726086              -0.226932143               0.000000000              -0.216796442              -0.251756494               0.000000000              -0.238866798              -0.276580845               0.000000000              -0.260937153              -0.301405195               0.000000000              -0.283007509              -0.326229546               0.000000000              -0.305077865              -0.351053896               0.000000000              -0.327148221              -0.375878247               0.000000000              -0.349218577              -0.400702598               0.000000000              -0.371288933              -0.425526948               0.000000000              -0.393359288              -0.450351299               0.000000000              -0.415429644              -0.475175649               0.000000000              -0.437500000              -0.500000000               0.000000000              -0.073890841              -0.110585458               0.000000000              -0.092710163              -0.134923867               0.000000000              -0.111529486              -0.159262276               0.000000000              -0.130348808              -0.183600685               0.000000000              -0.149168131              -0.207939094               0.000000000              -0.167987453              -0.232277503               0.000000000              -0.186806776              -0.256615912               0.000000000              -0.205626098              -0.280954320               0.000000000              -0.224445420              -0.305292729               0.000000000              -0.243264743              -0.329631138               0.000000000              -0.262084065              -0.353969547               0.000000000              -0.280903388              -0.378307956               0.000000000              -0.299722710              -0.402646365               0.000000000              -0.318542033              -0.426984773               0.000000000              -0.337361355              -0.451323182               0.000000000              -0.356180678              -0.475661591               0.000000000              -0.375000000              -0.500000000               0.000000000              -0.062695766              -0.117295528               0.000000000              -0.078308531              -0.141214558               0.000000000              -0.093921295              -0.165133587               0.000000000              -0.109534060              -0.189052617               0.000000000              -0.125146824              -0.212971646               0.000000000              -0.140759589              -0.236890676               0.000000000              -0.156372354              -0.260809705               0.000000000              -0.171985118              -0.284728735               0.000000000              -0.187597883              -0.308647764               0.000000000              -0.203210648              -0.332566794               0.000000000              -0.218823412              -0.356485823               0.000000000              -0.234436177              -0.380404853               0.000000000              -0.250048941              -0.404323882               0.000000000              -0.265661706              -0.428242912               0.000000000              -0.281274471              -0.452161941               0.000000000              -0.296887235              -0.476080971               0.000000000              -0.312500000              -0.500000000               0.000000000              -0.050896897              -0.122875978               0.000000000              -0.063340840              -0.146446229               0.000000000              -0.075784784              -0.170016481               0.000000000              -0.088228728              -0.193586732               0.000000000              -0.100672672              -0.217156983               0.000000000              -0.113116616              -0.240727235               0.000000000              -0.125560560              -0.264297486               0.000000000              -0.138004504              -0.287867738               0.000000000              -0.150448448              -0.311437989               0.000000000              -0.162892392              -0.335008240               0.000000000              -0.175336336              -0.358578492               0.000000000              -0.187780280              -0.382148743               0.000000000              -0.200224224              -0.405718994               0.000000000              -0.212668168              -0.429289246               0.000000000              -0.225112112              -0.452859497               0.000000000              -0.237556056              -0.476429749               0.000000000              -0.250000000              -0.500000000               0.000000000              -0.038607862              -0.127273065               0.000000000              -0.047913621              -0.150568498               0.000000000              -0.057219379              -0.173863932               0.000000000              -0.066525138              -0.197159365               0.000000000              -0.075830897              -0.220454798               0.000000000              -0.085136655              -0.243750232               0.000000000              -0.094442414              -0.267045665               0.000000000              -0.103748172              -0.290341099               0.000000000              -0.113053931              -0.313636532               0.000000000              -0.122359690              -0.336931966               0.000000000              -0.131665448              -0.360227399               0.000000000              -0.140971207              -0.383522833               0.000000000              -0.150276966              -0.406818266               0.000000000              -0.159582724              -0.430113700               0.000000000              -0.168888483              -0.453409133               0.000000000              -0.178194241              -0.476704567               0.000000000              -0.187500000              -0.500000000               0.000000000              -0.025947013              -0.130444442               0.000000000              -0.032137825              -0.153541665               0.000000000              -0.038328636              -0.176638887               0.000000000              -0.044519448              -0.199736109               0.000000000              -0.050710260              -0.222833332               0.000000000              -0.056901071              -0.245930554               0.000000000              -0.063091883              -0.269027776               0.000000000              -0.069282695              -0.292124999               0.000000000              -0.075473506              -0.315222221               0.000000000              -0.081664318              -0.338319444               0.000000000              -0.087855130              -0.361416666               0.000000000              -0.094045942              -0.384513888               0.000000000              -0.100236753              -0.407611111               0.000000000              -0.106427565              -0.430708333               0.000000000              -0.112618377              -0.453805555               0.000000000              -0.118809188              -0.476902778               0.000000000              -0.125000000              -0.500000000               0.000000000              -0.013036280              -0.132359569               0.000000000              -0.016127762              -0.155337096               0.000000000              -0.019219245              -0.178314623               0.000000000              -0.022310727              -0.201292150               0.000000000              -0.025402210              -0.224269676               0.000000000              -0.028493692              -0.247247203               0.000000000              -0.031585175              -0.270224730               0.000000000              -0.034676657              -0.293202257               0.000000000              -0.037768140              -0.316179784               0.000000000              -0.040859622              -0.339157311               0.000000000              -0.043951105              -0.362134838               0.000000000              -0.047042587              -0.385112365               0.000000000              -0.050134070              -0.408089892               0.000000000              -0.053225552              -0.431067419               0.000000000              -0.056317035              -0.454044946               0.000000000              -0.059408517              -0.477022473               0.000000000              -0.062500000              -0.500000000               0.000000000               0.000000000              -0.133000000               0.000000000               0.000000000              -0.155937500               0.000000000               0.000000000              -0.178875000               0.000000000               0.000000000              -0.201812500               0.000000000               0.000000000              -0.224750000               0.000000000               0.000000000              -0.247687500               0.000000000               0.000000000              -0.270625000               0.000000000               0.000000000              -0.293562500               0.000000000               0.000000000              -0.316500000               0.000000000               0.000000000              -0.339437500               0.000000000               0.000000000              -0.362375000               0.000000000               0.000000000              -0.385312500               0.000000000               0.000000000              -0.408250000               0.000000000               0.000000000              -0.431187500               0.000000000               0.000000000              -0.454125000               0.000000000               0.000000000              -0.477062500               0.000000000               0.000000000              -0.500000000               0.000000000              -0.133000000               0.000000000               0.000000000              -0.155937500               0.000000000               0.000000000              -0.178875000               0.000000000               0.000000000              -0.201812500               0.000000000               0.000000000              -0.224750000               0.000000000               0.000000000              -0.247687500               0.000000000               0.000000000              -0.270625000               0.000000000               0.000000000              -0.293562500               0.000000000               0.000000000              -0.316500000               0.000000000               0.000000000              -0.339437500               0.000000000               0.000000000              -0.362375000               0.000000000               0.000000000              -0.385312500               0.000000000               0.000000000              -0.408250000               0.000000000               0.000000000              -0.431187500               0.000000000               0.000000000              -0.454125000               0.000000000               0.000000000              -0.477062500               0.000000000               0.000000000              -0.500000000               0.000000000               0.000000000              -0.132359569               0.013036280               0.000000000              -0.155337096               0.016127762               0.000000000              -0.178314623               0.019219245               0.000000000              -0.201292150               0.022310727               0.000000000              -0.224269676               0.025402210               0.000000000              -0.247247203               0.028493692               0.000000000              -0.270224730               0.031585175               0.000000000              -0.293202257               0.034676657               0.000000000              -0.316179784               0.037768140               0.000000000              -0.339157311               0.040859622               0.000000000              -0.362134838               0.043951105               0.000000000              -0.385112365               0.047042587               0.000000000              -0.408089892               0.050134070               0.000000000              -0.431067419               0.053225552               0.000000000              -0.454044946               0.056317035               0.000000000              -0.477022473               0.059408517               0.000000000              -0.500000000               0.062500000               0.000000000              -0.130444442               0.025947013               0.000000000              -0.153541665               0.032137825               0.000000000              -0.176638887               0.038328636               0.000000000              -0.199736109               0.044519448               0.000000000              -0.222833332               0.050710260               0.000000000              -0.245930554               0.056901071               0.000000000              -0.269027776               0.063091883               0.000000000              -0.292124999               0.069282695               0.000000000              -0.315222221               0.075473506               0.000000000              -0.338319444               0.081664318               0.000000000              -0.361416666               0.087855130               0.000000000              -0.384513888               0.094045942               0.000000000              -0.407611111               0.100236753               0.000000000              -0.430708333               0.106427565               0.000000000              -0.453805555               0.112618377               0.000000000              -0.476902778               0.118809188               0.000000000              -0.500000000               0.125000000               0.000000000              -0.127273065               0.038607862               0.000000000              -0.150568498               0.047913621               0.000000000              -0.173863932               0.057219379               0.000000000              -0.197159365               0.066525138               0.000000000              -0.220454798               0.075830897               0.000000000              -0.243750232               0.085136655               0.000000000              -0.267045665               0.094442414               0.000000000              -0.290341099               0.103748172               0.000000000              -0.313636532               0.113053931               0.000000000              -0.336931966               0.122359690               0.000000000              -0.360227399               0.131665448               0.000000000              -0.383522833               0.140971207               0.000000000              -0.406818266               0.150276966               0.000000000              -0.430113700               0.159582724               0.000000000              -0.453409133               0.168888483               0.000000000              -0.476704567               0.178194241               0.000000000              -0.500000000               0.187500000               0.000000000              -0.122875978               0.050896897               0.000000000              -0.146446229               0.063340840               0.000000000              -0.170016481               0.075784784               0.000000000              -0.193586732               0.088228728               0.000000000              -0.217156983               0.100672672               0.000000000              -0.240727235               0.113116616               0.000000000              -0.264297486               0.125560560               0.000000000              -0.287867738               0.138004504               0.000000000              -0.311437989               0.150448448               0.000000000              -0.335008240               0.162892392               0.000000000              -0.358578492               0.175336336               0.000000000              -0.382148743               0.187780280               0.000000000              -0.405718994               0.200224224               0.000000000              -0.429289246               0.212668168               0.000000000              -0.452859497               0.225112112               0.000000000              -0.476429749               0.237556056               0.000000000              -0.500000000               0.250000000               0.000000000              -0.117295528               0.062695766               0.000000000              -0.141214558               0.078308531               0.000000000              -0.165133587               0.093921295               0.000000000              -0.189052617               0.109534060               0.000000000              -0.212971646               0.125146824               0.000000000              -0.236890676               0.140759589               0.000000000              -0.260809705               0.156372354               0.000000000              -0.284728735               0.171985118               0.000000000              -0.308647764               0.187597883               0.000000000              -0.332566794               0.203210648               0.000000000              -0.356485823               0.218823412               0.000000000              -0.380404853               0.234436177               0.000000000              -0.404323882               0.250048941               0.000000000              -0.428242912               0.265661706               0.000000000              -0.452161941               0.281274471               0.000000000              -0.476080971               0.296887235               0.000000000              -0.500000000               0.312500000               0.000000000              -0.110585458               0.073890841               0.000000000              -0.134923867               0.092710163               0.000000000              -0.159262276               0.111529486               0.000000000              -0.183600685               0.130348808               0.000000000              -0.207939094               0.149168131               0.000000000              -0.232277503               0.167987453               0.000000000              -0.256615912               0.186806776               0.000000000              -0.280954320               0.205626098               0.000000000              -0.305292729               0.224445420               0.000000000              -0.329631138               0.243264743               0.000000000              -0.353969547               0.262084065               0.000000000              -0.378307956               0.280903388               0.000000000              -0.402646365               0.299722710               0.000000000              -0.426984773               0.318542033               0.000000000              -0.451323182               0.337361355               0.000000000              -0.475661591               0.356180678               0.000000000              -0.500000000               0.375000000               0.000000000              -0.102810390               0.084374307               0.000000000              -0.127634741               0.106444663               0.000000000              -0.152459092               0.128515018               0.000000000              -0.177283442               0.150585374               0.000000000              -0.202107793               0.172655730               0.000000000              -0.226932143               0.194726086               0.000000000              -0.251756494               0.216796442               0.000000000              -0.276580845               0.238866798               0.000000000              -0.301405195               0.260937153               0.000000000              -0.326229546               0.283007509               0.000000000              -0.351053896               0.305077865               0.000000000              -0.375878247               0.327148221               0.000000000              -0.400702598               0.349218577               0.000000000              -0.425526948               0.371288933               0.000000000              -0.450351299               0.393359288               0.000000000              -0.475175649               0.415429644               0.000000000              -0.500000000               0.437500000               0.000000000              -0.094045202               0.094045202               0.000000000              -0.119417377               0.119417377               0.000000000              -0.144789552               0.144789552               0.000000000              -0.170161727               0.170161727               0.000000000              -0.195533901               0.195533901               0.000000000              -0.220906076               0.220906076               0.000000000              -0.246278251               0.246278251               0.000000000              -0.271650426               0.271650426               0.000000000              -0.297022601               0.297022601               0.000000000              -0.322394776               0.322394776               0.000000000              -0.347766951               0.347766951               0.000000000              -0.373139126               0.373139126               0.000000000              -0.398511300               0.398511300               0.000000000              -0.423883475               0.423883475               0.000000000              -0.449255650               0.449255650               0.000000000              -0.474627825               0.474627825               0.000000000              -0.500000000               0.500000000               0.000000000              -0.084374307               0.102810390               0.000000000              -0.106444663               0.127634741               0.000000000              -0.128515018               0.152459092               0.000000000              -0.150585374               0.177283442               0.000000000              -0.172655730               0.202107793               0.000000000              -0.194726086               0.226932143               0.000000000              -0.216796442               0.251756494               0.000000000              -0.238866798               0.276580845               0.000000000              -0.260937153               0.301405195               0.000000000              -0.283007509               0.326229546               0.000000000              -0.305077865               0.351053896               0.000000000              -0.327148221               0.375878247               0.000000000              -0.349218577               0.400702598               0.000000000              -0.371288933               0.425526948               0.000000000              -0.393359288               0.450351299               0.000000000              -0.415429644               0.475175649               0.000000000              -0.437500000               0.500000000               0.000000000              -0.073890841               0.110585458               0.000000000              -0.092710163               0.134923867               0.000000000              -0.111529486               0.159262276               0.000000000              -0.130348808               0.183600685               0.000000000              -0.149168131               0.207939094               0.000000000              -0.167987453               0.232277503               0.000000000              -0.186806776               0.256615912               0.000000000              -0.205626098               0.280954320               0.000000000              -0.224445420               0.305292729               0.000000000              -0.243264743               0.329631138               0.000000000              -0.262084065               0.353969547               0.000000000              -0.280903388               0.378307956               0.000000000              -0.299722710               0.402646365               0.000000000              -0.318542033               0.426984773               0.000000000              -0.337361355               0.451323182               0.000000000              -0.356180678               0.475661591               0.000000000              -0.375000000               0.500000000               0.000000000              -0.062695766               0.117295528               0.000000000              -0.078308531               0.141214558               0.000000000              -0.093921295               0.165133587               0.000000000              -0.109534060               0.189052617               0.000000000              -0.125146824               0.212971646               0.000000000              -0.140759589               0.236890676               0.000000000              -0.156372354               0.260809705               0.000000000              -0.171985118               0.284728735               0.000000000              -0.187597883               0.308647764               0.000000000              -0.203210648               0.332566794               0.000000000              -0.218823412               0.356485823               0.000000000              -0.234436177               0.380404853               0.000000000              -0.250048941               0.404323882               0.000000000              -0.265661706               0.428242912               0.000000000              -0.281274471               0.452161941               0.000000000              -0.296887235               0.476080971               0.000000000              -0.312500000               0.500000000               0.000000000              -0.050896897               0.122875978               0.000000000              -0.063340840               0.146446229               0.000000000              -0.075784784               0.170016481               0.000000000              -0.088228728               0.193586732               0.000000000              -0.100672672               0.217156983               0.000000000              -0.113116616               0.240727235               0.000000000              -0.125560560               0.264297486               0.000000000              -0.138004504               0.287867738               0.000000000              -0.150448448               0.311437989               0.000000000              -0.162892392               0.335008240               0.000000000              -0.175336336               0.358578492               0.000000000              -0.187780280               0.382148743               0.000000000              -0.200224224               0.405718994               0.000000000              -0.212668168               0.429289246               0.000000000              -0.225112112               0.452859497               0.000000000              -0.237556056               0.476429749               0.000000000              -0.250000000               0.500000000               0.000000000              -0.038607862               0.127273065               0.000000000              -0.047913621               0.150568498               0.000000000              -0.057219379               0.173863932               0.000000000              -0.066525138               0.197159365               0.000000000              -0.075830897               0.220454798               0.000000000              -0.085136655               0.243750232               0.000000000              -0.094442414               0.267045665               0.000000000              -0.103748172               0.290341099               0.000000000              -0.113053931               0.313636532               0.000000000              -0.122359690               0.336931966               0.000000000              -0.131665448               0.360227399               0.000000000              -0.140971207               0.383522833               0.000000000              -0.150276966               0.406818266               0.000000000              -0.159582724               0.430113700               0.000000000              -0.168888483               0.453409133               0.000000000              -0.178194241               0.476704567               0.000000000              -0.187500000               0.500000000               0.000000000              -0.025947013               0.130444442               0.000000000              -0.032137825               0.153541665               0.000000000              -0.038328636               0.176638887               0.000000000              -0.044519448               0.199736109               0.000000000              -0.050710260               0.222833332               0.000000000              -0.056901071               0.245930554               0.000000000              -0.063091883               0.269027776               0.000000000              -0.069282695               0.292124999               0.000000000              -0.075473506               0.315222221               0.000000000              -0.081664318               0.338319444               0.000000000              -0.087855130               0.361416666               0.000000000              -0.094045942               0.384513888               0.000000000              -0.100236753               0.407611111               0.000000000              -0.106427565               0.430708333               0.000000000              -0.112618377               0.453805555               0.000000000              -0.118809188               0.476902778               0.000000000              -0.125000000               0.500000000               0.000000000              -0.013036280               0.132359569               0.000000000              -0.016127762               0.155337096               0.000000000              -0.019219245               0.178314623               0.000000000              -0.022310727               0.201292150               0.000000000              -0.025402210               0.224269676               0.000000000              -0.028493692               0.247247203               0.000000000              -0.031585175               0.270224730               0.000000000              -0.034676657               0.293202257               0.000000000              -0.037768140               0.316179784               0.000000000              -0.040859622               0.339157311               0.000000000              -0.043951105               0.362134838               0.000000000              -0.047042587               0.385112365               0.000000000              -0.050134070               0.408089892               0.000000000              -0.053225552               0.431067419               0.000000000              -0.056317035               0.454044946               0.000000000              -0.059408517               0.477022473               0.000000000              -0.062500000               0.500000000               0.000000000               0.000000000               0.133000000               0.000000000               0.000000000               0.155937500               0.000000000               0.000000000               0.178875000               0.000000000               0.000000000               0.201812500               0.000000000               0.000000000               0.224750000               0.000000000               0.000000000               0.247687500               0.000000000               0.000000000               0.270625000               0.000000000               0.000000000               0.293562500               0.000000000               0.000000000               0.316500000               0.000000000               0.000000000               0.339437500               0.000000000               0.000000000               0.362375000               0.000000000               0.000000000               0.385312500               0.000000000               0.000000000               0.408250000               0.000000000               0.000000000               0.431187500               0.000000000               0.000000000               0.454125000               0.000000000               0.000000000               0.477062500               0.000000000               0.000000000               0.500000000               0.000000000 </DataArray>
</Points>
<Cells>
<DataArray type="Int32"                                    Name="connectivity"                                                      NumberOfComponents=" 1" format="ascii">
         0          1         18         17          1          2         19         18          2          3         20         19          3          4         21         20          4          5         22         21          5          6         23         22          6          7         24         23          7          8         25         24          8          9         26         25          9         10         27         26         10         11         28         27         11         12         29         28         12         13         30         29         13         14         31         30         14         15         32         31         15         16         33         32         17         18         35         34         18         19         36         35         19         20         37         36         20         21         38         37         21         22         39         38         22         23         40         39         23         24         41         40         24         25         42         41         25         26         43         42         26         27         44         43         27         28         45         44         28         29         46         45         29         30         47         46         30         31         48         47         31         32         49         48         32         33         50         49         34         35         52         51         35         36         53         52         36         37         54         53         37         38         55         54         38         39         56         55         39         40         57         56         40         41         58         57         41         42         59         58         42         43         60         59         43         44         61         60         44         45         62         61         45         46         63         62         46         47         64         63         47         48         65         64         48         49         66         65         49         50         67         66         51         52         69         68         52         53         70         69         53         54         71         70         54         55         72         71         55         56         73         72         56         57         74         73         57         58         75         74         58         59         76         75         59         60         77         76         60         61         78         77         61         62         79         78         62         63         80         79         63         64         81         80         64         65         82         81         65         66         83         82         66         67         84         83         68         69         86         85         69         70         87         86         70         71         88         87         71         72         89         88         72         73         90         89         73         74         91         90         74         75         92         91         75         76         93         92         76         77         94         93         77         78         95         94         78         79         96         95         79         80         97         96         80         81         98         97         81         82         99         98         82         83        100         99         83         84        101        100         85         86        103        102         86         87        104        103         87         88        105        104         88         89        106        105         89         90        107        106         90         91        108        107         91         92        109        108         92         93        110        109         93         94        111        110         94         95        112        111         95         96        113        112         96         97        114        113         97         98        115        114         98         99        116        115         99        100        117        116        100        101        118        117        102        103        120        119        103        104        121        120        104        105        122        121        105        106        123        122        106        107        124        123        107        108        125        124        108        109        126        125        109        110        127        126        110        111        128        127        111        112        129        128        112        113        130        129        113        114        131        130        114        115        132        131        115        116        133        132        116        117        134        133        117        118        135        134        119        120        137        136        120        121        138        137        121        122        139        138        122        123        140        139        123        124        141        140        124        125        142        141        125        126        143        142        126        127        144        143        127        128        145        144        128        129        146        145        129        130        147        146        130        131        148        147        131        132        149        148        132        133        150        149        133        134        151        150        134        135        152        151        136        137        154        153        137        138        155        154        138        139        156        155        139        140        157        156        140        141        158        157        141        142        159        158        142        143        160        159        143        144        161        160        144        145        162        161        145        146        163        162        146        147        164        163        147        148        165        164        148        149        166        165        149        150        167        166        150        151        168        167        151        152        169        168        153        154        171        170        154        155        172        171        155        156        173        172        156        157        174        173        157        158        175        174        158        159        176        175        159        160        177        176        160        161        178        177        161        162        179        178        162        163        180        179        163        164        181        180        164        165        182        181        165        166        183        182        166        167        184        183        167        168        185        184        168        169        186        185        170        171        188        187        171        172        189        188        172        173        190        189        173        174        191        190        174        175        192        191        175        176        193        192        176        177        194        193        177        178        195        194        178        179        196        195        179        180        197        196        180        181        198        197        181        182        199        198        182        183        200        199        183        184        201        200        184        185        202        201        185        186        203        202        187        188        205        204        188        189        206        205        189        190        207        206        190        191        208        207        191        192        209        208        192        193        210        209        193        194        211        210        194        195        212        211        195        196        213        212        196        197        214        213        197        198        215        214        198        199        216        215        199        200        217        216        200        201        218        217        201        202        219        218        202        203        220        219        204        205        222        221        205        206        223        222        206        207        224        223        207        208        225        224        208        209        226        225        209        210        227        226        210        211        228        227        211        212        229        228        212        213        230        229        213        214        231        230        214        215        232        231        215        216        233        232        216        217        234        233        217        218        235        234        218        219        236        235        219        220        237        236        221        222        239        238        222        223        240        239        223        224        241        240        224        225        242        241        225        226        243        242        226        227        244        243        227        228        245        244        228        229        246        245        229        230        247        246        230        231        248        247        231        232        249        248        232        233        250        249        233        234        251        250        234        235        252        251        235        236        253        252        236        237        254        253        238        239        256        255        239        240        257        256        240        241        258        257        241        242        259        258        242        243        260        259        243        244        261        260        244        245        262        261        245        246        263        262        246        247        264        263        247        248        265        264        248        249        266        265        249        250        267        266        250        251        268        267        251        252        269        268        252        253        270        269        253        254        271        270        255        256        273        272        256        257        274        273        257        258        275        274        258        259        276        275        259        260        277        276        260        261        278        277        261        262        279        278        262        263        280        279        263        264        281        280        264        265        282        281        265        266        283        282        266        267        284        283        267        268        285        284        268        269        286        285        269        270        287        286        270        271        288        287        306        307          1          0        307        308          2          1        308        309          3          2        309        310          4          3        310        311          5          4        311        312          6          5        312        313          7          6        313        314          8          7        314        315          9          8        315        316         10          9        316        317         11         10        317        318         12         11        318        319         13         12        319        320         14         13        320        321         15         14        321        322         16         15        323        324        307        306        324        325        308        307        325        326        309        308        326        327        310        309        327        328        311        310        328        329        312        311        329        330        313        312        330        331        314        313        331        332        315        314        332        333        316        315        333        334        317        316        334        335        318        317        335        336        319        318        336        337        320        319        337        338        321        320        338        339        322        321        340        341        324        323        341        342        325        324        342        343        326        325        343        344        327        326        344        345        328        327        345        346        329        328        346        347        330        329        347        348        331        330        348        349        332        331        349        350        333        332        350        351        334        333        351        352        335        334        352        353        336        335        353        354        337        336        354        355        338        337        355        356        339        338        357        358        341        340        358        359        342        341        359        360        343        342        360        361        344        343        361        362        345        344        362        363        346        345        363        364        347        346        364        365        348        347        365        366        349        348        366        367        350        349        367        368        351        350        368        369        352        351        369        370        353        352        370        371        354        353        371        372        355        354        372        373        356        355        374        375        358        357        375        376        359        358        376        377        360        359        377        378        361        360        378        379        362        361        379        380        363        362        380        381        364        363        381        382        365        364        382        383        366        365        383        384        367        366        384        385        368        367        385        386        369        368        386        387        370        369        387        388        371        370        388        389        372        371        389        390        373        372        391        392        375        374        392        393        376        375        393        394        377        376        394        395        378        377        395        396        379        378        396        397        380        379        397        398        381        380        398        399        382        381        399        400        383        382        400        401        384        383        401        402        385        384        402        403        386        385        403        404        387        386        404        405        388        387        405        406        389        388        406        407        390        389        408        409        392        391        409        410        393        392        410        411        394        393        411        412        395        394        412        413        396        395        413        414        397        396        414        415        398        397        415        416        399        398        416        417        400        399        417        418        401        400        418        419        402        401        419        420        403        402        420        421        404        403        421        422        405        404        422        423        406        405        423        424        407        406        425        426        409        408        426        427        410        409        427        428        411        410        428        429        412        411        429        430        413        412        430        431        414        413        431        432        415        414        432        433        416        415        433        434        417        416        434        435        418        417        435        436        419        418        436        437        420        419        437        438        421        420        438        439        422        421        439        440        423        422        440        441        424        423        442        443        426        425        443        444        427        426        444        445        428        427        445        446        429        428        446        447        430        429        447        448        431        430        448        449        432        431        449        450        433        432        450        451        434        433        451        452        435        434        452        453        436        435        453        454        437        436        454        455        438        437        455        456        439        438        456        457        440        439        457        458        441        440        459        460        443        442        460        461        444        443        461        462        445        444        462        463        446        445        463        464        447        446        464        465        448        447        465        466        449        448        466        467        450        449        467        468        451        450        468        469        452        451        469        470        453        452        470        471        454        453        471        472        455        454        472        473        456        455        473        474        457        456        474        475        458        457        476        477        460        459        477        478        461        460        478        479        462        461        479        480        463        462        480        481        464        463        481        482        465        464        482        483        466        465        483        484        467        466        484        485        468        467        485        486        469        468        486        487        470        469        487        488        471        470        488        489        472        471        489        490        473        472        490        491        474        473        491        492        475        474        493        494        477        476        494        495        478        477        495        496        479        478        496        497        480        479        497        498        481        480        498        499        482        481        499        500        483        482        500        501        484        483        501        502        485        484        502        503        486        485        503        504        487        486        504        505        488        487        505        506        489        488        506        507        490        489        507        508        491        490        508        509        492        491        510        511        494        493        511        512        495        494        512        513        496        495        513        514        497        496        514        515        498        497        515        516        499        498        516        517        500        499        517        518        501        500        518        519        502        501        519        520        503        502        520        521        504        503        521        522        505        504        522        523        506        505        523        524        507        506        524        525        508        507        525        526        509        508        527        528        511        510        528        529        512        511        529        530        513        512        530        531        514        513        531        532        515        514        532        533        516        515        533        534        517        516        534        535        518        517        535        536        519        518        536        537        520        519        537        538        521        520        538        539        522        521        539        540        523        522        540        541        524        523        541        542        525        524        542        543        526        525        544        545        528        527        545        546        529        528        546        547        530        529        547        548        531        530        548        549        532        531        549        550        533        532        550        551        534        533        551        552        535        534        552        553        536        535        553        554        537        536        554        555        538        537        555        556        539        538        556        557        540        539        557        558        541        540        558        559        542        541        559        560        543        542        561        562        545        544        562        563        546        545        563        564        547        546        564        565        548        547        565        566        549        548        566        567        550        549        567        568        551        550        568        569        552        551        569        570        553        552        570        571        554        553        571        572        555        554        572        573        556        555        573        574        557        556        574        575        558        557        575        576        559        558        576        577        560        559        578        579        596        595        579        580        597        596        580        581        598        597        581        582        599        598        582        583        600        599        583        584        601        600        584        585        602        601        585        586        603        602        586        587        604        603        587        588        605        604        588        589        606        605        589        590        607        606        590        591        608        607        591        592        609        608        592        593        610        609        593        594        611        610        595        596        613        612        596        597        614        613        597        598        615        614        598        599        616        615        599        600        617        616        600        601        618        617        601        602        619        618        602        603        620        619        603        604        621        620        604        605        622        621        605        606        623        622        606        607        624        623        607        608        625        624        608        609        626        625        609        610        627        626        610        611        628        627        612        613        630        629        613        614        631        630        614        615        632        631        615        616        633        632        616        617        634        633        617        618        635        634        618        619        636        635        619        620        637        636        620        621        638        637        621        622        639        638        622        623        640        639        623        624        641        640        624        625        642        641        625        626        643        642        626        627        644        643        627        628        645        644        629        630        647        646        630        631        648        647        631        632        649        648        632        633        650        649        633        634        651        650        634        635        652        651        635        636        653        652        636        637        654        653        637        638        655        654        638        639        656        655        639        640        657        656        640        641        658        657        641        642        659        658        642        643        660        659        643        644        661        660        644        645        662        661        646        647        664        663        647        648        665        664        648        649        666        665        649        650        667        666        650        651        668        667        651        652        669        668        652        653        670        669        653        654        671        670        654        655        672        671        655        656        673        672        656        657        674        673        657        658        675        674        658        659        676        675        659        660        677        676        660        661        678        677        661        662        679        678        663        664        681        680        664        665        682        681        665        666        683        682        666        667        684        683        667        668        685        684        668        669        686        685        669        670        687        686        670        671        688        687        671        672        689        688        672        673        690        689        673        674        691        690        674        675        692        691        675        676        693        692        676        677        694        693        677        678        695        694        678        679        696        695        680        681        698        697        681        682        699        698        682        683        700        699        683        684        701        700        684        685        702        701        685        686        703        702        686        687        704        703        687        688        705        704        688        689        706        705        689        690        707        706        690        691        708        707        691        692        709        708        692        693        710        709        693        694        711        710        694        695        712        711        695        696        713        712        697        698        715        714        698        699        716        715        699        700        717        716        700        701        718        717        701        702        719        718        702        703        720        719        703        704        721        720        704        705        722        721        705        706        723        722        706        707        724        723        707        708        725        724        708        709        726        725        709        710        727        726        710        711        728        727        711        712        729        728        712        713        730        729        714        715        732        731        715        716        733        732        716        717        734        733        717        718        735        734        718        719        736        735        719        720        737        736        720        721        738        737        721        722        739        738        722        723        740        739        723        724        741        740        724        725        742        741        725        726        743        742        726        727        744        743        727        728        745        744        728        729        746        745        729        730        747        746        731        732        749        748        732        733        750        749        733        734        751        750        734        735        752        751        735        736        753        752        736        737        754        753        737        738        755        754        738        739        756        755        739        740        757        756        740        741        758        757        741        742        759        758        742        743        760        759        743        744        761        760        744        745        762        761        745        746        763        762        746        747        764        763        748        749        766        765        749        750        767        766        750        751        768        767        751        752        769        768        752        753        770        769        753        754        771        770        754        755        772        771        755        756        773        772        756        757        774        773        757        758        775        774        758        759        776        775        759        760        777        776        760        761        778        777        761        762        779        778        762        763        780        779        763        764        781        780        765        766        783        782        766        767        784        783        767        768        785        784        768        769        786        785        769        770        787        786        770        771        788        787        771        772        789        788        772        773        790        789        773        774        791        790        774        775        792        791        775        776        793        792        776        777        794        793        777        778        795        794        778        779        796        795        779        780        797        796        780        781        798        797        782        783        800        799        783        784        801        800        784        785        802        801        785        786        803        802        786        787        804        803        787        788        805        804        788        789        806        805        789        790        807        806        790        791        808        807        791        792        809        808        792        793        810        809        793        794        811        810        794        795        812        811        795        796        813        812        796        797        814        813        797        798        815        814        799        800        817        816        800        801        818        817        801        802        819        818        802        803        820        819        803        804        821        820        804        805        822        821        805        806        823        822        806        807        824        823        807        808        825        824        808        809        826        825        809        810        827        826        810        811        828        827        811        812        829        828        812        813        830        829        813        814        831        830        814        815        832        831        816        817        834        833        817        818        835        834        818        819        836        835        819        820        837        836        820        821        838        837        821        822        839        838        822        823        840        839        823        824        841        840        824        825        842        841        825        826        843        842        826        827        844        843        827        828        845        844        828        829        846        845        829        830        847        846        830        831        848        847        831        832        849        848        833        834        562        561        834        835        563        562        835        836        564        563        836        837        565        564        837        838        566        565        838        839        567        566        839        840        568        567        840        841        569        568        841        842        570        569        842        843        571        570        843        844        572        571        844        845        573        572        845        846        574        573        846        847        575        574        847        848        576        575        848        849        577        576        884        885        579        578        885        886        580        579        886        887        581        580        887        888        582        581        888        889        583        582        889        890        584        583        890        891        585        584        891        892        586        585        892        893        587        586        893        894        588        587        894        895        589        588        895        896        590        589        896        897        591        590        897        898        592        591        898        899        593        592        899        900        594        593        901        902        885        884        902        903        886        885        903        904        887        886        904        905        888        887        905        906        889        888        906        907        890        889        907        908        891        890        908        909        892        891        909        910        893        892        910        911        894        893        911        912        895        894        912        913        896        895        913        914        897        896        914        915        898        897        915        916        899        898        916        917        900        899        918        919        902        901        919        920        903        902        920        921        904        903        921        922        905        904        922        923        906        905        923        924        907        906        924        925        908        907        925        926        909        908        926        927        910        909        927        928        911        910        928        929        912        911        929        930        913        912        930        931        914        913        931        932        915        914        932        933        916        915        933        934        917        916        935        936        919        918        936        937        920        919        937        938        921        920        938        939        922        921        939        940        923        922        940        941        924        923        941        942        925        924        942        943        926        925        943        944        927        926        944        945        928        927        945        946        929        928        946        947        930        929        947        948        931        930        948        949        932        931        949        950        933        932        950        951        934        933        952        953        936        935        953        954        937        936        954        955        938        937        955        956        939        938        956        957        940        939        957        958        941        940        958        959        942        941        959        960        943        942        960        961        944        943        961        962        945        944        962        963        946        945        963        964        947        946        964        965        948        947        965        966        949        948        966        967        950        949        967        968        951        950        969        970        953        952        970        971        954        953        971        972        955        954        972        973        956        955        973        974        957        956        974        975        958        957        975        976        959        958        976        977        960        959        977        978        961        960        978        979        962        961        979        980        963        962        980        981        964        963        981        982        965        964        982        983        966        965        983        984        967        966        984        985        968        967        986        987        970        969        987        988        971        970        988        989        972        971        989        990        973        972        990        991        974        973        991        992        975        974        992        993        976        975        993        994        977        976        994        995        978        977        995        996        979        978        996        997        980        979        997        998        981        980        998        999        982        981        999       1000        983        982       1000       1001        984        983       1001       1002        985        984       1003       1004        987        986       1004       1005        988        987       1005       1006        989        988       1006       1007        990        989       1007       1008        991        990       1008       1009        992        991       1009       1010        993        992       1010       1011        994        993       1011       1012        995        994       1012       1013        996        995       1013       1014        997        996       1014       1015        998        997       1015       1016        999        998       1016       1017       1000        999       1017       1018       1001       1000       1018       1019       1002       1001       1020       1021       1004       1003       1021       1022       1005       1004       1022       1023       1006       1005       1023       1024       1007       1006       1024       1025       1008       1007       1025       1026       1009       1008       1026       1027       1010       1009       1027       1028       1011       1010       1028       1029       1012       1011       1029       1030       1013       1012       1030       1031       1014       1013       1031       1032       1015       1014       1032       1033       1016       1015       1033       1034       1017       1016       1034       1035       1018       1017       1035       1036       1019       1018       1037       1038       1021       1020       1038       1039       1022       1021       1039       1040       1023       1022       1040       1041       1024       1023       1041       1042       1025       1024       1042       1043       1026       1025       1043       1044       1027       1026       1044       1045       1028       1027       1045       1046       1029       1028       1046       1047       1030       1029       1047       1048       1031       1030       1048       1049       1032       1031       1049       1050       1033       1032       1050       1051       1034       1033       1051       1052       1035       1034       1052       1053       1036       1035       1054       1055       1038       1037       1055       1056       1039       1038       1056       1057       1040       1039       1057       1058       1041       1040       1058       1059       1042       1041       1059       1060       1043       1042       1060       1061       1044       1043       1061       1062       1045       1044       1062       1063       1046       1045       1063       1064       1047       1046       1064       1065       1048       1047       1065       1066       1049       1048       1066       1067       1050       1049       1067       1068       1051       1050       1068       1069       1052       1051       1069       1070       1053       1052       1071       1072       1055       1054       1072       1073       1056       1055       1073       1074       1057       1056       1074       1075       1058       1057       1075       1076       1059       1058       1076       1077       1060       1059       1077       1078       1061       1060       1078       1079       1062       1061       1079       1080       1063       1062       1080       1081       1064       1063       1081       1082       1065       1064       1082       1083       1066       1065       1083       1084       1067       1066       1084       1085       1068       1067       1085       1086       1069       1068       1086       1087       1070       1069       1088       1089       1072       1071       1089       1090       1073       1072       1090       1091       1074       1073       1091       1092       1075       1074       1092       1093       1076       1075       1093       1094       1077       1076       1094       1095       1078       1077       1095       1096       1079       1078       1096       1097       1080       1079       1097       1098       1081       1080       1098       1099       1082       1081       1099       1100       1083       1082       1100       1101       1084       1083       1101       1102       1085       1084       1102       1103       1086       1085       1103       1104       1087       1086       1105       1106       1089       1088       1106       1107       1090       1089       1107       1108       1091       1090       1108       1109       1092       1091       1109       1110       1093       1092       1110       1111       1094       1093       1111       1112       1095       1094       1112       1113       1096       1095       1113       1114       1097       1096       1114       1115       1098       1097       1115       1116       1099       1098       1116       1117       1100       1099       1117       1118       1101       1100       1118       1119       1102       1101       1119       1120       1103       1102       1120       1121       1104       1103       1122       1123       1106       1105       1123       1124       1107       1106       1124       1125       1108       1107       1125       1126       1109       1108       1126       1127       1110       1109       1127       1128       1111       1110       1128       1129       1112       1111       1129       1130       1113       1112       1130       1131       1114       1113       1131       1132       1115       1114       1132       1133       1116       1115       1133       1134       1117       1116       1134       1135       1118       1117       1135       1136       1119       1118       1136       1137       1120       1119       1137       1138       1121       1120        272        273       1123       1122        273        274       1124       1123        274        275       1125       1124        275        276       1126       1125        276        277       1127       1126        277        278       1128       1127        278        279       1129       1128        279        280       1130       1129        280        281       1131       1130        281        282       1132       1131        282        283       1133       1132        283        284       1134       1133        284        285       1135       1134        285        286       1136       1135        286        287       1137       1136        287        288       1138       1137 </DataArray>
<DataArray type="Int32"                                    Name="offsets"                                                      NumberOfComponents=" 1" format="ascii">
         4          8         12         16         20         24         28         32         36         40         44         48         52         56         60         64         68         72         76         80         84         88         92         96        100        104        108        112        116        120        124        128        132        136        140        144        148        152        156        160        164        168        172        176        180        184        188        192        196        200        204        208        212        216        220        224        228        232        236        240        244        248        252        256        260        264        268        272        276        280        284        288        292        296        300        304        308        312        316        320        324        328        332        336        340        344        348        352        356        360        364        368        372        376        380        384        388        392        396        400        404        408        412        416        420        424        428        432        436        440        444        448        452        456        460        464        468        472        476        480        484        488        492        496        500        504        508        512        516        520        524        528        532        536        540        544        548        552        556        560        564        568        572        576        580        584        588        592        596        600        604        608        612        616        620        624        628        632        636        640        644        648        652        656        660        664        668        672        676        680        684        688        692        696        700        704        708        712        716        720        724        728        732        736        740        744        748        752        756        760        764        768        772        776        780        784        788        792        796        800        804        808        812        816        820        824        828        832        836        840        844        848        852        856        860        864        868        872        876        880        884        888        892        896        900        904        908        912        916        920        924        928        932        936        940        944        948        952        956        960        964        968        972        976        980        984        988        992        996       1000       1004       1008       1012       1016       1020       1024       1028       1032       1036       1040       1044       1048       1052       1056       1060       1064       1068       1072       1076       1080       1084       1088       1092       1096       1100       1104       1108       1112       1116       1120       1124       1128       1132       1136       1140       1144       1148       1152       1156       1160       1164       1168       1172       1176       1180       1184       1188       1192       1196       1200       1204       1208       1212       1216       1220       1224       1228       1232       1236       1240       1244       1248       1252       1256       1260       1264       1268       1272       1276       1280       1284       1288       1292       1296       1300       1304       1308       1312       1316       1320       1324       1328       1332       1336       1340       1344       1348       1352       1356       1360       1364       1368       1372       1376       1380       1384       1388       1392       1396       1400       1404       1408       1412       1416       1420       1424       1428       1432       1436       1440       1444       1448       1452       1456       1460       1464       1468       1472       1476       1480       1484       1488       1492       1496       1500       1504       1508       1512       1516       1520       1524       1528       1532       1536       1540       1544       1548       1552       1556       1560       1564       1568       1572       1576       1580       1584       1588       1592       1596       1600       1604       1608       1612       1616       1620       1624       1628       1632       1636       1640       1644       1648       1652       1656       1660       1664       1668       1672       1676       1680       1684       1688       1692       1696       1700       1704       1708       1712       1716       1720       1724       1728       1732       1736       1740       1744       1748       1752       1756       1760       1764       1768       1772       1776       1780       1784       1788       1792       1796       1800       1804       1808       1812       1816       1820       1824       1828       1832       1836       1840       1844       1848       1852       1856       1860       1864       1868       1872       1876       1880       1884       1888       1892       1896       1900       1904       1908       1912       1916       1920       1924       1928       1932       1936       1940       1944       1948       1952       1956       1960       1964       1968       1972       1976       1980       1984       1988       1992       1996       2000       2004       2008       2012       2016       2020       2024       2028       2032       2036       2040       2044       2048       2052       2056       2060       2064       2068       2072       2076       2080       2084       2088       2092       2096       2100       2104       2108       2112       2116       2120       2124       2128       2132       2136       2140       2144       2148       2152       2156       2160       2164       2168       2172       2176       2180       2184       2188       2192       2196       2200       2204       2208       2212       2216       2220       2224       2228       2232       2236       2240       2244       2248       2252       2256       2260       2264       2268       2272       2276       2280       2284       2288       2292       2296       2300       2304       2308       2312       2316       2320       2324       2328       2332       2336       2340       2344       2348       2352       2356       2360       2364       2368       2372       2376       2380       2384       2388       2392       2396       2400       2404       2408       2412       2416       2420       2424       2428       2432       2436       2440       2444       2448       2452       2456       2460       2464       2468       2472       2476       2480       2484       2488       2492       2496       2500       2504       2508       2512       2516       2520       2524       2528       2532       2536       2540       2544       2548       2552       2556       2560       2564       2568       2572       2576       2580       2584       2588       2592       2596       2600       2604       2608       2612       2616       2620       2624       2628       2632       2636       2640       2644       2648       2652       2656       2660       2664       2668       2672       2676       2680       2684       2688       2692       2696       2700       2704       2708       2712       2716       2720       2724       2728       2732       2736       2740       2744       2748       2752       2756       2760       2764       2768       2772       2776       2780       2784       2788       2792       2796       2800       2804       2808       2812       2816       2820       2824       2828       2832       2836       2840       2844       2848       2852       2856       2860       2864       2868       2872       2876       2880       2884       2888       2892       2896       2900       2904       2908       2912       2916       2920       2924       2928       2932       2936       2940       2944       2948       2952       2956       2960       2964       2968       2972       2976       2980       2984       2988       2992       2996       3000       3004       3008       3012       3016       3020       3024       3028       3032       3036       3040       3044       3048       3052       3056       3060       3064       3068       3072       3076       3080       3084       3088       3092       3096       3100       3104       3108       3112       3116       3120       3124       3128       3132       3136       3140       3144       3148       3152       3156       3160       3164       3168       3172       3176       3180       3184       3188       3192       3196       3200       3204       3208       3212       3216       3220       3224       3228       3232       3236       3240       3244       3248       3252       3256       3260       3264       3268       3272       3276       3280       3284       3288       3292       3296       3300       3304       3308       3312       3316       3320       3324       3328       3332       3336       3340       3344       3348       3352       3356       3360       3364       3368       3372       3376       3380       3384       3388       3392       3396       3400       3404       3408       3412       3416       3420       3424       3428       3432       3436       3440       3444       3448       3452       3456       3460       3464       3468       3472       3476       3480       3484       3488       3492       3496       3500       3504       3508       3512       3516       3520       3524       3528       3532       3536       3540       3544       3548       3552       3556       3560       3564       3568       3572       3576       3580       3584       3588       3592       3596       3600       3604       3608       3612       3616       3620       3624       3628       3632       3636       3640       3644       3648       3652       3656       3660       3664       3668       3672       3676       3680       3684       3688       3692       3696       3700       3704       3708       3712       3716       3720       3724       3728       3732       3736       3740       3744       3748       3752       3756       3760       3764       3768       3772       3776       3780       3784       3788       3792       3796       3800       3804       3808       3812       3816       3820       3824       3828       3832       3836       3840       3844       3848       3852       3856       3860       3864       3868       3872       3876       3880       3884       3888       3892       3896       3900       3904       3908       3912       3916       3920       3924       3928       3932       3936       3940       3944       3948       3952       3956       3960       3964       3968       3972       3976       3980       3984       3988       3992       3996       4000       4004       4008       4012       4016       4020       4024       4028       4032       4036       4040       4044       4048       4052       4056       4060       4064       4068       4072       4076       4080       4084       4088       4092       4096 </DataArray>
<DataArray type="UInt8"                                    Name="types"                                                      NumberOfComponents=" 1" format="ascii">
         9          9          9          9          9          9          9          9          9          9          9          9          9          9          9          9          9          9          9          9          9          9          9          9          9          9          9          9          9          9          9          9          9          9          9          9          9          9          9          9          9          9          9          9          9          9          9          9          9          9          9          9          9          9          9          9          9          9          9          9          9          9          9          9          9          9          9          9          9          9          9          9          9          9          9          9          9          9          9          9          9          9          9          9          9          9          9          9          9          9          9          9          9          9          9          9          9          9          9          9          9          9          9          9          9          9          9          9          9          9          9          9          9          9          9          9          9          9          9          9          9          9          9          9          9          9          9          9          9          9          9          9          9          9          9          9          9          9          9          9          9          9          9          9          9          9          9          9          9          9          9          9          9          9          9          9          9          9          9          9          9          9          9          9          9          9          9          9          9          9          9          9          9          9          9          9          9          9          9          9          9          9          9          9          9          9          9          9          9          9          9          9          9          9          9          9          9          9          9          9          9          9          9          9          9          9          9          9          9          9          9          9          9          9          9          9          9          9          9          9          9          9          9          9          9          9          9          9          9          9          9          9          9          9          9          9          9          9          9          9          9          9          9          9          9          9          9          9          9          9          9          9          9          9          9          9          9          9          9          9          9          9          9          9          9          9          9          9          9          9          9          9          9          9          9          9          9          9          9          9          9          9          9          9          9          9          9          9          9          9          9          9          9          9          9          9          9          9          9          9          9          9          9          9          9          9          9          9          9          9          9          9          9          9          9          9          9          9          9          9          9          9          9          9          9          9          9          9          9          9          9          9          9          9          9          9          9          9          9          9          9          9          9          9          9          9          9          9          9          9          9          9          9          9          9          9          9          9          9          9          9          9          9          9          9          9          9          9          9          9          9          9          9          9          9          9          9          9          9          9          9          9          9          9          9          9          9          9          9          9          9          9          9          9          9          9          9          9          9          9          9          9          9          9          9          9          9          9          9          9          9          9          9          9          9          9          9          9          9          9          9          9          9          9          9          9          9          9          9          9          9          9          9          9          9          9          9          9          9          9          9          9          9          9          9          9          9          9          9          9          9          9          9          9          9          9          9          9          9          9          9          9          9          9          9          9          9          9          9          9          9          9          9          9          9          9          9          9          9          9          9          9          9          9          9          9          9          9          9          9          9          9          9          9          9          9          9          9          9          9          9          9          9          9          9          9          9          9          9          9          9          9          9          9          9          9          9          9          9          9          9          9          9          9          9          9          9          9          9          9          9          9          9          9          9          9          9          9          9          9          9          9          9          9          9          9          9          9          9          9          9          9          9          9          9          9          9          9          9          9          9          9          9          9          9          9          9          9          9          9          9          9          9          9          9          9          9          9          9          9          9          9          9          9          9          9          9          9          9          9          9          9          9          9          9          9          9          9          9          9          9          9          9          9          9          9          9          9          9          9          9          9          9          9          9          9          9          9          9          9          9          9          9          9          9          9          9          9          9          9          9          9          9          9          9          9          9          9          9          9          9          9          9          9          9          9          9          9          9          9          9          9          9          9          9          9          9          9          9          9          9          9          9          9          9          9          9          9          9          9          9          9          9          9          9          9          9          9          9          9          9          9          9          9          9          9          9          9          9          9          9          9          9          9          9          9          9          9          9          9          9          9          9          9          9          9          9          9          9          9          9          9          9          9          9          9          9          9          9          9          9          9          9          9          9          9          9          9          9          9          9          9          9          9          9          9          9          9          9          9          9          9          9          9          9          9          9          9          9          9          9          9          9          9          9          9          9          9          9          9          9          9          9          9          9          9          9          9          9          9          9          9          9          9          9          9          9          9          9          9          9          9          9          9          9          9          9          9          9          9          9          9          9          9          9          9          9          9          9          9          9          9          9          9          9          9          9          9          9          9          9          9          9          9          9          9          9          9          9          9          9          9          9          9          9          9          9          9          9          9          9          9          9          9          9          9          9          9          9          9          9          9          9          9          9          9          9          9          9          9          9          9          9          9          9          9          9          9          9          9          9          9          9          9          9          9          9          9          9          9          9          9          9          9          9          9          9          9          9          9          9          9          9          9          9          9          9          9          9          9          9          9          9          9          9          9          9          9          9          9          9          9          9          9          9          9          9          9          9          9          9          9          9          9          9          9          9          9          9          9          9          9          9          9          9          9          9          9          9          9          9          9          9          9          9          9          9          9          9          9          9          9          9          9          9          9          9          9          9          9          9          9          9          9          9          9          9          9          9          9          9          9          9          9          9          9          9          9          9          9          9          9          9          9          9          9          9          9          9          9          9          9          9          9          9          9          9          9          9          9          9          9          9          9          9          9          9          9          9          9          9          9          9          9          9          9          9          9          9          9          9          9          9          9          9          9          9          9          9          9          9          9          9          9 </DataArray>
</Cells>
<CellData>
<DataArray type="Int32"                                    Name="material"                                                      NumberOfComponents=" 1" format="ascii">
         1          1          1          1          1          1          1          1          1          1          1          1          1          1          1          1          1          1          1          1          1          1          1          1          1          1          1          1          1          1          1          1          1          1          1          1          1          1          1          1          1          1          1          1          1          1          1          1          1          1          1          1          1          1          1          1          1          1          1          1          1          1          1          1          1          1          1          1          1          1          1          1          1          1          1          1          1          1          1          1          1          1          1          1          1          1          1          1          1          1          1          1          1          1          1          1          1          1          1          1          1          1          1          1          1          1          1          1          1          1          1          1          1          1          1          1          1          1          1          1          1          1          1          1          1          1          1          1          1          1          1          1          1          1          1          1          1          1          1          1          1          1          1          1          1          1          1          1          1          1          1          1          1          1          1          1          1          1          1          1          1          1          1          1          1          1          1          1          1          1          1          1          1          1          1          1          1          1          1          1          1          1          1          1          1          1          1          1          1          1          1          1          1          1          1          1          1          1          1          1          1          1          1          1          1          1          1          1          1          1          1          1          1          1          1          1          1          1          1          1          1          1          1          1          1          1          1          1          1          1          1          1          1          1          1          1          1          1          1          1          1          1          1          1          1          1          1          1          1          1          1          1          1          1          1          1          1          1          1          1          1          1          1          1          1          1          1          1          1          1          1          1          1          1          1          1          1          1          1          1          1          1          1          1          1          1          1          1          1          1          1          1          1          1          1          1          1          1          1          1          1          1          1          1          1          1          1          1          1          1          1          1          1          1          1          1          1          1          1          1          1          1          1          1          1          1          1          1          1          1          1          1          1          1          1          1          1          1          1          1          1          1          1          1          1          1          1          1          1          1          1          1          1          1          1          1          1          1          1          1          1          1          1          1          1          1          1          1          1          1          1          1          1          1          1          1          1          1          1          1          1          1          1          1          1          1          1          1          1          1          1          1          1          1          1          1          1          1          1          1          1          1          1          1          1          1          1          1          1          1          1          1          1          1          1          1          1          1          1          1          1          1          1          1          1          1          1          1          1          1          1          1          1          1          1          1          1          1          1          1          1          1          1          1          1          1          1          1          1          1          1          1          1          1          1          1          1          1          1          1          1          1          1          1          1          1          1          1          1          1          1          1          1          1          1          1          1          1          1          1          1          1          1          1          1          1          1          1          1          1          1          1          1          1          1          1          1          1          1          1          1          1          1          1          1          1          1          1          1          1          1          1          1          1          1          1          1          1          1          1          1          1          1          1          1          1          1          1          1          1          1          1          1          1          1          1          1          1          1          1          1          1          1          1          1          1          1          1          1          1          1          1          1          1          1          1          1          1          1          1          1          1          1          1          1          1          1          1          1          1          1          1          1          1          1          1          1          1          1          1          1          1          1          1          1          1          1          1          1          1          1          1          1          1          1          1          1          1          1          1          1          1          1          1          1          1          1          1          1          1          1          1          1          1          1          1          1          1          1          1          1          1          1          1          1          1          1          1          1          1          1          1          1          1          1          1          1          1          1          1          1          1          1          1          1          1          1          1          1          1          1          1          1          1          1          1          1          1          1          1          1          1          1          1          1          1          1          1          1          1          1          1          1          1          1          1          1          1          1          1          1          1          1          1          1          1          1          1          1          1          1          1          1          1          1          1          1          1          1          1          1          1          1          1          1          1          1          1          1          1          1          1          1          1          1          1          1          1          1          1          1          1          1          1          1          1          1          1          1          1          1          1          1          1          1          1          1          1          1          1          1          1          1          1          1          1          1          1          1          1          1          1          1          1          1          1          1          1          1          1          1          1          1          1          1          1          1          1          1          1          1          1          1          1          1          1          1          1          1          1          1          1          1          1          1          1          1          1          1          1          1          1          1          1          1          1          1          1          1          1          1          1          1          1          1          1          1          1          1          1          1          1          1          1          1          1          1          1          1          1          1          1          1          1          1          1          1          1          1          1          1          1          1          1          1          1          1          1          1          1          1          1          1          1          1          1          1          1          1          1          1          1          1          1          1          1          1          1          1          1          1          1          1          1          1          1          1          1          1          1          1          1          1          1          1          1          1          1          1          1          1          1          1          1          1          1          1          1          1          1          1          1          1          1          1          1          1          1          1          1          1          1          1          1          1          1          1          1          1          1          1          1          1          1          1          1          1          1          1          1          1          1          1          1          1          1          1          1          1          1          1          1          1          1          1          1          1          1          1          1          1          1          1          1          1          1          1          1          1          1          1          1          1          1          1          1          1          1          1          1          1          1          1          1          1          1          1          1          1          1          1          1          1          1          1          1          1          1          1          1          1          1          1          1          1          1          1          1          1          1          1          1          1          1          1          1          1          1          1          1          1          1          1          1          1          1          1          1          1          1          1          1          1          1          1          1          1          1          1          1          1          1          1          1 </DataArray>
</CellData>
<PointData>
<DataArray type="Float64"                                    Name="u"                                                      NumberOfComponents=" 3" format="ascii">
              0.000007798               0.000000000               0.999999999               0.000003204               0.000000000               0.999999999               0.000001007               0.000000000               0.999999999              -0.000000087               0.000000000               0.999999999              -0.000000669               0.000000000               0.999999999              -0.000000935               0.000000000               0.999999999              -0.000001036               0.000000000               0.999999999              -0.000001174               0.000000000               0.999999999              -0.000001433               0.000000000               0.999999999              -0.000001958               0.000000000               0.999999999              -0.000002854              -0.000000000               0.999999999              -0.000004087              -0.000000000               0.999999999              -0.000005664              -0.000000000               0.999999999              -0.000007654              -0.000000000               0.999999999              -0.000010151              -0.000000000               0.999999999              -0.000013224              -0.000000000               0.999999999              -0.000016870              -0.000000000               0.999999999               0.000007698               0.000011298               0.999999999               0.000003255               0.000010295               0.999999999               0.000001155               0.000010110               0.999999999               0.000000063               0.000010340               0.999999999              -0.000000530               0.000010836               0.999999999              -0.000000867               0.000011452               0.999999999              -0.000001121               0.000012301               0.999999999              -0.000001395               0.000013356               0.999999999              -0.000001862               0.000014730               0.999999999              -0.000002642               0.000016370               0.999999999              -0.000003736               0.000018136               0.999999999              -0.000005149               0.000019934               0.999999999              -0.000006966               0.000021947               0.999999999              -0.000009231               0.000024192               0.999999999              -0.000011928               0.000026574               0.999999999              -0.000015144               0.000029205               0.999999999              -0.000018941               0.000032137               0.999999999               0.000007492               0.000022486               0.999999999               0.000003461               0.000020467               0.999999999               0.000001557               0.000020128               0.999999999               0.000000511               0.000020664               0.999999999              -0.000000161               0.000021704               0.999999999              -0.000000723               0.000023093               0.999999999              -0.000001318               0.000024809               0.999999999              -0.000002055               0.000027030               0.999999999              -0.000003110               0.000029836               0.999999999              -0.000004485               0.000033044               0.999999999              -0.000006214               0.000036498               0.999999999              -0.000008268               0.000039999               0.999999999              -0.000010653               0.000043968               0.999999999              -0.000013475               0.000048300               0.999999999              -0.000016743               0.000052884               0.999999999              -0.000020490               0.000057880               0.999999999              -0.000024713               0.000063270               0.999999999               0.000007151               0.000033430               0.999999999               0.000003777               0.000030403               0.999999999               0.000002157               0.000029991               0.999999999               0.000001162               0.000030978               0.999999999               0.000000296               0.000032669               0.999999999              -0.000000602               0.000034920               0.999999999              -0.000001678               0.000037733               0.999999999              -0.000003132               0.000041232               0.999999999              -0.000004951               0.000045528               0.999999999              -0.000007170               0.000050294               0.999999999              -0.000009686               0.000055287               0.999999999              -0.000012488               0.000060465               0.999999999              -0.000015697               0.000066252               0.999999999              -0.000019286               0.000072488               0.999999999              -0.000023218               0.000079081               0.999999999              -0.000027533               0.000086161               0.999999999              -0.000032292               0.000093587               0.999999999               0.000006672               0.000044020               0.999999999               0.000004197               0.000039994               0.999999999               0.000002894               0.000039655               0.999999999               0.000001838               0.000041187               0.999999999               0.000000740               0.000043687               0.999999999              -0.000000573               0.000047012               0.999999999              -0.000002301               0.000051035               0.999999999              -0.000004486               0.000056081               0.999999999              -0.000007192               0.000061853               0.999999999              -0.000010259               0.000068218               0.999999999              -0.000013618               0.000074664               0.999999999              -0.000017296               0.000081513               0.999999999              -0.000021302               0.000089095               0.999999999              -0.000025664               0.000097174               0.999999999              -0.000030348               0.000105721               0.999999999              -0.000035485               0.000114824               0.999999999              -0.000041136               0.000124471               0.999999999               0.000006104               0.000054157               0.999999999               0.000004664               0.000049187               0.999999999               0.000003601               0.000049047               0.999999999               0.000002416               0.000051230               0.999999999               0.000000986               0.000054694               0.999999999              -0.000000845               0.000059185               0.999999999              -0.000003198               0.000064687               0.999999999              -0.000006179               0.000071334               0.999999999              -0.000009663               0.000078835               0.999999999              -0.000013534               0.000086704               0.999999999              -0.000017718               0.000094805               0.999999999              -0.000022186               0.000103507               0.999999999              -0.000027050               0.000112989               0.999999999              -0.000032368               0.000123083               0.999999999              -0.000038139               0.000133866               0.999999999              -0.000044380               0.000145308               0.999999999              -0.000051068               0.000157417               0.999999999               0.000005454               0.000063727               0.999999999               0.000005149               0.000057969               0.999999999               0.000004219               0.000058135               0.999999999               0.000002787               0.000061051               0.999999999               0.000000928               0.000065553               0.999999999              -0.000001439               0.000071357               0.999999999              -0.000004492               0.000078478               0.999999999              -0.000008223               0.000086910               0.999999999              -0.000012457               0.000096049               0.999999999              -0.000017020               0.000105732               0.999999999              -0.000021880               0.000115778               0.999999999              -0.000027139               0.000126714               0.999999999              -0.000032845               0.000138675               0.999999999              -0.000039050               0.000151389               0.999999999              -0.000045768               0.000164893               0.999999999              -0.000053022               0.000179189               0.999999999              -0.000060758               0.000194245               0.999999999               0.000004755               0.000072642               0.999999999               0.000005614               0.000066301               0.999999999               0.000004674               0.000066875               0.999999999               0.000002917               0.000070594               0.999999999               0.000000616               0.000076238               0.999999999              -0.000002353               0.000083461               0.999999999              -0.000006143               0.000092343               0.999999999              -0.000010630               0.000102524               0.999999999              -0.000015514               0.000113575               0.999999999              -0.000020636               0.000125311               0.999999999              -0.000026041               0.000137919               0.999999999              -0.000031861               0.000151774               0.999999999              -0.000038222               0.000166850               0.999999999              -0.000045223               0.000182789               0.999999999              -0.000052886               0.000199628               0.999999999              -0.000061120               0.000217441               0.999999999              -0.000069822               0.000236059               0.999999999               0.000003973               0.000080737               0.999999999               0.000006017               0.000074161               0.999999999               0.000004924               0.000075229               0.999999999               0.000002836               0.000079805               0.999999999               0.000000092               0.000086687               0.999999999              -0.000003500               0.000095528               0.999999999              -0.000008022               0.000106258               0.999999999              -0.000013138               0.000118382               0.999999999              -0.000018472               0.000131640               0.999999999              -0.000023905               0.000146082               0.999999999              -0.000029629               0.000161938               0.999999999              -0.000036107               0.000179212               0.999999999              -0.000043287               0.000197853               0.999999999              -0.000051088               0.000217524               0.999999999              -0.000059516               0.000238304               0.999999999              -0.000068433               0.000260100               0.999999999              -0.000077741               0.000282593               0.999999999               0.000003062               0.000088260               0.999999999               0.000006118               0.000082146               0.999999999               0.000005472               0.000082491               0.999999999               0.000003721               0.000086306               0.999999999               0.000001358               0.000092339               0.999999999              -0.000001627               0.000100264               0.999999999              -0.000005514               0.000109865               0.999999999              -0.000009919               0.000121033               0.999999999              -0.000014530               0.000133432               0.999999999              -0.000019201               0.000147029               0.999999999              -0.000023958               0.000161811               0.999999999              -0.000029092               0.000177893               0.999999999              -0.000034839               0.000195217               0.999999999              -0.000041032               0.000213798               0.999999999              -0.000047628               0.000233301               0.999999999              -0.000054930               0.000253871               0.999999999              -0.000062629               0.000275337               0.999999999               0.000002258               0.000094979               0.999999999               0.000005881               0.000089732               0.999999999               0.000005743               0.000089731               0.999999999               0.000004391               0.000092910               0.999999999               0.000002487               0.000098262               0.999999999               0.000000011               0.000105349               0.999999999              -0.000003126               0.000114073               0.999999999              -0.000006753               0.000124236               0.999999999              -0.000010726               0.000135762               0.999999999              -0.000014852               0.000148529               0.999999999              -0.000018828               0.000162483               0.999999999              -0.000022841               0.000177536               0.999999999              -0.000027294               0.000193718               0.999999999              -0.000032083               0.000211026               0.999999999              -0.000037111               0.000229356               0.999999999              -0.000042632               0.000248655               0.999999999              -0.000048727               0.000268802               0.999999999               0.000001544               0.000100778               0.999999999               0.000005338               0.000096676               0.999999999               0.000005640               0.000096667               0.999999999               0.000004743               0.000099427               0.999999999               0.000003267               0.000104213               0.999999999               0.000001368               0.000110666               0.999999999              -0.000001113               0.000118624               0.999999999              -0.000004003               0.000127909               0.999999999              -0.000007363               0.000138641               0.999999999              -0.000010828               0.000150657               0.999999999              -0.000014165               0.000163830               0.999999999              -0.000017400               0.000178059               0.999999999              -0.000020705               0.000193350               0.999999999              -0.000024253               0.000209574               0.999999999              -0.000027953               0.000226758               0.999999999              -0.000031812               0.000244839               0.999999999              -0.000036118               0.000263805               0.999999999               0.000000983               0.000105658               0.999999999               0.000004567               0.000102825               0.999999999               0.000005122               0.000102993               0.999999999               0.000004646               0.000105544               0.999999999               0.000003652               0.000109963               0.999999999               0.000002209               0.000115934               0.999999999               0.000000361               0.000123241               0.999999999              -0.000001932               0.000131909               0.999999999              -0.000004489               0.000141987               0.999999999              -0.000007246               0.000153369               0.999999999              -0.000009992               0.000165933               0.999999999              -0.000012570               0.000179483               0.999999999              -0.000015038               0.000193900               0.999999999              -0.000017565               0.000209251               0.999999999              -0.000020139               0.000225512               0.999999999              -0.000022631               0.000242566               0.999999999              -0.000025295               0.000260435               0.999999999               0.000000553               0.000109477               0.999999999               0.000003563               0.000107881               0.999999999               0.000004242               0.000108415               0.999999999               0.000004069               0.000110922               0.999999999               0.000003460               0.000115109               0.999999999               0.000002468               0.000120768               0.999999999               0.000001131               0.000127655               0.999999999              -0.000000447               0.000135941               0.999999999              -0.000002293               0.000145581               0.999999999              -0.000004362               0.000156396               0.999999999              -0.000006480               0.000168368               0.999999999              -0.000008458               0.000181317               0.999999999              -0.000010265               0.000195082               0.999999999              -0.000011936               0.000209755               0.999999999              -0.000013545               0.000225296               0.999999999              -0.000015137               0.000241688               0.999999999              -0.000016652               0.000258812               0.999999999               0.000000266               0.000112230               0.999999999               0.000002428               0.000111648               0.999999999               0.000003044               0.000112578               0.999999999               0.000003013               0.000115143               0.999999999               0.000002700               0.000119264               0.999999999               0.000002107               0.000124693               0.999999999               0.000001274               0.000131454               0.999999999               0.000000303               0.000139516               0.999999999              -0.000000953               0.000148735               0.999999999              -0.000002334               0.000159155               0.999999999              -0.000003723               0.000170664               0.999999999              -0.000005031               0.000183118               0.999999999              -0.000006229               0.000196496               0.999999999              -0.000007287               0.000210783               0.999999999              -0.000008233               0.000225870               0.999999999              -0.000009120               0.000241728               0.999999999              -0.000009849               0.000258328               0.999999999               0.000000104               0.000113912               0.999999999               0.000001230               0.000113971               0.999999999               0.000001588               0.000115196               0.999999999               0.000001607               0.000117870               0.999999999               0.000001492               0.000121970               0.999999999               0.000001197               0.000127321               0.999999999               0.000000861               0.000134014               0.999999999               0.000000279               0.000141941               0.999999999              -0.000000301               0.000150970               0.999999999              -0.000000936               0.000161116               0.999999999              -0.000001610               0.000172311               0.999999999              -0.000002282               0.000184518               0.999999999              -0.000002925               0.000197730               0.999999999              -0.000003441               0.000211802               0.999999999              -0.000003865               0.000226587               0.999999999              -0.000004236               0.000242151               0.999999999              -0.000004469               0.000258510               0.999999999              -0.000000000               0.000114475               0.999999999               0.000000000               0.000114754               0.999999999               0.000000000               0.000116103               0.999999999              -0.000000000               0.000118822               0.999999999              -0.000000000               0.000122886               0.999999999              -0.000000000               0.000128246               0.999999999               0.000000000               0.000134903               0.999999999              -0.000000000               0.000142809               0.999999999              -0.000000000               0.000151852               0.999999999               0.000000000               0.000161826               0.999999999              -0.000000000               0.000172879               0.999999999               0.000000000               0.000185117               0.999999999               0.000000000               0.000198260               0.999999999               0.000000000               0.000212178               0.999999999              -0.000000000               0.000226891               0.999999999              -0.000000000               0.000242397               0.999999999              -0.000000000               0.000258688               0.999999999               0.000007798               0.000000000               0.999999999               0.000003204               0.000000000               0.999999999               0.000001007               0.000000000               0.999999999              -0.000000087               0.000000000               0.999999999              -0.000000669               0.000000000               0.999999999              -0.000000935               0.000000000               0.999999999              -0.000001036               0.000000000               0.999999999              -0.000001174               0.000000000               0.999999999              -0.000001433               0.000000000               0.999999999              -0.000001958               0.000000000               0.999999999              -0.000002854              -0.000000000               0.999999999              -0.000004087              -0.000000000               0.999999999              -0.000005664              -0.000000000               0.999999999              -0.000007654              -0.000000000               0.999999999              -0.000010151              -0.000000000               0.999999999              -0.000013224              -0.000000000               0.999999999              -0.000016870              -0.000000000               0.999999999               0.000007698              -0.000011298               0.999999999               0.000003255              -0.000010295               0.999999999               0.000001155              -0.000010110               0.999999999               0.000000063              -0.000010340               0.999999999              -0.000000530              -0.000010836               0.999999999              -0.000000867              -0.000011452               0.999999999              -0.000001121              -0.000012301               0.999999999              -0.000001395              -0.000013356               0.999999999              -0.000001862              -0.000014730               0.999999999              -0.000002642              -0.000016370               0.999999999              -0.000003736              -0.000018136               0.999999999              -0.000005149              -0.000019934               0.999999999              -0.000006966              -0.000021947               0.999999999              -0.000009231              -0.000024192               0.999999999              -0.000011928              -0.000026574               0.999999999              -0.000015144              -0.000029205               0.999999999              -0.000018941              -0.000032137               0.999999999               0.000007492              -0.000022486               0.999999999               0.000003461              -0.000020467               0.999999999               0.000001557              -0.000020128               0.999999999               0.000000511              -0.000020664               0.999999999              -0.000000161              -0.000021704               0.999999999              -0.000000723              -0.000023093               0.999999999              -0.000001318              -0.000024809               0.999999999              -0.000002055              -0.000027030               0.999999999              -0.000003110              -0.000029836               0.999999999              -0.000004485              -0.000033044               0.999999999              -0.000006214              -0.000036498               0.999999999              -0.000008268              -0.000039999               0.999999999              -0.000010653              -0.000043968               0.999999999              -0.000013475              -0.000048300               0.999999999              -0.000016743              -0.000052884               0.999999999              -0.000020490              -0.000057880               0.999999999              -0.000024713              -0.000063270               0.999999999               0.000007151              -0.000033430               0.999999999               0.000003777              -0.000030403               0.999999999               0.000002157              -0.000029991               0.999999999               0.000001162              -0.000030978               0.999999999               0.000000296              -0.000032669               0.999999999              -0.000000602              -0.000034920               0.999999999              -0.000001678              -0.000037733               0.999999999              -0.000003132              -0.000041232               0.999999999              -0.000004951              -0.000045528               0.999999999              -0.000007170              -0.000050294               0.999999999              -0.000009686              -0.000055287               0.999999999              -0.000012488              -0.000060465               0.999999999              -0.000015697              -0.000066252               0.999999999              -0.000019286              -0.000072488               0.999999999              -0.000023218              -0.000079081               0.999999999              -0.000027533              -0.000086161               0.999999999              -0.000032292              -0.000093587               0.999999999               0.000006672              -0.000044020               0.999999999               0.000004197              -0.000039994               0.999999999               0.000002894              -0.000039655               0.999999999               0.000001838              -0.000041187               0.999999999               0.000000740              -0.000043687               0.999999999              -0.000000573              -0.000047012               0.999999999              -0.000002301              -0.000051035               0.999999999              -0.000004486              -0.000056081               0.999999999              -0.000007192              -0.000061853               0.999999999              -0.000010259              -0.000068218               0.999999999              -0.000013618              -0.000074664               0.999999999              -0.000017296              -0.000081513               0.999999999              -0.000021302              -0.000089095               0.999999999              -0.000025664              -0.000097174               0.999999999              -0.000030348              -0.000105721               0.999999999              -0.000035485              -0.000114824               0.999999999              -0.000041136              -0.000124471               0.999999999               0.000006104              -0.000054157               0.999999999               0.000004664              -0.000049187               0.999999999               0.000003601              -0.000049047               0.999999999               0.000002416              -0.000051230               0.999999999               0.000000986              -0.000054694               0.999999999              -0.000000845              -0.000059185               0.999999999              -0.000003198              -0.000064687               0.999999999              -0.000006179              -0.000071334               0.999999999              -0.000009663              -0.000078835               0.999999999              -0.000013534              -0.000086704               0.999999999              -0.000017718              -0.000094805               0.999999999              -0.000022186              -0.000103507               0.999999999              -0.000027050              -0.000112989               0.999999999              -0.000032368              -0.000123083               0.999999999              -0.000038139              -0.000133866               0.999999999              -0.000044380              -0.000145308               0.999999999              -0.000051068              -0.000157417               0.999999999               0.000005454              -0.000063727               0.999999999               0.000005149              -0.000057969               0.999999999               0.000004219              -0.000058135               0.999999999               0.000002787              -0.000061051               0.999999999               0.000000928              -0.000065553               0.999999999              -0.000001439              -0.000071357               0.999999999              -0.000004492              -0.000078478               0.999999999              -0.000008223              -0.000086910               0.999999999              -0.000012457              -0.000096049               0.999999999              -0.000017020              -0.000105732               0.999999999              -0.000021880              -0.000115778               0.999999999              -0.000027139              -0.000126714               0.999999999              -0.000032845              -0.000138675               0.999999999              -0.000039050              -0.000151389               0.999999999              -0.000045768              -0.000164893               0.999999999              -0.000053022              -0.000179189               0.999999999              -0.000060758              -0.000194245               0.999999999               0.000004755              -0.000072642               0.999999999               0.000005614              -0.000066301               0.999999999               0.000004674              -0.000066875               0.999999999               0.000002917              -0.000070594               0.999999999               0.000000616              -0.000076238               0.999999999              -0.000002353              -0.000083461               0.999999999              -0.000006143              -0.000092343               0.999999999              -0.000010630              -0.000102524               0.999999999              -0.000015514              -0.000113575               0.999999999              -0.000020636              -0.000125311               0.999999999              -0.000026041              -0.000137919               0.999999999              -0.000031861              -0.000151774               0.999999999              -0.000038222              -0.000166850               0.999999999              -0.000045223              -0.000182789               0.999999999              -0.000052886              -0.000199628               0.999999999              -0.000061120              -0.000217441               0.999999999              -0.000069822              -0.000236059               0.999999999               0.000003973              -0.000080737               0.999999999               0.000006017              -0.000074161               0.999999999               0.000004924              -0.000075229               0.999999999               0.000002836              -0.000079805               0.999999999               0.000000092              -0.000086687               0.999999999              -0.000003500              -0.000095528               0.999999999              -0.000008022              -0.000106258               0.999999999              -0.000013138              -0.000118382               0.999999999              -0.000018472              -0.000131640               0.999999999              -0.000023905              -0.000146082               0.999999999              -0.000029629              -0.000161938               0.999999999              -0.000036107              -0.000179212               0.999999999              -0.000043287              -0.000197853               0.999999999              -0.000051088              -0.000217524               0.999999999              -0.000059516              -0.000238304               0.999999999              -0.000068433              -0.000260100               0.999999999              -0.000077741              -0.000282593               0.999999999               0.000003062              -0.000088260               0.999999999               0.000006118              -0.000082146               0.999999999               0.000005472              -0.000082491               0.999999999               0.000003721              -0.000086306               0.999999999               0.000001358              -0.000092339               0.999999999              -0.000001627              -0.000100264               0.999999999              -0.000005514              -0.000109865               0.999999999              -0.000009919              -0.000121033               0.999999999              -0.000014530              -0.000133432               0.999999999              -0.000019201              -0.000147029               0.999999999              -0.000023958              -0.000161811               0.999999999              -0.000029092              -0.000177893               0.999999999              -0.000034839              -0.000195217               0.999999999              -0.000041032              -0.000213798               0.999999999              -0.000047628              -0.000233301               0.999999999              -0.000054930              -0.000253871               0.999999999              -0.000062629              -0.000275337               0.999999999               0.000002258              -0.000094979               0.999999999               0.000005881              -0.000089732               0.999999999               0.000005743              -0.000089731               0.999999999               0.000004391              -0.000092910               0.999999999               0.000002487              -0.000098262               0.999999999               0.000000011              -0.000105349               0.999999999              -0.000003126              -0.000114073               0.999999999              -0.000006753              -0.000124236               0.999999999              -0.000010726              -0.000135762               0.999999999              -0.000014852              -0.000148529               0.999999999              -0.000018828              -0.000162483               0.999999999              -0.000022841              -0.000177536               0.999999999              -0.000027294              -0.000193718               0.999999999              -0.000032083              -0.000211026               0.999999999              -0.000037111              -0.000229356               0.999999999              -0.000042632              -0.000248655               0.999999999              -0.000048727              -0.000268802               0.999999999               0.000001544              -0.000100778               0.999999999               0.000005338              -0.000096676               0.999999999               0.000005640              -0.000096667               0.999999999               0.000004743              -0.000099427               0.999999999               0.000003267              -0.000104213               0.999999999               0.000001368              -0.000110666               0.999999999              -0.000001113              -0.000118624               0.999999999              -0.000004003              -0.000127909               0.999999999              -0.000007363              -0.000138641               0.999999999              -0.000010828              -0.000150657               0.999999999              -0.000014165              -0.000163830               0.999999999              -0.000017400              -0.000178059               0.999999999              -0.000020705              -0.000193350               0.999999999              -0.000024253              -0.000209574               0.999999999              -0.000027953              -0.000226758               0.999999999              -0.000031812              -0.000244839               0.999999999              -0.000036118              -0.000263805               0.999999999               0.000000983              -0.000105658               0.999999999               0.000004567              -0.000102825               0.999999999               0.000005122              -0.000102993               0.999999999               0.000004646              -0.000105544               0.999999999               0.000003652              -0.000109963               0.999999999               0.000002209              -0.000115934               0.999999999               0.000000361              -0.000123241               0.999999999              -0.000001932              -0.000131909               0.999999999              -0.000004489              -0.000141987               0.999999999              -0.000007246              -0.000153369               0.999999999              -0.000009992              -0.000165933               0.999999999              -0.000012570              -0.000179483               0.999999999              -0.000015038              -0.000193900               0.999999999              -0.000017565              -0.000209251               0.999999999              -0.000020139              -0.000225512               0.999999999              -0.000022631              -0.000242566               0.999999999              -0.000025295              -0.000260435               0.999999999               0.000000553              -0.000109477               0.999999999               0.000003563              -0.000107881               0.999999999               0.000004242              -0.000108415               0.999999999               0.000004069              -0.000110922               0.999999999               0.000003460              -0.000115109               0.999999999               0.000002468              -0.000120768               0.999999999               0.000001131              -0.000127655               0.999999999              -0.000000447              -0.000135941               0.999999999              -0.000002293              -0.000145581               0.999999999              -0.000004362              -0.000156396               0.999999999              -0.000006480              -0.000168368               0.999999999              -0.000008458              -0.000181317               0.999999999              -0.000010265              -0.000195082               0.999999999              -0.000011936              -0.000209755               0.999999999              -0.000013545              -0.000225296               0.999999999              -0.000015137              -0.000241688               0.999999999              -0.000016652              -0.000258812               0.999999999               0.000000266              -0.000112230               0.999999999               0.000002428              -0.000111648               0.999999999               0.000003044              -0.000112578               0.999999999               0.000003013              -0.000115143               0.999999999               0.000002700              -0.000119264               0.999999999               0.000002107              -0.000124693               0.999999999               0.000001274              -0.000131454               0.999999999               0.000000303              -0.000139516               0.999999999              -0.000000953              -0.000148735               0.999999999              -0.000002334              -0.000159155               0.999999999              -0.000003723              -0.000170664               0.999999999              -0.000005031              -0.000183118               0.999999999              -0.000006229              -0.000196496               0.999999999              -0.000007287              -0.000210783               0.999999999              -0.000008233              -0.000225870               0.999999999              -0.000009120              -0.000241728               0.999999999              -0.000009849              -0.000258328               0.999999999               0.000000104              -0.000113912               0.999999999               0.000001230              -0.000113971               0.999999999               0.000001588              -0.000115196               0.999999999               0.000001607              -0.000117870               0.999999999               0.000001492              -0.000121970               0.999999999               0.000001197              -0.000127321               0.999999999               0.000000861              -0.000134014               0.999999999               0.000000279              -0.000141941               0.999999999              -0.000000301              -0.000150970               0.999999999              -0.000000936              -0.000161116               0.999999999              -0.000001610              -0.000172311               0.999999999              -0.000002282              -0.000184518               0.999999999              -0.000002925              -0.000197730               0.999999999              -0.000003441              -0.000211802               0.999999999              -0.000003865              -0.000226587               0.999999999              -0.000004236              -0.000242151               0.999999999              -0.000004469              -0.000258510               0.999999999               0.000000000              -0.000114475               0.999999999               0.000000000              -0.000114754               0.999999999              -0.000000000              -0.000116103               0.999999999               0.000000000              -0.000118822               0.999999999               0.000000000              -0.000122886               0.999999999               0.000000000              -0.000128246               0.999999999              -0.000000000              -0.000134903               0.999999999               0.000000000              -0.000142809               0.999999999              -0.000000000              -0.000151852               0.999999999              -0.000000000              -0.000161826               0.999999999              -0.000000000              -0.000172879               0.999999999              -0.000000000              -0.000185117               0.999999999              -0.000000000              -0.000198260               0.999999999              -0.000000000              -0.000212178               0.999999999              -0.000000000              -0.000226891               0.999999999               0.000000000              -0.000242397               0.999999999               0.000000000              -0.000258688               0.999999999              -0.000007798              -0.000000000               0.999999999              -0.000003204               0.000000000               0.999999999              -0.000001007               0.000000000               0.999999999               0.000000087               0.000000000               0.999999999               0.000000669               0.000000000               0.999999999               0.000000935               0.000000000               0.999999999               0.000001036              -0.000000000               0.999999999               0.000001174              -0.000000000               0.999999999               0.000001433              -0.000000000               0.999999999               0.000001958              -0.000000000               0.999999999               0.000002854              -0.000000000               0.999999999               0.000004087              -0.000000000               0.999999999               0.000005664              -0.000000000               0.999999999               0.000007654              -0.000000000               0.999999999               0.000010151              -0.000000000               0.999999999               0.000013224              -0.000000000               0.999999999               0.000016870              -0.000000000               0.999999999              -0.000007698              -0.000011298               0.999999999              -0.000003255              -0.000010295               0.999999999              -0.000001155              -0.000010110               0.999999999              -0.000000063              -0.000010340               0.999999999               0.000000530              -0.000010836               0.999999999               0.000000867              -0.000011452               0.999999999               0.000001121              -0.000012301               0.999999999               0.000001395              -0.000013356               0.999999999               0.000001862              -0.000014730               0.999999999               0.000002642              -0.000016370               0.999999999               0.000003736              -0.000018136               0.999999999               0.000005149              -0.000019934               0.999999999               0.000006966              -0.000021947               0.999999999               0.000009231              -0.000024192               0.999999999               0.000011928              -0.000026574               0.999999999               0.000015144              -0.000029205               0.999999999               0.000018941              -0.000032137               0.999999999              -0.000007492              -0.000022486               0.999999999              -0.000003461              -0.000020467               0.999999999              -0.000001557              -0.000020128               0.999999999              -0.000000511              -0.000020664               0.999999999               0.000000161              -0.000021704               0.999999999               0.000000723              -0.000023093               0.999999999               0.000001318              -0.000024809               0.999999999               0.000002055              -0.000027030               0.999999999               0.000003110              -0.000029836               0.999999999               0.000004485              -0.000033044               0.999999999               0.000006214              -0.000036498               0.999999999               0.000008268              -0.000039999               0.999999999               0.000010653              -0.000043968               0.999999999               0.000013475              -0.000048300               0.999999999               0.000016743              -0.000052884               0.999999999               0.000020490              -0.000057880               0.999999999               0.000024713              -0.000063270               0.999999999              -0.000007151              -0.000033430               0.999999999              -0.000003777              -0.000030403               0.999999999              -0.000002157              -0.000029991               0.999999999              -0.000001162              -0.000030978               0.999999999              -0.000000296              -0.000032669               0.999999999               0.000000602              -0.000034920               0.999999999               0.000001678              -0.000037733               0.999999999               0.000003132              -0.000041232               0.999999999               0.000004951              -0.000045528               0.999999999               0.000007170              -0.000050294               0.999999999               0.000009686              -0.000055287               0.999999999               0.000012488              -0.000060465               0.999999999               0.000015697              -0.000066252               0.999999999               0.000019286              -0.000072488               0.999999999               0.000023218              -0.000079081               0.999999999               0.000027533              -0.000086161               0.999999999               0.000032292              -0.000093587               0.999999999              -0.000006672              -0.000044020               0.999999999              -0.000004197              -0.000039994               0.999999999              -0.000002894              -0.000039655               0.999999999              -0.000001838              -0.000041187               0.999999999              -0.000000740              -0.000043687               0.999999999               0.000000573              -0.000047012               0.999999999               0.000002301              -0.000051035               0.999999999               0.000004486              -0.000056081               0.999999999               0.000007192              -0.000061853               0.999999999               0.000010259              -0.000068218               0.999999999               0.000013618              -0.000074664               0.999999999               0.000017296              -0.000081513               0.999999999               0.000021302              -0.000089095               0.999999999               0.000025664              -0.000097174               0.999999999               0.000030348              -0.000105721               0.999999999               0.000035485              -0.000114824               0.999999999               0.000041136              -0.000124471               0.999999999              -0.000006104              -0.000054157               0.999999999              -0.000004664              -0.000049187               0.999999999              -0.000003601              -0.000049047               0.999999999              -0.000002416              -0.000051230               0.999999999              -0.000000986              -0.000054694               0.999999999               0.000000845              -0.000059185               0.999999999               0.000003198              -0.000064687               0.999999999               0.000006179              -0.000071334               0.999999999               0.000009663              -0.000078835               0.999999999               0.000013534              -0.000086704               0.999999999               0.000017718              -0.000094805               0.999999999               0.000022186              -0.000103507               0.999999999               0.000027050              -0.000112989               0.999999999               0.000032368              -0.000123083               0.999999999               0.000038139              -0.000133866               0.999999999               0.000044380              -0.000145308               0.999999999               0.000051068              -0.000157417               0.999999999              -0.000005454              -0.000063727               0.999999999              -0.000005149              -0.000057969               0.999999999              -0.000004219              -0.000058135               0.999999999              -0.000002787              -0.000061051               0.999999999              -0.000000928              -0.000065553               0.999999999               0.000001439              -0.000071357               0.999999999               0.000004492              -0.000078478               0.999999999               0.000008223              -0.000086910               0.999999999               0.000012457              -0.000096049               0.999999999               0.000017020              -0.000105732               0.999999999               0.000021880              -0.000115778               0.999999999               0.000027139              -0.000126714               0.999999999               0.000032845              -0.000138675               0.999999999               0.000039050              -0.000151389               0.999999999               0.000045768              -0.000164893               0.999999999               0.000053022              -0.000179189               0.999999999               0.000060758              -0.000194245               0.999999999              -0.000004755              -0.000072642               0.999999999              -0.000005614              -0.000066301               0.999999999              -0.000004674              -0.000066875               0.999999999              -0.000002917              -0.000070594               0.999999999              -0.000000616              -0.000076238               0.999999999               0.000002353              -0.000083461               0.999999999               0.000006143              -0.000092343               0.999999999               0.000010630              -0.000102524               0.999999999               0.000015514              -0.000113575               0.999999999               0.000020636              -0.000125311               0.999999999               0.000026041              -0.000137919               0.999999999               0.000031861              -0.000151774               0.999999999               0.000038222              -0.000166850               0.999999999               0.000045223              -0.000182789               0.999999999               0.000052886              -0.000199628               0.999999999               0.000061120              -0.000217441               0.999999999               0.000069822              -0.000236059               0.999999999              -0.000003973              -0.000080737               0.999999999              -0.000006017              -0.000074161               0.999999999              -0.000004924              -0.000075229               0.999999999              -0.000002836              -0.000079805               0.999999999              -0.000000092              -0.000086687               0.999999999               0.000003500              -0.000095528               0.999999999               0.000008022              -0.000106258               0.999999999               0.000013138              -0.000118382               0.999999999               0.000018472              -0.000131640               0.999999999               0.000023905              -0.000146082               0.999999999               0.000029629              -0.000161938               0.999999999               0.000036107              -0.000179212               0.999999999               0.000043287              -0.000197853               0.999999999               0.000051088              -0.000217524               0.999999999               0.000059516              -0.000238304               0.999999999               0.000068433              -0.000260100               0.999999999               0.000077741              -0.000282593               0.999999999              -0.000003062              -0.000088260               0.999999999              -0.000006118              -0.000082146               0.999999999              -0.000005472              -0.000082491               0.999999999              -0.000003721              -0.000086306               0.999999999              -0.000001358              -0.000092339               0.999999999               0.000001627              -0.000100264               0.999999999               0.000005514              -0.000109865               0.999999999               0.000009919              -0.000121033               0.999999999               0.000014530              -0.000133432               0.999999999               0.000019201              -0.000147029               0.999999999               0.000023958              -0.000161811               0.999999999               0.000029092              -0.000177893               0.999999999               0.000034839              -0.000195217               0.999999999               0.000041032              -0.000213798               0.999999999               0.000047628              -0.000233301               0.999999999               0.000054930              -0.000253871               0.999999999               0.000062629              -0.000275337               0.999999999              -0.000002258              -0.000094979               0.999999999              -0.000005881              -0.000089732               0.999999999              -0.000005743              -0.000089731               0.999999999              -0.000004391              -0.000092910               0.999999999              -0.000002487              -0.000098262               0.999999999              -0.000000011              -0.000105349               0.999999999               0.000003126              -0.000114073               0.999999999               0.000006753              -0.000124236               0.999999999               0.000010726              -0.000135762               0.999999999               0.000014852              -0.000148529               0.999999999               0.000018828              -0.000162483               0.999999999               0.000022841              -0.000177536               0.999999999               0.000027294              -0.000193718               0.999999999               0.000032083              -0.000211026               0.999999999               0.000037111              -0.000229356               0.999999999               0.000042632              -0.000248655               0.999999999               0.000048727              -0.000268802               0.999999999              -0.000001544              -0.000100778               0.999999999              -0.000005338              -0.000096676               0.999999999              -0.000005640              -0.000096667               0.999999999              -0.000004743              -0.000099427               0.999999999              -0.000003267              -0.000104213               0.999999999              -0.000001368              -0.000110666               0.999999999               0.000001113              -0.000118624               0.999999999               0.000004003              -0.000127909               0.999999999               0.000007363              -0.000138641               0.999999999               0.000010828              -0.000150657               0.999999999               0.000014165              -0.000163830               0.999999999               0.000017400              -0.000178059               0.999999999               0.000020705              -0.000193350               0.999999999               0.000024253              -0.000209574               0.999999999               0.000027953              -0.000226758               0.999999999               0.000031812              -0.000244839               0.999999999               0.000036118              -0.000263805               0.999999999              -0.000000983              -0.000105658               0.999999999              -0.000004567              -0.000102825               0.999999999              -0.000005122              -0.000102993               0.999999999              -0.000004646              -0.000105544               0.999999999              -0.000003652              -0.000109963               0.999999999              -0.000002209              -0.000115934               0.999999999              -0.000000361              -0.000123241               0.999999999               0.000001932              -0.000131909               0.999999999               0.000004489              -0.000141987               0.999999999               0.000007246              -0.000153369               0.999999999               0.000009992              -0.000165933               0.999999999               0.000012570              -0.000179483               0.999999999               0.000015038              -0.000193900               0.999999999               0.000017565              -0.000209251               0.999999999               0.000020139              -0.000225512               0.999999999               0.000022631              -0.000242566               0.999999999               0.000025295              -0.000260435               0.999999999              -0.000000553              -0.000109477               0.999999999              -0.000003563              -0.000107881               0.999999999              -0.000004242              -0.000108415               0.999999999              -0.000004069              -0.000110922               0.999999999              -0.000003460              -0.000115109               0.999999999              -0.000002468              -0.000120768               0.999999999              -0.000001131              -0.000127655               0.999999999               0.000000447              -0.000135941               0.999999999               0.000002293              -0.000145581               0.999999999               0.000004362              -0.000156396               0.999999999               0.000006480              -0.000168368               0.999999999               0.000008458              -0.000181317               0.999999999               0.000010265              -0.000195082               0.999999999               0.000011936              -0.000209755               0.999999999               0.000013545              -0.000225296               0.999999999               0.000015137              -0.000241688               0.999999999               0.000016652              -0.000258812               0.999999999              -0.000000266              -0.000112230               0.999999999              -0.000002428              -0.000111648               0.999999999              -0.000003044              -0.000112578               0.999999999              -0.000003013              -0.000115143               0.999999999              -0.000002700              -0.000119264               0.999999999              -0.000002107              -0.000124693               0.999999999              -0.000001274              -0.000131454               0.999999999              -0.000000303              -0.000139516               0.999999999               0.000000953              -0.000148735               0.999999999               0.000002334              -0.000159155               0.999999999               0.000003723              -0.000170664               0.999999999               0.000005031              -0.000183118               0.999999999               0.000006229              -0.000196496               0.999999999               0.000007287              -0.000210783               0.999999999               0.000008233              -0.000225870               0.999999999               0.000009120              -0.000241728               0.999999999               0.000009849              -0.000258328               0.999999999              -0.000000104              -0.000113912               0.999999999              -0.000001230              -0.000113971               0.999999999              -0.000001588              -0.000115196               0.999999999              -0.000001607              -0.000117870               0.999999999              -0.000001492              -0.000121970               0.999999999              -0.000001197              -0.000127321               0.999999999              -0.000000861              -0.000134014               0.999999999              -0.000000279              -0.000141941               0.999999999               0.000000301              -0.000150970               0.999999999               0.000000936              -0.000161116               0.999999999               0.000001610              -0.000172311               0.999999999               0.000002282              -0.000184518               0.999999999               0.000002925              -0.000197730               0.999999999               0.000003441              -0.000211802               0.999999999               0.000003865              -0.000226587               0.999999999               0.000004236              -0.000242151               0.999999999               0.000004469              -0.000258510               0.999999999               0.000000000              -0.000114475               0.999999999               0.000000000              -0.000114754               0.999999999              -0.000000000              -0.000116103               0.999999999               0.000000000              -0.000118822               0.999999999               0.000000000              -0.000122886               0.999999999               0.000000000              -0.000128246               0.999999999              -0.000000000              -0.000134903               0.999999999               0.000000000              -0.000142809               0.999999999              -0.000000000              -0.000151852               0.999999999              -0.000000000              -0.000161826               0.999999999              -0.000000000              -0.000172879               0.999999999              -0.000000000              -0.000185117               0.999999999              -0.000000000              -0.000198260               0.999999999              -0.000000000              -0.000212178               0.999999999              -0.000000000              -0.000226891               0.999999999               0.000000000              -0.000242397               0.999999999               0.000000000              -0.000258688               0.999999999              -0.000007798              -0.000000000               0.999999999              -0.000003204               0.000000000               0.999999999              -0.000001007               0.000000000               0.999999999               0.000000087               0.000000000               0.999999999               0.000000669               0.000000000               0.999999999               0.000000935               0.000000000               0.999999999               0.000001036              -0.000000000               0.999999999               0.000001174              -0.000000000               0.999999999               0.000001433              -0.000000000               0.999999999               0.000001958              -0.000000000               0.999999999               0.000002854              -0.000000000               0.999999999               0.000004087              -0.000000000               0.999999999               0.000005664              -0.000000000               0.999999999               0.000007654              -0.000000000               0.999999999               0.000010151              -0.000000000               0.999999999               0.000013224              -0.000000000               0.999999999               0.000016870              -0.000000000               0.999999999              -0.000007698               0.000011298               0.999999999              -0.000003255               0.000010295               0.999999999              -0.000001155               0.000010110               0.999999999              -0.000000063               0.000010340               0.999999999               0.000000530               0.000010836               0.999999999               0.000000867               0.000011452               0.999999999               0.000001121               0.000012301               0.999999999               0.000001395               0.000013356               0.999999999               0.000001862               0.000014730               0.999999999               0.000002642               0.000016370               0.999999999               0.000003736               0.000018136               0.999999999               0.000005149               0.000019934               0.999999999               0.000006966               0.000021947               0.999999999               0.000009231               0.000024192               0.999999999               0.000011928               0.000026574               0.999999999               0.000015144               0.000029205               0.999999999               0.000018941               0.000032137               0.999999999              -0.000007492               0.000022486               0.999999999              -0.000003461               0.000020467               0.999999999              -0.000001557               0.000020128               0.999999999              -0.000000511               0.000020664               0.999999999               0.000000161               0.000021704               0.999999999               0.000000723               0.000023093               0.999999999               0.000001318               0.000024809               0.999999999               0.000002055               0.000027030               0.999999999               0.000003110               0.000029836               0.999999999               0.000004485               0.000033044               0.999999999               0.000006214               0.000036498               0.999999999               0.000008268               0.000039999               0.999999999               0.000010653               0.000043968               0.999999999               0.000013475               0.000048300               0.999999999               0.000016743               0.000052884               0.999999999               0.000020490               0.000057880               0.999999999               0.000024713               0.000063270               0.999999999              -0.000007151               0.000033430               0.999999999              -0.000003777               0.000030403               0.999999999              -0.000002157               0.000029991               0.999999999              -0.000001162               0.000030978               0.999999999              -0.000000296               0.000032669               0.999999999               0.000000602               0.000034920               0.999999999               0.000001678               0.000037733               0.999999999               0.000003132               0.000041232               0.999999999               0.000004951               0.000045528               0.999999999               0.000007170               0.000050294               0.999999999               0.000009686               0.000055287               0.999999999               0.000012488               0.000060465               0.999999999               0.000015697               0.000066252               0.999999999               0.000019286               0.000072488               0.999999999               0.000023218               0.000079081               0.999999999               0.000027533               0.000086161               0.999999999               0.000032292               0.000093587               0.999999999              -0.000006672               0.000044020               0.999999999              -0.000004197               0.000039994               0.999999999              -0.000002894               0.000039655               0.999999999              -0.000001838               0.000041187               0.999999999              -0.000000740               0.000043687               0.999999999               0.000000573               0.000047012               0.999999999               0.000002301               0.000051035               0.999999999               0.000004486               0.000056081               0.999999999               0.000007192               0.000061853               0.999999999               0.000010259               0.000068218               0.999999999               0.000013618               0.000074664               0.999999999               0.000017296               0.000081513               0.999999999               0.000021302               0.000089095               0.999999999               0.000025664               0.000097174               0.999999999               0.000030348               0.000105721               0.999999999               0.000035485               0.000114824               0.999999999               0.000041136               0.000124471               0.999999999              -0.000006104               0.000054157               0.999999999              -0.000004664               0.000049187               0.999999999              -0.000003601               0.000049047               0.999999999              -0.000002416               0.000051230               0.999999999              -0.000000986               0.000054694               0.999999999               0.000000845               0.000059185               0.999999999               0.000003198               0.000064687               0.999999999               0.000006179               0.000071334               0.999999999               0.000009663               0.000078835               0.999999999               0.000013534               0.000086704               0.999999999               0.000017718               0.000094805               0.999999999               0.000022186               0.000103507               0.999999999               0.000027050               0.000112989               0.999999999               0.000032368               0.000123083               0.999999999               0.000038139               0.000133866               0.999999999               0.000044380               0.000145308               0.999999999               0.000051068               0.000157417               0.999999999              -0.000005454               0.000063727               0.999999999              -0.000005149               0.000057969               0.999999999              -0.000004219               0.000058135               0.999999999              -0.000002787               0.000061051               0.999999999              -0.000000928               0.000065553               0.999999999               0.000001439               0.000071357               0.999999999               0.000004492               0.000078478               0.999999999               0.000008223               0.000086910               0.999999999               0.000012457               0.000096049               0.999999999               0.000017020               0.000105732               0.999999999               0.000021880               0.000115778               0.999999999               0.000027139               0.000126714               0.999999999               0.000032845               0.000138675               0.999999999               0.000039050               0.000151389               0.999999999               0.000045768               0.000164893               0.999999999               0.000053022               0.000179189               0.999999999               0.000060758               0.000194245               0.999999999              -0.000004755               0.000072642               0.999999999              -0.000005614               0.000066301               0.999999999              -0.000004674               0.000066875               0.999999999              -0.000002917               0.000070594               0.999999999              -0.000000616               0.000076238               0.999999999               0.000002353               0.000083461               0.999999999               0.000006143               0.000092343               0.999999999               0.000010630               0.000102524               0.999999999               0.000015514               0.000113575               0.999999999               0.000020636               0.000125311               0.999999999               0.000026041               0.000137919               0.999999999               0.000031861               0.000151774               0.999999999               0.000038222               0.000166850               0.999999999               0.000045223               0.000182789               0.999999999               0.000052886               0.000199628               0.999999999               0.000061120               0.000217441               0.999999999               0.000069822               0.000236059               0.999999999              -0.000003973               0.000080737               0.999999999              -0.000006017               0.000074161               0.999999999              -0.000004924               0.000075229               0.999999999              -0.000002836               0.000079805               0.999999999              -0.000000092               0.000086687               0.999999999               0.000003500               0.000095528               0.999999999               0.000008022               0.000106258               0.999999999               0.000013138               0.000118382               0.999999999               0.000018472               0.000131640               0.999999999               0.000023905               0.000146082               0.999999999               0.000029629               0.000161938               0.999999999               0.000036107               0.000179212               0.999999999               0.000043287               0.000197853               0.999999999               0.000051088               0.000217524               0.999999999               0.000059516               0.000238304               0.999999999               0.000068433               0.000260100               0.999999999               0.000077741               0.000282593               0.999999999              -0.000003062               0.000088260               0.999999999              -0.000006118               0.000082146               0.999999999              -0.000005472               0.000082491               0.999999999              -0.000003721               0.000086306               0.999999999              -0.000001358               0.000092339               0.999999999               0.000001627               0.000100264               0.999999999               0.000005514               0.000109865               0.999999999               0.000009919               0.000121033               0.999999999               0.000014530               0.000133432               0.999999999               0.000019201               0.000147029               0.999999999               0.000023958               0.000161811               0.999999999               0.000029092               0.000177893               0.999999999               0.000034839               0.000195217               0.999999999               0.000041032               0.000213798               0.999999999               0.000047628               0.000233301               0.999999999               0.000054930               0.000253871               0.999999999               0.000062629               0.000275337               0.999999999              -0.000002258               0.000094979               0.999999999              -0.000005881               0.000089732               0.999999999              -0.000005743               0.000089731               0.999999999              -0.000004391               0.000092910               0.999999999              -0.000002487               0.000098262               0.999999999              -0.000000011               0.000105349               0.999999999               0.000003126               0.000114073               0.999999999               0.000006753               0.000124236               0.999999999               0.000010726               0.000135762               0.999999999               0.000014852               0.000148529               0.999999999               0.000018828               0.000162483               0.999999999               0.000022841               0.000177536               0.999999999               0.000027294               0.000193718               0.999999999               0.000032083               0.000211026               0.999999999               0.000037111               0.000229356               0.999999999               0.000042632               0.000248655               0.999999999               0.000048727               0.000268802               0.999999999              -0.000001544               0.000100778               0.999999999              -0.000005338               0.000096676               0.999999999              -0.000005640               0.000096667               0.999999999              -0.000004743               0.000099427               0.999999999              -0.000003267               0.000104213               0.999999999              -0.000001368               0.000110666               0.999999999               0.000001113               0.000118624               0.999999999               0.000004003               0.000127909               0.999999999               0.000007363               0.000138641               0.999999999               0.000010828               0.000150657               0.999999999               0.000014165               0.000163830               0.999999999               0.000017400               0.000178059               0.999999999               0.000020705               0.000193350               0.999999999               0.000024253               0.000209574               0.999999999               0.000027953               0.000226758               0.999999999               0.000031812               0.000244839               0.999999999               0.000036118               0.000263805               0.999999999              -0.000000983               0.000105658               0.999999999              -0.000004567               0.000102825               0.999999999              -0.000005122               0.000102993               0.999999999              -0.000004646               0.000105544               0.999999999              -0.000003652               0.000109963               0.999999999              -0.000002209               0.000115934               0.999999999              -0.000000361               0.000123241               0.999999999               0.000001932               0.000131909               0.999999999               0.000004489               0.000141987               0.999999999               0.000007246               0.000153369               0.999999999               0.000009992               0.000165933               0.999999999               0.000012570               0.000179483               0.999999999               0.000015038               0.000193900               0.999999999               0.000017565               0.000209251               0.999999999               0.000020139               0.000225512               0.999999999               0.000022631               0.000242566               0.999999999               0.000025295               0.000260435               0.999999999              -0.000000553               0.000109477               0.999999999              -0.000003563               0.000107881               0.999999999              -0.000004242               0.000108415               0.999999999              -0.000004069               0.000110922               0.999999999              -0.000003460               0.000115109               0.999999999              -0.000002468               0.000120768               0.999999999              -0.000001131               0.000127655               0.999999999               0.000000447               0.000135941               0.999999999               0.000002293               0.000145581               0.999999999               0.000004362               0.000156396               0.999999999               0.000006480               0.000168368               0.999999999               0.000008458               0.000181317               0.999999999               0.000010265               0.000195082               0.999999999               0.000011936               0.000209755               0.999999999               0.000013545               0.000225296               0.999999999               0.000015137               0.000241688               0.999999999               0.000016652               0.000258812               0.999999999              -0.000000266               0.000112230               0.999999999              -0.000002428               0.000111648               0.999999999              -0.000003044               0.000112578               0.999999999              -0.000003013               0.000115143               0.999999999              -0.000002700               0.000119264               0.999999999              -0.000002107               0.000124693               0.999999999              -0.000001274               0.000131454               0.999999999              -0.000000303               0.000139516               0.999999999               0.000000953               0.000148735               0.999999999               0.000002334               0.000159155               0.999999999               0.000003723               0.000170664               0.999999999               0.000005031               0.000183118               0.999999999               0.000006229               0.000196496               0.999999999               0.000007287               0.000210783               0.999999999               0.000008233               0.000225870               0.999999999               0.000009120               0.000241728               0.999999999               0.000009849               0.000258328               0.999999999              -0.000000104               0.000113912               0.999999999              -0.000001230               0.000113971               0.999999999              -0.000001588               0.000115196               0.999999999              -0.000001607               0.000117870               0.999999999              -0.000001492               0.000121970               0.999999999              -0.000001197               0.000127321               0.999999999              -0.000000861               0.000134014               0.999999999              -0.000000279               0.000141941               0.999999999               0.000000301               0.000150970               0.999999999               0.000000936               0.000161116               0.999999999               0.000001610               0.000172311               0.999999999               0.000002282               0.000184518               0.999999999               0.000002925               0.000197730               0.999999999               0.000003441               0.000211802               0.999999999               0.000003865               0.000226587               0.999999999               0.000004236               0.000242151               0.999999999               0.000004469               0.000258510               0.999999999              -0.000000000               0.000114475               0.999999999               0.000000000               0.000114754               0.999999999               0.000000000               0.000116103               0.999999999              -0.000000000               0.000118822               0.999999999              -0.000000000               0.000122886               0.999999999              -0.000000000               0.000128246               0.999999999               0.000000000               0.000134903               0.999999999              -0.000000000               0.000142809               0.999999999              -0.000000000               0.000151852               0.999999999               0.000000000               0.000161826               0.999999999              -0.000000000               0.000172879               0.999999999               0.000000000               0.000185117               0.999999999               0.000000000               0.000198260               0.999999999               0.000000000               0.000212178               0.999999999              -0.000000000               0.000226891               0.999999999              -0.000000000               0.000242397               0.999999999              -0.000000000               0.000258688               0.999999999 </DataArray>
<DataArray type="Float64"                                    Name="defo"                                                      NumberOfComponents=" 3" format="ascii">
              0.000007798               0.000000000               0.999999999               0.000003204               0.000000000               0.999999999               0.000001007               0.000000000               0.999999999              -0.000000087               0.000000000               0.999999999              -0.000000669               0.000000000               0.999999999              -0.000000935               0.000000000               0.999999999              -0.000001036               0.000000000               0.999999999              -0.000001174               0.000000000               0.999999999              -0.000001433               0.000000000               0.999999999              -0.000001958               0.000000000               0.999999999              -0.000002854              -0.000000000               0.999999999              -0.000004087              -0.000000000               0.999999999              -0.000005664              -0.000000000               0.999999999              -0.000007654              -0.000000000               0.999999999              -0.000010151              -0.000000000               0.999999999              -0.000013224              -0.000000000               0.999999999              -0.000016870              -0.000000000               0.999999999               0.000007698               0.000011298               0.999999999               0.000003255               0.000010295               0.999999999               0.000001155               0.000010110               0.999999999               0.000000063               0.000010340               0.999999999              -0.000000530               0.000010836               0.999999999              -0.000000867               0.000011452               0.999999999              -0.000001121               0.000012301               0.999999999              -0.000001395               0.000013356               0.999999999              -0.000001862               0.000014730               0.999999999              -0.000002642               0.000016370               0.999999999              -0.000003736               0.000018136               0.999999999              -0.000005149               0.000019934               0.999999999              -0.000006966               0.000021947               0.999999999              -0.000009231               0.000024192               0.999999999              -0.000011928               0.000026574               0.999999999              -0.000015144               0.000029205               0.999999999              -0.000018941               0.000032137               0.999999999               0.000007492               0.000022486               0.999999999               0.000003461               0.000020467               0.999999999               0.000001557               0.000020128               0.999999999               0.000000511               0.000020664               0.999999999              -0.000000161               0.000021704               0.999999999              -0.000000723               0.000023093               0.999999999              -0.000001318               0.000024809               0.999999999              -0.000002055               0.000027030               0.999999999              -0.000003110               0.000029836               0.999999999              -0.000004485               0.000033044               0.999999999              -0.000006214               0.000036498               0.999999999              -0.000008268               0.000039999               0.999999999              -0.000010653               0.000043968               0.999999999              -0.000013475               0.000048300               0.999999999              -0.000016743               0.000052884               0.999999999              -0.000020490               0.000057880               0.999999999              -0.000024713               0.000063270               0.999999999               0.000007151               0.000033430               0.999999999               0.000003777               0.000030403               0.999999999               0.000002157               0.000029991               0.999999999               0.000001162               0.000030978               0.999999999               0.000000296               0.000032669               0.999999999              -0.000000602               0.000034920               0.999999999              -0.000001678               0.000037733               0.999999999              -0.000003132               0.000041232               0.999999999              -0.000004951               0.000045528               0.999999999              -0.000007170               0.000050294               0.999999999              -0.000009686               0.000055287               0.999999999              -0.000012488               0.000060465               0.999999999              -0.000015697               0.000066252               0.999999999              -0.000019286               0.000072488               0.999999999              -0.000023218               0.000079081               0.999999999              -0.000027533               0.000086161               0.999999999              -0.000032292               0.000093587               0.999999999               0.000006672               0.000044020               0.999999999               0.000004197               0.000039994               0.999999999               0.000002894               0.000039655               0.999999999               0.000001838               0.000041187               0.999999999               0.000000740               0.000043687               0.999999999              -0.000000573               0.000047012               0.999999999              -0.000002301               0.000051035               0.999999999              -0.000004486               0.000056081               0.999999999              -0.000007192               0.000061853               0.999999999              -0.000010259               0.000068218               0.999999999              -0.000013618               0.000074664               0.999999999              -0.000017296               0.000081513               0.999999999              -0.000021302               0.000089095               0.999999999              -0.000025664               0.000097174               0.999999999              -0.000030348               0.000105721               0.999999999              -0.000035485               0.000114824               0.999999999              -0.000041136               0.000124471               0.999999999               0.000006104               0.000054157               0.999999999               0.000004664               0.000049187               0.999999999               0.000003601               0.000049047               0.999999999               0.000002416               0.000051230               0.999999999               0.000000986               0.000054694               0.999999999              -0.000000845               0.000059185               0.999999999              -0.000003198               0.000064687               0.999999999              -0.000006179               0.000071334               0.999999999              -0.000009663               0.000078835               0.999999999              -0.000013534               0.000086704               0.999999999              -0.000017718               0.000094805               0.999999999              -0.000022186               0.000103507               0.999999999              -0.000027050               0.000112989               0.999999999              -0.000032368               0.000123083               0.999999999              -0.000038139               0.000133866               0.999999999              -0.000044380               0.000145308               0.999999999              -0.000051068               0.000157417               0.999999999               0.000005454               0.000063727               0.999999999               0.000005149               0.000057969               0.999999999               0.000004219               0.000058135               0.999999999               0.000002787               0.000061051               0.999999999               0.000000928               0.000065553               0.999999999              -0.000001439               0.000071357               0.999999999              -0.000004492               0.000078478               0.999999999              -0.000008223               0.000086910               0.999999999              -0.000012457               0.000096049               0.999999999              -0.000017020               0.000105732               0.999999999              -0.000021880               0.000115778               0.999999999              -0.000027139               0.000126714               0.999999999              -0.000032845               0.000138675               0.999999999              -0.000039050               0.000151389               0.999999999              -0.000045768               0.000164893               0.999999999              -0.000053022               0.000179189               0.999999999              -0.000060758               0.000194245               0.999999999               0.000004755               0.000072642               0.999999999               0.000005614               0.000066301               0.999999999               0.000004674               0.000066875               0.999999999               0.000002917               0.000070594               0.999999999               0.000000616               0.000076238               0.999999999              -0.000002353               0.000083461               0.999999999              -0.000006143               0.000092343               0.999999999              -0.000010630               0.000102524               0.999999999              -0.000015514               0.000113575               0.999999999              -0.000020636               0.000125311               0.999999999              -0.000026041               0.000137919               0.999999999              -0.000031861               0.000151774               0.999999999              -0.000038222               0.000166850               0.999999999              -0.000045223               0.000182789               0.999999999              -0.000052886               0.000199628               0.999999999              -0.000061120               0.000217441               0.999999999              -0.000069822               0.000236059               0.999999999               0.000003973               0.000080737               0.999999999               0.000006017               0.000074161               0.999999999               0.000004924               0.000075229               0.999999999               0.000002836               0.000079805               0.999999999               0.000000092               0.000086687               0.999999999              -0.000003500               0.000095528               0.999999999              -0.000008022               0.000106258               0.999999999              -0.000013138               0.000118382               0.999999999              -0.000018472               0.000131640               0.999999999              -0.000023905               0.000146082               0.999999999              -0.000029629               0.000161938               0.999999999              -0.000036107               0.000179212               0.999999999              -0.000043287               0.000197853               0.999999999              -0.000051088               0.000217524               0.999999999              -0.000059516               0.000238304               0.999999999              -0.000068433               0.000260100               0.999999999              -0.000077741               0.000282593               0.999999999               0.000003062               0.000088260               0.999999999               0.000006118               0.000082146               0.999999999               0.000005472               0.000082491               0.999999999               0.000003721               0.000086306               0.999999999               0.000001358               0.000092339               0.999999999              -0.000001627               0.000100264               0.999999999              -0.000005514               0.000109865               0.999999999              -0.000009919               0.000121033               0.999999999              -0.000014530               0.000133432               0.999999999              -0.000019201               0.000147029               0.999999999              -0.000023958               0.000161811               0.999999999              -0.000029092               0.000177893               0.999999999              -0.000034839               0.000195217               0.999999999              -0.000041032               0.000213798               0.999999999              -0.000047628               0.000233301               0.999999999              -0.000054930               0.000253871               0.999999999              -0.000062629               0.000275337               0.999999999               0.000002258               0.000094979               0.999999999               0.000005881               0.000089732               0.999999999               0.000005743               0.000089731               0.999999999               0.000004391               0.000092910               0.999999999               0.000002487               0.000098262               0.999999999               0.000000011               0.000105349               0.999999999              -0.000003126               0.000114073               0.999999999              -0.000006753               0.000124236               0.999999999              -0.000010726               0.000135762               0.999999999              -0.000014852               0.000148529               0.999999999              -0.000018828               0.000162483               0.999999999              -0.000022841               0.000177536               0.999999999              -0.000027294               0.000193718               0.999999999              -0.000032083               0.000211026               0.999999999              -0.000037111               0.000229356               0.999999999              -0.000042632               0.000248655               0.999999999              -0.000048727               0.000268802               0.999999999               0.000001544               0.000100778               0.999999999               0.000005338               0.000096676               0.999999999               0.000005640               0.000096667               0.999999999               0.000004743               0.000099427               0.999999999               0.000003267               0.000104213               0.999999999               0.000001368               0.000110666               0.999999999              -0.000001113               0.000118624               0.999999999              -0.000004003               0.000127909               0.999999999              -0.000007363               0.000138641               0.999999999              -0.000010828               0.000150657               0.999999999              -0.000014165               0.000163830               0.999999999              -0.000017400               0.000178059               0.999999999              -0.000020705               0.000193350               0.999999999              -0.000024253               0.000209574               0.999999999              -0.000027953               0.000226758               0.999999999              -0.000031812               0.000244839               0.999999999              -0.000036118               0.000263805               0.999999999               0.000000983               0.000105658               0.999999999               0.000004567               0.000102825               0.999999999               0.000005122               0.000102993               0.999999999               0.000004646               0.000105544               0.999999999               0.000003652               0.000109963               0.999999999               0.000002209               0.000115934               0.999999999               0.000000361               0.000123241               0.999999999              -0.000001932               0.000131909               0.999999999              -0.000004489               0.000141987               0.999999999              -0.000007246               0.000153369               0.999999999              -0.000009992               0.000165933               0.999999999              -0.000012570               0.000179483               0.999999999              -0.000015038               0.000193900               0.999999999              -0.000017565               0.000209251               0.999999999              -0.000020139               0.000225512               0.999999999              -0.000022631               0.000242566               0.999999999              -0.000025295               0.000260435               0.999999999               0.000000553               0.000109477               0.999999999               0.000003563               0.000107881               0.999999999               0.000004242               0.000108415               0.999999999               0.000004069               0.000110922               0.999999999               0.000003460               0.000115109               0.999999999               0.000002468               0.000120768               0.999999999               0.000001131               0.000127655               0.999999999              -0.000000447               0.000135941               0.999999999              -0.000002293               0.000145581               0.999999999              -0.000004362               0.000156396               0.999999999              -0.000006480               0.000168368               0.999999999              -0.000008458               0.000181317               0.999999999              -0.000010265               0.000195082               0.999999999              -0.000011936               0.000209755               0.999999999              -0.000013545               0.000225296               0.999999999              -0.000015137               0.000241688               0.999999999              -0.000016652               0.000258812               0.999999999               0.000000266               0.000112230               0.999999999               0.000002428               0.000111648               0.999999999               0.000003044               0.000112578               0.999999999               0.000003013               0.000115143               0.999999999               0.000002700               0.000119264               0.999999999               0.000002107               0.000124693               0.999999999               0.000001274               0.000131454               0.999999999               0.000000303               0.000139516               0.999999999              -0.000000953               0.000148735               0.999999999              -0.000002334               0.000159155               0.999999999              -0.000003723               0.000170664               0.999999999              -0.000005031               0.000183118               0.999999999              -0.000006229               0.000196496               0.999999999              -0.000007287               0.000210783               0.999999999              -0.000008233               0.000225870               0.999999999              -0.000009120               0.000241728               0.999999999              -0.000009849               0.000258328               0.999999999               0.000000104               0.000113912               0.999999999               0.000001230               0.000113971               0.999999999               0.000001588               0.000115196               0.999999999               0.000001607               0.000117870               0.999999999               0.000001492               0.000121970               0.999999999               0.000001197               0.000127321               0.999999999               0.000000861               0.000134014               0.999999999               0.000000279               0.000141941               0.999999999              -0.000000301               0.000150970               0.999999999              -0.000000936               0.000161116               0.999999999              -0.000001610               0.000172311               0.999999999              -0.000002282               0.000184518               0.999999999              -0.000002925               0.000197730               0.999999999              -0.000003441               0.000211802               0.999999999              -0.000003865               0.000226587               0.999999999              -0.000004236               0.000242151               0.999999999              -0.000004469               0.000258510               0.999999999              -0.000000000               0.000114475               0.999999999               0.000000000               0.000114754               0.999999999               0.000000000               0.000116103               0.999999999              -0.000000000               0.000118822               0.999999999              -0.000000000               0.000122886               0.999999999              -0.000000000               0.000128246               0.999999999               0.000000000               0.000134903               0.999999999              -0.000000000               0.000142809               0.999999999              -0.000000000               0.000151852               0.999999999               0.000000000               0.000161826               0.999999999              -0.000000000               0.000172879               0.999999999               0.000000000               0.000185117               0.999999999               0.000000000               0.000198260               0.999999999               0.000000000               0.000212178               0.999999999              -0.000000000               0.000226891               0.999999999              -0.000000000               0.000242397               0.999999999              -0.000000000               0.000258688               0.999999999               0.000007798               0.000000000               0.999999999               0.000003204               0.000000000               0.999999999               0.000001007               0.000000000               0.999999999              -0.000000087               0.000000000               0.999999999              -0.000000669               0.000000000               0.999999999              -0.000000935               0.000000000               0.999999999              -0.000001036               0.000000000               0.999999999              -0.000001174               0.000000000               0.999999999              -0.000001433               0.000000000               0.999999999              -0.000001958               0.000000000               0.999999999              -0.000002854              -0.000000000               0.999999999              -0.000004087              -0.000000000               0.999999999              -0.000005664              -0.000000000               0.999999999              -0.000007654              -0.000000000               0.999999999              -0.000010151              -0.000000000               0.999999999              -0.000013224              -0.000000000               0.999999999              -0.000016870              -0.000000000               0.999999999               0.000007698              -0.000011298               0.999999999               0.000003255              -0.000010295               0.999999999               0.000001155              -0.000010110               0.999999999               0.000000063              -0.000010340               0.999999999              -0.000000530              -0.000010836               0.999999999              -0.000000867              -0.000011452               0.999999999              -0.000001121              -0.000012301               0.999999999              -0.000001395              -0.000013356               0.999999999              -0.000001862              -0.000014730               0.999999999              -0.000002642              -0.000016370               0.999999999              -0.000003736              -0.000018136               0.999999999              -0.000005149              -0.000019934               0.999999999              -0.000006966              -0.000021947               0.999999999              -0.000009231              -0.000024192               0.999999999              -0.000011928              -0.000026574               0.999999999              -0.000015144              -0.000029205               0.999999999              -0.000018941              -0.000032137               0.999999999               0.000007492              -0.000022486               0.999999999               0.000003461              -0.000020467               0.999999999               0.000001557              -0.000020128               0.999999999               0.000000511              -0.000020664               0.999999999              -0.000000161              -0.000021704               0.999999999              -0.000000723              -0.000023093               0.999999999              -0.000001318              -0.000024809               0.999999999              -0.000002055              -0.000027030               0.999999999              -0.000003110              -0.000029836               0.999999999              -0.000004485              -0.000033044               0.999999999              -0.000006214              -0.000036498               0.999999999              -0.000008268              -0.000039999               0.999999999              -0.000010653              -0.000043968               0.999999999              -0.000013475              -0.000048300               0.999999999              -0.000016743              -0.000052884               0.999999999              -0.000020490              -0.000057880               0.999999999              -0.000024713              -0.000063270               0.999999999               0.000007151              -0.000033430               0.999999999               0.000003777              -0.000030403               0.999999999               0.000002157              -0.000029991               0.999999999               0.000001162              -0.000030978               0.999999999               0.000000296              -0.000032669               0.999999999              -0.000000602              -0.000034920               0.999999999              -0.000001678              -0.000037733               0.999999999              -0.000003132              -0.000041232               0.999999999              -0.000004951              -0.000045528               0.999999999              -0.000007170              -0.000050294               0.999999999              -0.000009686              -0.000055287               0.999999999              -0.000012488              -0.000060465               0.999999999              -0.000015697              -0.000066252               0.999999999              -0.000019286              -0.000072488               0.999999999              -0.000023218              -0.000079081               0.999999999              -0.000027533              -0.000086161               0.999999999              -0.000032292              -0.000093587               0.999999999               0.000006672              -0.000044020               0.999999999               0.000004197              -0.000039994               0.999999999               0.000002894              -0.000039655               0.999999999               0.000001838              -0.000041187               0.999999999               0.000000740              -0.000043687               0.999999999              -0.000000573              -0.000047012               0.999999999              -0.000002301              -0.000051035               0.999999999              -0.000004486              -0.000056081               0.999999999              -0.000007192              -0.000061853               0.999999999              -0.000010259              -0.000068218               0.999999999              -0.000013618              -0.000074664               0.999999999              -0.000017296              -0.000081513               0.999999999              -0.000021302              -0.000089095               0.999999999              -0.000025664              -0.000097174               0.999999999              -0.000030348              -0.000105721               0.999999999              -0.000035485              -0.000114824               0.999999999              -0.000041136              -0.000124471               0.999999999               0.000006104              -0.000054157               0.999999999               0.000004664              -0.000049187               0.999999999               0.000003601              -0.000049047               0.999999999               0.000002416              -0.000051230               0.999999999               0.000000986              -0.000054694               0.999999999              -0.000000845              -0.000059185               0.999999999              -0.000003198              -0.000064687               0.999999999              -0.000006179              -0.000071334               0.999999999              -0.000009663              -0.000078835               0.999999999              -0.000013534              -0.000086704               0.999999999              -0.000017718              -0.000094805               0.999999999              -0.000022186              -0.000103507               0.999999999              -0.000027050              -0.000112989               0.999999999              -0.000032368              -0.000123083               0.999999999              -0.000038139              -0.000133866               0.999999999              -0.000044380              -0.000145308               0.999999999              -0.000051068              -0.000157417               0.999999999               0.000005454              -0.000063727               0.999999999               0.000005149              -0.000057969               0.999999999               0.000004219              -0.000058135               0.999999999               0.000002787              -0.000061051               0.999999999               0.000000928              -0.000065553               0.999999999              -0.000001439              -0.000071357               0.999999999              -0.000004492              -0.000078478               0.999999999              -0.000008223              -0.000086910               0.999999999              -0.000012457              -0.000096049               0.999999999              -0.000017020              -0.000105732               0.999999999              -0.000021880              -0.000115778               0.999999999              -0.000027139              -0.000126714               0.999999999              -0.000032845              -0.000138675               0.999999999              -0.000039050              -0.000151389               0.999999999              -0.000045768              -0.000164893               0.999999999              -0.000053022              -0.000179189               0.999999999              -0.000060758              -0.000194245               0.999999999               0.000004755              -0.000072642               0.999999999               0.000005614              -0.000066301               0.999999999               0.000004674              -0.000066875               0.999999999               0.000002917              -0.000070594               0.999999999               0.000000616              -0.000076238               0.999999999              -0.000002353              -0.000083461               0.999999999              -0.000006143              -0.000092343               0.999999999              -0.000010630              -0.000102524               0.999999999              -0.000015514              -0.000113575               0.999999999              -0.000020636              -0.000125311               0.999999999              -0.000026041              -0.000137919               0.999999999              -0.000031861              -0.000151774               0.999999999              -0.000038222              -0.000166850               0.999999999              -0.000045223              -0.000182789               0.999999999              -0.000052886              -0.000199628               0.999999999              -0.000061120              -0.000217441               0.999999999              -0.000069822              -0.000236059               0.999999999               0.000003973              -0.000080737               0.999999999               0.000006017              -0.000074161               0.999999999               0.000004924              -0.000075229               0.999999999               0.000002836              -0.000079805               0.999999999               0.000000092              -0.000086687               0.999999999              -0.000003500              -0.000095528               0.999999999              -0.000008022              -0.000106258               0.999999999              -0.000013138              -0.000118382               0.999999999              -0.000018472              -0.000131640               0.999999999              -0.000023905              -0.000146082               0.999999999              -0.000029629              -0.000161938               0.999999999              -0.000036107              -0.000179212               0.999999999              -0.000043287              -0.000197853               0.999999999              -0.000051088              -0.000217524               0.999999999              -0.000059516              -0.000238304               0.999999999              -0.000068433              -0.000260100               0.999999999              -0.000077741              -0.000282593               0.999999999               0.000003062              -0.000088260               0.999999999               0.000006118              -0.000082146               0.999999999               0.000005472              -0.000082491               0.999999999               0.000003721              -0.000086306               0.999999999               0.000001358              -0.000092339               0.999999999              -0.000001627              -0.000100264               0.999999999              -0.000005514              -0.000109865               0.999999999              -0.000009919              -0.000121033               0.999999999              -0.000014530              -0.000133432               0.999999999              -0.000019201              -0.000147029               0.999999999              -0.000023958              -0.000161811               0.999999999              -0.000029092              -0.000177893               0.999999999              -0.000034839              -0.000195217               0.999999999              -0.000041032              -0.000213798               0.999999999              -0.000047628              -0.000233301               0.999999999              -0.000054930              -0.000253871               0.999999999              -0.000062629              -0.000275337               0.999999999               0.000002258              -0.000094979               0.999999999               0.000005881              -0.000089732               0.999999999               0.000005743              -0.000089731               0.999999999               0.000004391              -0.000092910               0.999999999               0.000002487              -0.000098262               0.999999999               0.000000011              -0.000105349               0.999999999              -0.000003126              -0.000114073               0.999999999              -0.000006753              -0.000124236               0.999999999              -0.000010726              -0.000135762               0.999999999              -0.000014852              -0.000148529               0.999999999              -0.000018828              -0.000162483               0.999999999              -0.000022841              -0.000177536               0.999999999              -0.000027294              -0.000193718               0.999999999              -0.000032083              -0.000211026               0.999999999              -0.000037111              -0.000229356               0.999999999              -0.000042632              -0.000248655               0.999999999              -0.000048727              -0.000268802               0.999999999               0.000001544              -0.000100778               0.999999999               0.000005338              -0.000096676               0.999999999               0.000005640              -0.000096667               0.999999999               0.000004743              -0.000099427               0.999999999               0.000003267              -0.000104213               0.999999999               0.000001368              -0.000110666               0.999999999              -0.000001113              -0.000118624               0.999999999              -0.000004003              -0.000127909               0.999999999              -0.000007363              -0.000138641               0.999999999              -0.000010828              -0.000150657               0.999999999              -0.000014165              -0.000163830               0.999999999              -0.000017400              -0.000178059               0.999999999              -0.000020705              -0.000193350               0.999999999              -0.000024253              -0.000209574               0.999999999              -0.000027953              -0.000226758               0.999999999              -0.000031812              -0.000244839               0.999999999              -0.000036118              -0.000263805               0.999999999               0.000000983              -0.000105658               0.999999999               0.000004567              -0.000102825               0.999999999               0.000005122              -0.000102993               0.999999999               0.000004646              -0.000105544               0.999999999               0.000003652              -0.000109963               0.999999999               0.000002209              -0.000115934               0.999999999               0.000000361              -0.000123241               0.999999999              -0.000001932              -0.000131909               0.999999999              -0.000004489              -0.000141987               0.999999999              -0.000007246              -0.000153369               0.999999999              -0.000009992              -0.000165933               0.999999999              -0.000012570              -0.000179483               0.999999999              -0.000015038              -0.000193900               0.999999999              -0.000017565              -0.000209251               0.999999999              -0.000020139              -0.000225512               0.999999999              -0.000022631              -0.000242566               0.999999999              -0.000025295              -0.000260435               0.999999999               0.000000553              -0.000109477               0.999999999               0.000003563              -0.000107881               0.999999999               0.000004242              -0.000108415               0.999999999               0.000004069              -0.000110922               0.999999999               0.000003460              -0.000115109               0.999999999               0.000002468              -0.000120768               0.999999999               0.000001131              -0.000127655               0.999999999              -0.000000447              -0.000135941               0.999999999              -0.000002293              -0.000145581               0.999999999              -0.000004362              -0.000156396               0.999999999              -0.000006480              -0.000168368               0.999999999              -0.000008458              -0.000181317               0.999999999              -0.000010265              -0.000195082               0.999999999              -0.000011936              -0.000209755               0.999999999              -0.000013545              -0.000225296               0.999999999              -0.000015137              -0.000241688               0.999999999              -0.000016652              -0.000258812               0.999999999               0.000000266              -0.000112230               0.999999999               0.000002428              -0.000111648               0.999999999               0.000003044              -0.000112578               0.999999999               0.000003013              -0.000115143               0.999999999               0.000002700              -0.000119264               0.999999999               0.000002107              -0.000124693               0.999999999               0.000001274              -0.000131454               0.999999999               0.000000303              -0.000139516               0.999999999              -0.000000953              -0.000148735               0.999999999              -0.000002334              -0.000159155               0.999999999              -0.000003723              -0.000170664               0.999999999              -0.000005031              -0.000183118               0.999999999              -0.000006229              -0.000196496               0.999999999              -0.000007287              -0.000210783               0.999999999              -0.000008233              -0.000225870               0.999999999              -0.000009120              -0.000241728               0.999999999              -0.000009849              -0.000258328               0.999999999               0.000000104              -0.000113912               0.999999999               0.000001230              -0.000113971               0.999999999               0.000001588              -0.000115196               0.999999999               0.000001607              -0.000117870               0.999999999               0.000001492              -0.000121970               0.999999999               0.000001197              -0.000127321               0.999999999               0.000000861              -0.000134014               0.999999999               0.000000279              -0.000141941               0.999999999              -0.000000301              -0.000150970               0.999999999              -0.000000936              -0.000161116               0.999999999              -0.000001610              -0.000172311               0.999999999              -0.000002282              -0.000184518               0.999999999              -0.000002925              -0.000197730               0.999999999              -0.000003441              -0.000211802               0.999999999              -0.000003865              -0.000226587               0.999999999              -0.000004236              -0.000242151               0.999999999              -0.000004469              -0.000258510               0.999999999               0.000000000              -0.000114475               0.999999999               0.000000000              -0.000114754               0.999999999              -0.000000000              -0.000116103               0.999999999               0.000000000              -0.000118822               0.999999999               0.000000000              -0.000122886               0.999999999               0.000000000              -0.000128246               0.999999999              -0.000000000              -0.000134903               0.999999999               0.000000000              -0.000142809               0.999999999              -0.000000000              -0.000151852               0.999999999              -0.000000000              -0.000161826               0.999999999              -0.000000000              -0.000172879               0.999999999              -0.000000000              -0.000185117               0.999999999              -0.000000000              -0.000198260               0.999999999              -0.000000000              -0.000212178               0.999999999              -0.000000000              -0.000226891               0.999999999               0.000000000              -0.000242397               0.999999999               0.000000000              -0.000258688               0.999999999              -0.000007798              -0.000000000               0.999999999              -0.000003204               0.000000000               0.999999999              -0.000001007               0.000000000               0.999999999               0.000000087               0.000000000               0.999999999               0.000000669               0.000000000               0.999999999               0.000000935               0.000000000               0.999999999               0.000001036              -0.000000000               0.999999999               0.000001174              -0.000000000               0.999999999               0.000001433              -0.000000000               0.999999999               0.000001958              -0.000000000               0.999999999               0.000002854              -0.000000000               0.999999999               0.000004087              -0.000000000               0.999999999               0.000005664              -0.000000000               0.999999999               0.000007654              -0.000000000               0.999999999               0.000010151              -0.000000000               0.999999999               0.000013224              -0.000000000               0.999999999               0.000016870              -0.000000000               0.999999999              -0.000007698              -0.000011298               0.999999999              -0.000003255              -0.000010295               0.999999999              -0.000001155              -0.000010110               0.999999999              -0.000000063              -0.000010340               0.999999999               0.000000530              -0.000010836               0.999999999               0.000000867              -0.000011452               0.999999999               0.000001121              -0.000012301               0.999999999               0.000001395              -0.000013356               0.999999999               0.000001862              -0.000014730               0.999999999               0.000002642              -0.000016370               0.999999999               0.000003736              -0.000018136               0.999999999               0.000005149              -0.000019934               0.999999999               0.000006966              -0.000021947               0.999999999               0.000009231              -0.000024192               0.999999999               0.000011928              -0.000026574               0.999999999               0.000015144              -0.000029205               0.999999999               0.000018941              -0.000032137               0.999999999              -0.000007492              -0.000022486               0.999999999              -0.000003461              -0.000020467               0.999999999              -0.000001557              -0.000020128               0.999999999              -0.000000511              -0.000020664               0.999999999               0.000000161              -0.000021704               0.999999999               0.000000723              -0.000023093               0.999999999               0.000001318              -0.000024809               0.999999999               0.000002055              -0.000027030               0.999999999               0.000003110              -0.000029836               0.999999999               0.000004485              -0.000033044               0.999999999               0.000006214              -0.000036498               0.999999999               0.000008268              -0.000039999               0.999999999               0.000010653              -0.000043968               0.999999999               0.000013475              -0.000048300               0.999999999               0.000016743              -0.000052884               0.999999999               0.000020490              -0.000057880               0.999999999               0.000024713              -0.000063270               0.999999999              -0.000007151              -0.000033430               0.999999999              -0.000003777              -0.000030403               0.999999999              -0.000002157              -0.000029991               0.999999999              -0.000001162              -0.000030978               0.999999999              -0.000000296              -0.000032669               0.999999999               0.000000602              -0.000034920               0.999999999               0.000001678              -0.000037733               0.999999999               0.000003132              -0.000041232               0.999999999               0.000004951              -0.000045528               0.999999999               0.000007170              -0.000050294               0.999999999               0.000009686              -0.000055287               0.999999999               0.000012488              -0.000060465               0.999999999               0.000015697              -0.000066252               0.999999999               0.000019286              -0.000072488               0.999999999               0.000023218              -0.000079081               0.999999999               0.000027533              -0.000086161               0.999999999               0.000032292              -0.000093587               0.999999999              -0.000006672              -0.000044020               0.999999999              -0.000004197              -0.000039994               0.999999999              -0.000002894              -0.000039655               0.999999999              -0.000001838              -0.000041187               0.999999999              -0.000000740              -0.000043687               0.999999999               0.000000573              -0.000047012               0.999999999               0.000002301              -0.000051035               0.999999999               0.000004486              -0.000056081               0.999999999               0.000007192              -0.000061853               0.999999999               0.000010259              -0.000068218               0.999999999               0.000013618              -0.000074664               0.999999999               0.000017296              -0.000081513               0.999999999               0.000021302              -0.000089095               0.999999999               0.000025664              -0.000097174               0.999999999               0.000030348              -0.000105721               0.999999999               0.000035485              -0.000114824               0.999999999               0.000041136              -0.000124471               0.999999999              -0.000006104              -0.000054157               0.999999999              -0.000004664              -0.000049187               0.999999999              -0.000003601              -0.000049047               0.999999999              -0.000002416              -0.000051230               0.999999999              -0.000000986              -0.000054694               0.999999999               0.000000845              -0.000059185               0.999999999               0.000003198              -0.000064687               0.999999999               0.000006179              -0.000071334               0.999999999               0.000009663              -0.000078835               0.999999999               0.000013534              -0.000086704               0.999999999               0.000017718              -0.000094805               0.999999999               0.000022186              -0.000103507               0.999999999               0.000027050              -0.000112989               0.999999999               0.000032368              -0.000123083               0.999999999               0.000038139              -0.000133866               0.999999999               0.000044380              -0.000145308               0.999999999               0.000051068              -0.000157417               0.999999999              -0.000005454              -0.000063727               0.999999999              -0.000005149              -0.000057969               0.999999999              -0.000004219              -0.000058135               0.999999999              -0.000002787              -0.000061051               0.999999999              -0.000000928              -0.000065553               0.999999999               0.000001439              -0.000071357               0.999999999               0.000004492              -0.000078478               0.999999999               0.000008223              -0.000086910               0.999999999               0.000012457              -0.000096049               0.999999999               0.000017020              -0.000105732               0.999999999               0.000021880              -0.000115778               0.999999999               0.000027139              -0.000126714               0.999999999               0.000032845              -0.000138675               0.999999999               0.000039050              -0.000151389               0.999999999               0.000045768              -0.000164893               0.999999999               0.000053022              -0.000179189               0.999999999               0.000060758              -0.000194245               0.999999999              -0.000004755              -0.000072642               0.999999999              -0.000005614              -0.000066301               0.999999999              -0.000004674              -0.000066875               0.999999999              -0.000002917              -0.000070594               0.999999999              -0.000000616              -0.000076238               0.999999999               0.000002353              -0.000083461               0.999999999               0.000006143              -0.000092343               0.999999999               0.000010630              -0.000102524               0.999999999               0.000015514              -0.000113575               0.999999999               0.000020636              -0.000125311               0.999999999               0.000026041              -0.000137919               0.999999999               0.000031861              -0.000151774               0.999999999               0.000038222              -0.000166850               0.999999999               0.000045223              -0.000182789               0.999999999               0.000052886              -0.000199628               0.999999999               0.000061120              -0.000217441               0.999999999               0.000069822              -0.000236059               0.999999999              -0.000003973              -0.000080737               0.999999999              -0.000006017              -0.000074161               0.999999999              -0.000004924              -0.000075229               0.999999999              -0.000002836              -0.000079805               0.999999999              -0.000000092              -0.000086687               0.999999999               0.000003500              -0.000095528               0.999999999               0.000008022              -0.000106258               0.999999999               0.000013138              -0.000118382               0.999999999               0.000018472              -0.000131640               0.999999999               0.000023905              -0.000146082               0.999999999               0.000029629              -0.000161938               0.999999999               0.000036107              -0.000179212               0.999999999               0.000043287              -0.000197853               0.999999999               0.000051088              -0.000217524               0.999999999               0.000059516              -0.000238304               0.999999999               0.000068433              -0.000260100               0.999999999               0.000077741              -0.000282593               0.999999999              -0.000003062              -0.000088260               0.999999999              -0.000006118              -0.000082146               0.999999999              -0.000005472              -0.000082491               0.999999999              -0.000003721              -0.000086306               0.999999999              -0.000001358              -0.000092339               0.999999999               0.000001627              -0.000100264               0.999999999               0.000005514              -0.000109865               0.999999999               0.000009919              -0.000121033               0.999999999               0.000014530              -0.000133432               0.999999999               0.000019201              -0.000147029               0.999999999               0.000023958              -0.000161811               0.999999999               0.000029092              -0.000177893               0.999999999               0.000034839              -0.000195217               0.999999999               0.000041032              -0.000213798               0.999999999               0.000047628              -0.000233301               0.999999999               0.000054930              -0.000253871               0.999999999               0.000062629              -0.000275337               0.999999999              -0.000002258              -0.000094979               0.999999999              -0.000005881              -0.000089732               0.999999999              -0.000005743              -0.000089731               0.999999999              -0.000004391              -0.000092910               0.999999999              -0.000002487              -0.000098262               0.999999999              -0.000000011              -0.000105349               0.999999999               0.000003126              -0.000114073               0.999999999               0.000006753              -0.000124236               0.999999999               0.000010726              -0.000135762               0.999999999               0.000014852              -0.000148529               0.999999999               0.000018828              -0.000162483               0.999999999               0.000022841              -0.000177536               0.999999999               0.000027294              -0.000193718               0.999999999               0.000032083              -0.000211026               0.999999999               0.000037111              -0.000229356               0.999999999               0.000042632              -0.000248655               0.999999999               0.000048727              -0.000268802               0.999999999              -0.000001544              -0.000100778               0.999999999              -0.000005338              -0.000096676               0.999999999              -0.000005640              -0.000096667               0.999999999              -0.000004743              -0.000099427               0.999999999              -0.000003267              -0.000104213               0.999999999              -0.000001368              -0.000110666               0.999999999               0.000001113              -0.000118624               0.999999999               0.000004003              -0.000127909               0.999999999               0.000007363              -0.000138641               0.999999999               0.000010828              -0.000150657               0.999999999               0.000014165              -0.000163830               0.999999999               0.000017400              -0.000178059               0.999999999               0.000020705              -0.000193350               0.999999999               0.000024253              -0.000209574               0.999999999               0.000027953              -0.000226758               0.999999999               0.000031812              -0.000244839               0.999999999               0.000036118              -0.000263805               0.999999999              -0.000000983              -0.000105658               0.999999999              -0.000004567              -0.000102825               0.999999999              -0.000005122              -0.000102993               0.999999999              -0.000004646              -0.000105544               0.999999999              -0.000003652              -0.000109963               0.999999999              -0.000002209              -0.000115934               0.999999999              -0.000000361              -0.000123241               0.999999999               0.000001932              -0.000131909               0.999999999               0.000004489              -0.000141987               0.999999999               0.000007246              -0.000153369               0.999999999               0.000009992              -0.000165933               0.999999999               0.000012570              -0.000179483               0.999999999               0.000015038              -0.000193900               0.999999999               0.000017565              -0.000209251               0.999999999               0.000020139              -0.000225512               0.999999999               0.000022631              -0.000242566               0.999999999               0.000025295              -0.000260435               0.999999999              -0.000000553              -0.000109477               0.999999999              -0.000003563              -0.000107881               0.999999999              -0.000004242              -0.000108415               0.999999999              -0.000004069              -0.000110922               0.999999999              -0.000003460              -0.000115109               0.999999999              -0.000002468              -0.000120768               0.999999999              -0.000001131              -0.000127655               0.999999999               0.000000447              -0.000135941               0.999999999               0.000002293              -0.000145581               0.999999999               0.000004362              -0.000156396               0.999999999               0.000006480              -0.000168368               0.999999999               0.000008458              -0.000181317               0.999999999               0.000010265              -0.000195082               0.999999999               0.000011936              -0.000209755               0.999999999               0.000013545              -0.000225296               0.999999999               0.000015137              -0.000241688               0.999999999               0.000016652              -0.000258812               0.999999999              -0.000000266              -0.000112230               0.999999999              -0.000002428              -0.000111648               0.999999999              -0.000003044              -0.000112578               0.999999999              -0.000003013              -0.000115143               0.999999999              -0.000002700              -0.000119264               0.999999999              -0.000002107              -0.000124693               0.999999999              -0.000001274              -0.000131454               0.999999999              -0.000000303              -0.000139516               0.999999999               0.000000953              -0.000148735               0.999999999               0.000002334              -0.000159155               0.999999999               0.000003723              -0.000170664               0.999999999               0.000005031              -0.000183118               0.999999999               0.000006229              -0.000196496               0.999999999               0.000007287              -0.000210783               0.999999999               0.000008233              -0.000225870               0.999999999               0.000009120              -0.000241728               0.999999999               0.000009849              -0.000258328               0.999999999              -0.000000104              -0.000113912               0.999999999              -0.000001230              -0.000113971               0.999999999              -0.000001588              -0.000115196               0.999999999              -0.000001607              -0.000117870               0.999999999              -0.000001492              -0.000121970               0.999999999              -0.000001197              -0.000127321               0.999999999              -0.000000861              -0.000134014               0.999999999              -0.000000279              -0.000141941               0.999999999               0.000000301              -0.000150970               0.999999999               0.000000936              -0.000161116               0.999999999               0.000001610              -0.000172311               0.999999999               0.000002282              -0.000184518               0.999999999               0.000002925              -0.000197730               0.999999999               0.000003441              -0.000211802               0.999999999               0.000003865              -0.000226587               0.999999999               0.000004236              -0.000242151               0.999999999               0.000004469              -0.000258510               0.999999999               0.000000000              -0.000114475               0.999999999               0.000000000              -0.000114754               0.999999999              -0.000000000              -0.000116103               0.999999999               0.000000000              -0.000118822               0.999999999               0.000000000              -0.000122886               0.999999999               0.000000000              -0.000128246               0.999999999              -0.000000000              -0.000134903               0.999999999               0.000000000              -0.000142809               0.999999999              -0.000000000              -0.000151852               0.999999999              -0.000000000              -0.000161826               0.999999999              -0.000000000              -0.000172879               0.999999999              -0.000000000              -0.000185117               0.999999999              -0.000000000              -0.000198260               0.999999999              -0.000000000              -0.000212178               0.999999999              -0.000000000              -0.000226891               0.999999999               0.000000000              -0.000242397               0.999999999               0.000000000              -0.000258688               0.999999999              -0.000007798              -0.000000000               0.999999999              -0.000003204               0.000000000               0.999999999              -0.000001007               0.000000000               0.999999999               0.000000087               0.000000000               0.999999999               0.000000669               0.000000000               0.999999999               0.000000935               0.000000000               0.999999999               0.000001036              -0.000000000               0.999999999               0.000001174              -0.000000000               0.999999999               0.000001433              -0.000000000               0.999999999               0.000001958              -0.000000000               0.999999999               0.000002854              -0.000000000               0.999999999               0.000004087              -0.000000000               0.999999999               0.000005664              -0.000000000               0.999999999               0.000007654              -0.000000000               0.999999999               0.000010151              -0.000000000               0.999999999               0.000013224              -0.000000000               0.999999999               0.000016870              -0.000000000               0.999999999              -0.000007698               0.000011298               0.999999999              -0.000003255               0.000010295               0.999999999              -0.000001155               0.000010110               0.999999999              -0.000000063               0.000010340               0.999999999               0.000000530               0.000010836               0.999999999               0.000000867               0.000011452               0.999999999               0.000001121               0.000012301               0.999999999               0.000001395               0.000013356               0.999999999               0.000001862               0.000014730               0.999999999               0.000002642               0.000016370               0.999999999               0.000003736               0.000018136               0.999999999               0.000005149               0.000019934               0.999999999               0.000006966               0.000021947               0.999999999               0.000009231               0.000024192               0.999999999               0.000011928               0.000026574               0.999999999               0.000015144               0.000029205               0.999999999               0.000018941               0.000032137               0.999999999              -0.000007492               0.000022486               0.999999999              -0.000003461               0.000020467               0.999999999              -0.000001557               0.000020128               0.999999999              -0.000000511               0.000020664               0.999999999               0.000000161               0.000021704               0.999999999               0.000000723               0.000023093               0.999999999               0.000001318               0.000024809               0.999999999               0.000002055               0.000027030               0.999999999               0.000003110               0.000029836               0.999999999               0.000004485               0.000033044               0.999999999               0.000006214               0.000036498               0.999999999               0.000008268               0.000039999               0.999999999               0.000010653               0.000043968               0.999999999               0.000013475               0.000048300               0.999999999               0.000016743               0.000052884               0.999999999               0.000020490               0.000057880               0.999999999               0.000024713               0.000063270               0.999999999              -0.000007151               0.000033430               0.999999999              -0.000003777               0.000030403               0.999999999              -0.000002157               0.000029991               0.999999999              -0.000001162               0.000030978               0.999999999              -0.000000296               0.000032669               0.999999999               0.000000602               0.000034920               0.999999999               0.000001678               0.000037733               0.999999999               0.000003132               0.000041232               0.999999999               0.000004951               0.000045528               0.999999999               0.000007170               0.000050294               0.999999999               0.000009686               0.000055287               0.999999999               0.000012488               0.000060465               0.999999999               0.000015697               0.000066252               0.999999999               0.000019286               0.000072488               0.999999999               0.000023218               0.000079081               0.999999999               0.000027533               0.000086161               0.999999999               0.000032292               0.000093587               0.999999999              -0.000006672               0.000044020               0.999999999              -0.000004197               0.000039994               0.999999999              -0.000002894               0.000039655               0.999999999              -0.000001838               0.000041187               0.999999999              -0.000000740               0.000043687               0.999999999               0.000000573               0.000047012               0.999999999               0.000002301               0.000051035               0.999999999               0.000004486               0.000056081               0.999999999               0.000007192               0.000061853               0.999999999               0.000010259               0.000068218               0.999999999               0.000013618               0.000074664               0.999999999               0.000017296               0.000081513               0.999999999               0.000021302               0.000089095               0.999999999               0.000025664               0.000097174               0.999999999               0.000030348               0.000105721               0.999999999               0.000035485               0.000114824               0.999999999               0.000041136               0.000124471               0.999999999              -0.000006104               0.000054157               0.999999999              -0.000004664               0.000049187               0.999999999              -0.000003601               0.000049047               0.999999999              -0.000002416               0.000051230               0.999999999              -0.000000986               0.000054694               0.999999999               0.000000845               0.000059185               0.999999999               0.000003198               0.000064687               0.999999999               0.000006179               0.000071334               0.999999999               0.000009663               0.000078835               0.999999999               0.000013534               0.000086704               0.999999999               0.000017718               0.000094805               0.999999999               0.000022186               0.000103507               0.999999999               0.000027050               0.000112989               0.999999999               0.000032368               0.000123083               0.999999999               0.000038139               0.000133866               0.999999999               0.000044380               0.000145308               0.999999999               0.000051068               0.000157417               0.999999999              -0.000005454               0.000063727               0.999999999              -0.000005149               0.000057969               0.999999999              -0.000004219               0.000058135               0.999999999              -0.000002787               0.000061051               0.999999999              -0.000000928               0.000065553               0.999999999               0.000001439               0.000071357               0.999999999               0.000004492               0.000078478               0.999999999               0.000008223               0.000086910               0.999999999               0.000012457               0.000096049               0.999999999               0.000017020               0.000105732               0.999999999               0.000021880               0.000115778               0.999999999               0.000027139               0.000126714               0.999999999               0.000032845               0.000138675               0.999999999               0.000039050               0.000151389               0.999999999               0.000045768               0.000164893               0.999999999               0.000053022               0.000179189               0.999999999               0.000060758               0.000194245               0.999999999              -0.000004755               0.000072642               0.999999999              -0.000005614               0.000066301               0.999999999              -0.000004674               0.000066875               0.999999999              -0.000002917               0.000070594               0.999999999              -0.000000616               0.000076238               0.999999999               0.000002353               0.000083461               0.999999999               0.000006143               0.000092343               0.999999999               0.000010630               0.000102524               0.999999999               0.000015514               0.000113575               0.999999999               0.000020636               0.000125311               0.999999999               0.000026041               0.000137919               0.999999999               0.000031861               0.000151774               0.999999999               0.000038222               0.000166850               0.999999999               0.000045223               0.000182789               0.999999999               0.000052886               0.000199628               0.999999999               0.000061120               0.000217441               0.999999999               0.000069822               0.000236059               0.999999999              -0.000003973               0.000080737               0.999999999              -0.000006017               0.000074161               0.999999999              -0.000004924               0.000075229               0.999999999              -0.000002836               0.000079805               0.999999999              -0.000000092               0.000086687               0.999999999               0.000003500               0.000095528               0.999999999               0.000008022               0.000106258               0.999999999               0.000013138               0.000118382               0.999999999               0.000018472               0.000131640               0.999999999               0.000023905               0.000146082               0.999999999               0.000029629               0.000161938               0.999999999               0.000036107               0.000179212               0.999999999               0.000043287               0.000197853               0.999999999               0.000051088               0.000217524               0.999999999               0.000059516               0.000238304               0.999999999               0.000068433               0.000260100               0.999999999               0.000077741               0.000282593               0.999999999              -0.000003062               0.000088260               0.999999999              -0.000006118               0.000082146               0.999999999              -0.000005472               0.000082491               0.999999999              -0.000003721               0.000086306               0.999999999              -0.000001358               0.000092339               0.999999999               0.000001627               0.000100264               0.999999999               0.000005514               0.000109865               0.999999999               0.000009919               0.000121033               0.999999999               0.000014530               0.000133432               0.999999999               0.000019201               0.000147029               0.999999999               0.000023958               0.000161811               0.999999999               0.000029092               0.000177893               0.999999999               0.000034839               0.000195217               0.999999999               0.000041032               0.000213798               0.999999999               0.000047628               0.000233301               0.999999999               0.000054930               0.000253871               0.999999999               0.000062629               0.000275337               0.999999999              -0.000002258               0.000094979               0.999999999              -0.000005881               0.000089732               0.999999999              -0.000005743               0.000089731               0.999999999              -0.000004391               0.000092910               0.999999999              -0.000002487               0.000098262               0.999999999              -0.000000011               0.000105349               0.999999999               0.000003126               0.000114073               0.999999999               0.000006753               0.000124236               0.999999999               0.000010726               0.000135762               0.999999999               0.000014852               0.000148529               0.999999999               0.000018828               0.000162483               0.999999999               0.000022841               0.000177536               0.999999999               0.000027294               0.000193718               0.999999999               0.000032083               0.000211026               0.999999999               0.000037111               0.000229356               0.999999999               0.000042632               0.000248655               0.999999999               0.000048727               0.000268802               0.999999999              -0.000001544               0.000100778               0.999999999              -0.000005338               0.000096676               0.999999999              -0.000005640               0.000096667               0.999999999              -0.000004743               0.000099427               0.999999999              -0.000003267               0.000104213               0.999999999              -0.000001368               0.000110666               0.999999999               0.000001113               0.000118624               0.999999999               0.000004003               0.000127909               0.999999999               0.000007363               0.000138641               0.999999999               0.000010828               0.000150657               0.999999999               0.000014165               0.000163830               0.999999999               0.000017400               0.000178059               0.999999999               0.000020705               0.000193350               0.999999999               0.000024253               0.000209574               0.999999999               0.000027953               0.000226758               0.999999999               0.000031812               0.000244839               0.999999999               0.000036118               0.000263805               0.999999999              -0.000000983               0.000105658               0.999999999              -0.000004567               0.000102825               0.999999999              -0.000005122               0.000102993               0.999999999              -0.000004646               0.000105544               0.999999999              -0.000003652               0.000109963               0.999999999              -0.000002209               0.000115934               0.999999999              -0.000000361               0.000123241               0.999999999               0.000001932               0.000131909               0.999999999               0.000004489               0.000141987               0.999999999               0.000007246               0.000153369               0.999999999               0.000009992               0.000165933               0.999999999               0.000012570               0.000179483               0.999999999               0.000015038               0.000193900               0.999999999               0.000017565               0.000209251               0.999999999               0.000020139               0.000225512               0.999999999               0.000022631               0.000242566               0.999999999               0.000025295               0.000260435               0.999999999              -0.000000553               0.000109477               0.999999999              -0.000003563               0.000107881               0.999999999              -0.000004242               0.000108415               0.999999999              -0.000004069               0.000110922               0.999999999              -0.000003460               0.000115109               0.999999999              -0.000002468               0.000120768               0.999999999              -0.000001131               0.000127655               0.999999999               0.000000447               0.000135941               0.999999999               0.000002293               0.000145581               0.999999999               0.000004362               0.000156396               0.999999999               0.000006480               0.000168368               0.999999999               0.000008458               0.000181317               0.999999999               0.000010265               0.000195082               0.999999999               0.000011936               0.000209755               0.999999999               0.000013545               0.000225296               0.999999999               0.000015137               0.000241688               0.999999999               0.000016652               0.000258812               0.999999999              -0.000000266               0.000112230               0.999999999              -0.000002428               0.000111648               0.999999999              -0.000003044               0.000112578               0.999999999              -0.000003013               0.000115143               0.999999999              -0.000002700               0.000119264               0.999999999              -0.000002107               0.000124693               0.999999999              -0.000001274               0.000131454               0.999999999              -0.000000303               0.000139516               0.999999999               0.000000953               0.000148735               0.999999999               0.000002334               0.000159155               0.999999999               0.000003723               0.000170664               0.999999999               0.000005031               0.000183118               0.999999999               0.000006229               0.000196496               0.999999999               0.000007287               0.000210783               0.999999999               0.000008233               0.000225870               0.999999999               0.000009120               0.000241728               0.999999999               0.000009849               0.000258328               0.999999999              -0.000000104               0.000113912               0.999999999              -0.000001230               0.000113971               0.999999999              -0.000001588               0.000115196               0.999999999              -0.000001607               0.000117870               0.999999999              -0.000001492               0.000121970               0.999999999              -0.000001197               0.000127321               0.999999999              -0.000000861               0.000134014               0.999999999              -0.000000279               0.000141941               0.999999999               0.000000301               0.000150970               0.999999999               0.000000936               0.000161116               0.999999999               0.000001610               0.000172311               0.999999999               0.000002282               0.000184518               0.999999999               0.000002925               0.000197730               0.999999999               0.000003441               0.000211802               0.999999999               0.000003865               0.000226587               0.999999999               0.000004236               0.000242151               0.999999999               0.000004469               0.000258510               0.999999999              -0.000000000               0.000114475               0.999999999               0.000000000               0.000114754               0.999999999               0.000000000               0.000116103               0.999999999              -0.000000000               0.000118822               0.999999999              -0.000000000               0.000122886               0.999999999              -0.000000000               0.000128246               0.999999999               0.000000000               0.000134903               0.999999999              -0.000000000               0.000142809               0.999999999              -0.000000000               0.000151852               0.999999999               0.000000000               0.000161826               0.999999999              -0.000000000               0.000172879               0.999999999               0.000000000               0.000185117               0.999999999               0.000000000               0.000198260               0.999999999               0.000000000               0.000212178               0.999999999              -0.000000000               0.000226891               0.999999999              -0.000000000               0.000242397               0.999999999              -0.000000000               0.000258688               0.999999999 </DataArray>
<DataArray type="Float64"                                    Name="stress"                                                      NumberOfComponents="10" format="ascii">
              0.000184972               0.002134185              -0.000000000              -0.000197408               0.000777191               0.000579783               0.000000000               0.000000000               0.000000000               0.000000000               0.000217265               0.001793486              -0.000000000              -0.000142711               0.000645393               0.000502682               0.000000000               0.000000000               0.000000000               0.000000000               0.000319076               0.001516884              -0.000000000              -0.000069957               0.000528942               0.000458985               0.000000000               0.000000000               0.000000000               0.000000000               0.000356115               0.001358927              -0.000000000              -0.000036323               0.000465079               0.000428756               0.000000000               0.000000000               0.000000000               0.000000000               0.000370125               0.001262453               0.000000000              -0.000019010               0.000427150               0.000408140               0.000000000               0.000000000               0.000000000               0.000000000               0.000374370               0.001199888              -0.000000000              -0.000009597               0.000403158               0.000393561               0.000000000               0.000000000               0.000000000               0.000000000               0.000368835               0.001164255              -0.000000000              -0.000007219               0.000390487               0.000383269               0.000000000               0.000000000               0.000000000               0.000000000               0.000353893               0.001149153              -0.000000000              -0.000010934               0.000386692               0.000375758               0.000000000               0.000000000               0.000000000               0.000000000               0.000330994               0.001153607              -0.000000000              -0.000020078               0.000391224               0.000371146               0.000000000               0.000000000               0.000000000               0.000000000               0.000300146               0.001169927              -0.000000000              -0.000033686               0.000401201               0.000367514               0.000000000               0.000000000               0.000000000               0.000000000               0.000267679               0.001190062              -0.000000000              -0.000048378               0.000412809               0.000364431               0.000000000               0.000000000               0.000000000               0.000000000               0.000234341               0.001210253              -0.000000000              -0.000063404               0.000424548               0.000361145               0.000000000               0.000000000               0.000000000               0.000000000               0.000197169               0.001235252              -0.000000000              -0.000080468               0.000438569               0.000358101               0.000000000               0.000000000               0.000000000               0.000000000               0.000154722               0.001264846              -0.000000000              -0.000100085               0.000454973               0.000354888               0.000000000               0.000000000               0.000000000               0.000000000               0.000104721               0.001295243              -0.000000000              -0.000122635               0.000472622               0.000349987               0.000000000               0.000000000               0.000000000               0.000000000               0.000050646               0.001330110               0.000000000              -0.000147271               0.000492456               0.000345185               0.000000000               0.000000000               0.000000000               0.000000000               0.000028172               0.001361189               0.000000000              -0.000159584               0.000506920               0.000347336               0.000000000               0.000000000               0.000000000               0.000000000               0.000199084               0.002102346              -0.000167003              -0.000188136               0.000763487               0.000575351               0.000000000               0.000000000               0.000000000               0.000000000               0.000224169               0.001770350              -0.000113813              -0.000137230               0.000635854               0.000498624               0.000000000               0.000000000               0.000000000               0.000000000               0.000316681               0.001503511              -0.000059376              -0.000069184               0.000524227               0.000455043               0.000000000               0.000000000               0.000000000               0.000000000               0.000349558               0.001352616              -0.000034719              -0.000037993               0.000463532               0.000425539               0.000000000               0.000000000               0.000000000               0.000000000               0.000361361               0.001261049              -0.000024080              -0.000022121               0.000427719               0.000405598               0.000000000               0.000000000               0.000000000               0.000000000               0.000362729               0.001203622              -0.000019452              -0.000014429               0.000406013               0.000391584               0.000000000               0.000000000               0.000000000               0.000000000               0.000356413               0.001170093              -0.000016289              -0.000012607               0.000394229               0.000381623               0.000000000               0.000000000               0.000000000               0.000000000               0.000341506               0.001158025              -0.000012832              -0.000016688               0.000391567               0.000374879               0.000000000               0.000000000               0.000000000               0.000000000               0.000317437               0.001163011              -0.000010749              -0.000026338               0.000396446               0.000370108               0.000000000               0.000000000               0.000000000               0.000000000               0.000288847               0.001177460              -0.000012607              -0.000038865               0.000405438               0.000366573               0.000000000               0.000000000               0.000000000               0.000000000               0.000260112               0.001195490              -0.000017992              -0.000051894               0.000415791               0.000363896               0.000000000               0.000000000               0.000000000               0.000000000               0.000227668               0.001212932              -0.000020055              -0.000066241               0.000426387               0.000360146               0.000000000               0.000000000               0.000000000               0.000000000               0.000189467               0.001235117              -0.000017630              -0.000083339               0.000439481               0.000356142               0.000000000               0.000000000               0.000000000               0.000000000               0.000148626               0.001261334              -0.000016730              -0.000101932               0.000454418               0.000352486               0.000000000               0.000000000               0.000000000               0.000000000               0.000103046               0.001288590              -0.000014425              -0.000122431               0.000470336               0.000347905               0.000000000               0.000000000               0.000000000               0.000000000               0.000051005               0.001317805              -0.000008255              -0.000145598               0.000487797               0.000342198               0.000000000               0.000000000               0.000000000               0.000000000               0.000027781               0.001342781              -0.000005209              -0.000157429               0.000500066               0.000342636               0.000000000               0.000000000               0.000000000               0.000000000               0.000235655               0.002007819              -0.000316563              -0.000162607               0.000723468               0.000560862               0.000000000               0.000000000               0.000000000               0.000000000               0.000239970               0.001702674              -0.000216621              -0.000122845               0.000608501               0.000485655               0.000000000               0.000000000               0.000000000               0.000000000               0.000309941               0.001466984              -0.000114090              -0.000067145               0.000511371               0.000444226               0.000000000               0.000000000               0.000000000               0.000000000               0.000332164               0.001336975              -0.000068315              -0.000042560               0.000459841               0.000417280               0.000000000               0.000000000               0.000000000               0.000000000               0.000336638               0.001257679              -0.000048650              -0.000030971               0.000429546               0.000398575               0.000000000               0.000000000               0.000000000               0.000000000               0.000333030               0.001211251              -0.000039975              -0.000026520               0.000412586               0.000386066               0.000000000               0.000000000               0.000000000               0.000000000               0.000323150               0.001187009              -0.000033311              -0.000027195               0.000404731               0.000377536               0.000000000               0.000000000               0.000000000               0.000000000               0.000305774               0.001181358              -0.000026118              -0.000033004               0.000404784               0.000371779               0.000000000               0.000000000               0.000000000               0.000000000               0.000282840               0.001188297              -0.000022535              -0.000042472               0.000410253               0.000367781               0.000000000               0.000000000               0.000000000               0.000000000               0.000258226               0.001199025              -0.000025544              -0.000053043               0.000417352               0.000364309               0.000000000               0.000000000               0.000000000               0.000000000               0.000233014               0.001210080              -0.000033396              -0.000063879               0.000424649               0.000360770               0.000000000               0.000000000               0.000000000               0.000000000               0.000205984               0.001223306              -0.000034481              -0.000075669               0.000432988               0.000357319               0.000000000               0.000000000               0.000000000               0.000000000               0.000172740               0.001240413              -0.000028683              -0.000090274               0.000443558               0.000353284               0.000000000               0.000000000               0.000000000               0.000000000               0.000134646               0.001258438              -0.000025744              -0.000106812               0.000455079               0.000348267               0.000000000               0.000000000               0.000000000               0.000000000               0.000092996               0.001276989              -0.000020275              -0.000124750               0.000467242               0.000342492               0.000000000               0.000000000               0.000000000               0.000000000               0.000046323               0.001294894              -0.000010634              -0.000144490               0.000479790               0.000335300               0.000000000               0.000000000               0.000000000               0.000000000               0.000024561               0.001308931              -0.000006455              -0.000154406               0.000487775               0.000333369               0.000000000               0.000000000               0.000000000               0.000000000               0.000287632               0.001860651              -0.000438322              -0.000124719               0.000661784               0.000537064               0.000000000               0.000000000               0.000000000               0.000000000               0.000261353               0.001598826              -0.000300873              -0.000101846               0.000566885               0.000465039               0.000000000               0.000000000               0.000000000               0.000000000               0.000299563               0.001413616              -0.000160372              -0.000064366               0.000492656               0.000428290               0.000000000               0.000000000               0.000000000               0.000000000               0.000306660               0.001312126              -0.000100358              -0.000049018               0.000453710               0.000404692               0.000000000               0.000000000               0.000000000               0.000000000               0.000302490               0.001251761              -0.000074158              -0.000043036               0.000431595               0.000388559               0.000000000               0.000000000               0.000000000               0.000000000               0.000294191               0.001221057              -0.000060702              -0.000042311               0.000421118               0.000378808               0.000000000               0.000000000               0.000000000               0.000000000               0.000278153               0.001209743              -0.000050608              -0.000046911               0.000418881               0.000371970               0.000000000               0.000000000               0.000000000               0.000000000               0.000258026               0.001214135              -0.000040166              -0.000055007               0.000423043               0.000368036               0.000000000               0.000000000               0.000000000               0.000000000               0.000236799               0.001222068              -0.000034717              -0.000063959               0.000428672               0.000364713               0.000000000               0.000000000               0.000000000               0.000000000               0.000217701               0.001230418              -0.000038486              -0.000072164               0.000434190               0.000362026               0.000000000               0.000000000               0.000000000               0.000000000               0.000199079               0.001235379              -0.000044737              -0.000079767               0.000438378               0.000358611               0.000000000               0.000000000               0.000000000               0.000000000               0.000175363               0.001244691              -0.000041196              -0.000089825               0.000444834               0.000355009               0.000000000               0.000000000               0.000000000               0.000000000               0.000145833               0.001256704              -0.000031742              -0.000102401               0.000453031               0.000350630               0.000000000               0.000000000               0.000000000               0.000000000               0.000116011               0.001269629              -0.000025749              -0.000115199               0.000461605               0.000346406               0.000000000               0.000000000               0.000000000               0.000000000               0.000082924               0.001283106              -0.000017142              -0.000129291               0.000470795               0.000341504               0.000000000               0.000000000               0.000000000               0.000000000               0.000042367               0.001294758              -0.000007131              -0.000145957               0.000480234               0.000334277               0.000000000               0.000000000               0.000000000               0.000000000               0.000023381               0.001305240              -0.000004557              -0.000154387               0.000486538               0.000332151               0.000000000               0.000000000               0.000000000               0.000000000               0.000345618               0.001677773              -0.000523534              -0.000080115               0.000585957               0.000505842               0.000000000               0.000000000               0.000000000               0.000000000               0.000284918               0.001471939              -0.000361911              -0.000077148               0.000516357               0.000439209               0.000000000               0.000000000               0.000000000               0.000000000               0.000285694               0.001348398              -0.000198533              -0.000061414               0.000469933               0.000408519               0.000000000               0.000000000               0.000000000               0.000000000               0.000279077               0.001279253              -0.000130253              -0.000055252               0.000444831               0.000389578               0.000000000               0.000000000               0.000000000               0.000000000               0.000269831               0.001242726              -0.000098798              -0.000054154               0.000432289               0.000378135               0.000000000               0.000000000               0.000000000               0.000000000               0.000254586               0.001228809              -0.000081666              -0.000058131               0.000428976               0.000370845               0.000000000               0.000000000               0.000000000               0.000000000               0.000233989               0.001232439              -0.000066715              -0.000066309               0.000432912               0.000366603               0.000000000               0.000000000               0.000000000               0.000000000               0.000211573               0.001246782              -0.000053632              -0.000076508               0.000441092               0.000364585               0.000000000               0.000000000               0.000000000               0.000000000               0.000191539               0.001258628              -0.000047689              -0.000085501               0.000448039               0.000362538               0.000000000               0.000000000               0.000000000               0.000000000               0.000176665               0.001264733              -0.000050754              -0.000091842               0.000452187               0.000360345               0.000000000               0.000000000               0.000000000               0.000000000               0.000162110               0.001270233              -0.000054129              -0.000097988               0.000456069               0.000358082               0.000000000               0.000000000               0.000000000               0.000000000               0.000144133               0.001282575              -0.000044843              -0.000106272               0.000462945               0.000356673               0.000000000               0.000000000               0.000000000               0.000000000               0.000120831               0.001295943              -0.000032642              -0.000116681               0.000470870               0.000354190               0.000000000               0.000000000               0.000000000               0.000000000               0.000097672               0.001310732              -0.000024991              -0.000127214               0.000479311               0.000352097               0.000000000               0.000000000               0.000000000               0.000000000               0.000071076               0.001327941              -0.000016686              -0.000139339               0.000489089               0.000349750               0.000000000               0.000000000               0.000000000               0.000000000               0.000035392               0.001343905              -0.000007440              -0.000154716               0.000499536               0.000344820               0.000000000               0.000000000               0.000000000               0.000000000               0.000020284               0.001358737              -0.000005423              -0.000162235               0.000506986               0.000344751               0.000000000               0.000000000               0.000000000               0.000000000               0.000396620               0.001475026              -0.000570557              -0.000035646               0.000503553               0.000467906               0.000000000               0.000000000               0.000000000               0.000000000               0.000304399               0.001335782              -0.000400495              -0.000052823               0.000462864               0.000410040               0.000000000               0.000000000               0.000000000               0.000000000               0.000271233               0.001279398              -0.000229127              -0.000058212               0.000445866               0.000387654               0.000000000               0.000000000               0.000000000               0.000000000               0.000255198               0.001243944              -0.000157160              -0.000059794               0.000434575               0.000374781               0.000000000               0.000000000               0.000000000               0.000000000               0.000242809               0.001229374              -0.000122411              -0.000062618               0.000430660               0.000368042               0.000000000               0.000000000               0.000000000               0.000000000               0.000224340               0.001232517              -0.000100410              -0.000069937               0.000434147               0.000364210               0.000000000               0.000000000               0.000000000               0.000000000               0.000200736               0.001252026              -0.000081189              -0.000081227               0.000444413               0.000363186               0.000000000               0.000000000               0.000000000               0.000000000               0.000177884               0.001274507              -0.000066037              -0.000092607               0.000455700               0.000363094               0.000000000               0.000000000               0.000000000               0.000000000               0.000159823               0.001289645              -0.000060249              -0.000101272               0.000463634               0.000362363               0.000000000               0.000000000               0.000000000               0.000000000               0.000146037               0.001300287              -0.000062152              -0.000107772               0.000469348               0.000361577               0.000000000               0.000000000               0.000000000               0.000000000               0.000134857               0.001317391              -0.000059649              -0.000114102               0.000477160               0.000363058               0.000000000               0.000000000               0.000000000               0.000000000               0.000120801               0.001343280              -0.000046848              -0.000122609               0.000488625               0.000366016               0.000000000               0.000000000               0.000000000               0.000000000               0.000099421               0.001370401              -0.000035056              -0.000134017               0.000501468               0.000367451               0.000000000               0.000000000               0.000000000               0.000000000               0.000075961               0.001398529              -0.000026694              -0.000146330               0.000514948               0.000368618               0.000000000               0.000000000               0.000000000               0.000000000               0.000051604               0.001428671              -0.000018099              -0.000159232               0.000529296               0.000370064               0.000000000               0.000000000               0.000000000               0.000000000               0.000025164               0.001458908              -0.000009304              -0.000172927               0.000543940               0.000371014               0.000000000               0.000000000               0.000000000               0.000000000               0.000017074               0.001482103              -0.000007622              -0.000178860               0.000553649               0.000374790               0.000000000               0.000000000               0.000000000               0.000000000               0.000434113               0.001268382              -0.000581244               0.000004244               0.000421375               0.000425619               0.000000000               0.000000000               0.000000000               0.000000000               0.000316576               0.001200076              -0.000418071              -0.000031294               0.000410452               0.000379158               0.000000000               0.000000000               0.000000000               0.000000000               0.000256352               0.001211547              -0.000252416              -0.000055311               0.000422282               0.000366971               0.000000000               0.000000000               0.000000000               0.000000000               0.000236078               0.001208909              -0.000180412              -0.000062584               0.000423827               0.000361243               0.000000000               0.000000000               0.000000000               0.000000000               0.000223077               0.001215897              -0.000142072              -0.000068333               0.000428072               0.000359739               0.000000000               0.000000000               0.000000000               0.000000000               0.000203327               0.001236615              -0.000115196              -0.000078329               0.000438311               0.000359981               0.000000000               0.000000000               0.000000000               0.000000000               0.000179900               0.001269130              -0.000092867              -0.000091179               0.000453432               0.000362253               0.000000000               0.000000000               0.000000000               0.000000000               0.000159492               0.001297158              -0.000077605              -0.000102335               0.000466493               0.000364159               0.000000000               0.000000000               0.000000000               0.000000000               0.000146464               0.001319250              -0.000070406              -0.000109982               0.000476406               0.000366424               0.000000000               0.000000000               0.000000000               0.000000000               0.000137584               0.001346371              -0.000067391              -0.000116702               0.000487687               0.000370984               0.000000000               0.000000000               0.000000000               0.000000000               0.000126699               0.001386372              -0.000059237              -0.000125784               0.000504047               0.000378264               0.000000000               0.000000000               0.000000000               0.000000000               0.000111119               0.001436733              -0.000042842              -0.000137922               0.000524880               0.000386958               0.000000000               0.000000000               0.000000000               0.000000000               0.000089817               0.001488379              -0.000031129              -0.000152365               0.000546910               0.000394544               0.000000000               0.000000000               0.000000000               0.000000000               0.000065144               0.001537461              -0.000024094              -0.000167753               0.000568400               0.000400646               0.000000000               0.000000000               0.000000000               0.000000000               0.000040193               0.001584877              -0.000016074              -0.000183037               0.000589300               0.000406262               0.000000000               0.000000000               0.000000000               0.000000000               0.000017675               0.001632382              -0.000008399              -0.000197419               0.000609928               0.000412509               0.000000000               0.000000000               0.000000000               0.000000000               0.000013553               0.001666105              -0.000008429              -0.000203180               0.000623090               0.000419909               0.000000000               0.000000000               0.000000000               0.000000000               0.000456608               0.001068076              -0.000560645               0.000037718               0.000343449               0.000381166               0.000000000               0.000000000               0.000000000               0.000000000               0.000321796               0.001071191              -0.000418232              -0.000013226               0.000361469               0.000348243               0.000000000               0.000000000               0.000000000               0.000000000               0.000243857               0.001147782              -0.000269450              -0.000052027               0.000399932               0.000347906               0.000000000               0.000000000               0.000000000               0.000000000               0.000223687               0.001176902              -0.000197975              -0.000063230               0.000413373               0.000350143               0.000000000               0.000000000               0.000000000               0.000000000               0.000209618               0.001206289              -0.000156252              -0.000072179               0.000426152               0.000353973               0.000000000               0.000000000               0.000000000               0.000000000               0.000188713               0.001245730              -0.000126145              -0.000084949               0.000443555               0.000358607               0.000000000               0.000000000               0.000000000               0.000000000               0.000166788               0.001289358              -0.000102251              -0.000098624               0.000462656               0.000364032               0.000000000               0.000000000               0.000000000               0.000000000               0.000152715               0.001326381              -0.000084924              -0.000108529               0.000478299               0.000369770               0.000000000               0.000000000               0.000000000               0.000000000               0.000148889               0.001368236              -0.000073131              -0.000115196               0.000494473               0.000379277               0.000000000               0.000000000               0.000000000               0.000000000               0.000145749               0.001423445              -0.000062173              -0.000123275               0.000515569               0.000392294               0.000000000               0.000000000               0.000000000               0.000000000               0.000135037               0.001495038              -0.000047877              -0.000136241               0.000543754               0.000407514               0.000000000               0.000000000               0.000000000               0.000000000               0.000117732               0.001570356              -0.000031441              -0.000152145               0.000574162               0.000422017               0.000000000               0.000000000               0.000000000               0.000000000               0.000094973               0.001641030              -0.000022619              -0.000169514               0.000603509               0.000433995               0.000000000               0.000000000               0.000000000               0.000000000               0.000066537               0.001706265              -0.000018611              -0.000188331               0.000631526               0.000443195               0.000000000               0.000000000               0.000000000               0.000000000               0.000039870               0.001769973              -0.000011949              -0.000206295               0.000658750               0.000452455               0.000000000               0.000000000               0.000000000               0.000000000               0.000018522               0.001831107              -0.000005320              -0.000221942               0.000684344               0.000462402               0.000000000               0.000000000               0.000000000               0.000000000               0.000013907               0.001870775              -0.000006379              -0.000228631               0.000699796               0.000471165               0.000000000               0.000000000               0.000000000               0.000000000               0.000468517               0.000888223              -0.000518037               0.000064665               0.000274516               0.000339181               0.000000000               0.000000000               0.000000000               0.000000000               0.000329214               0.000956332              -0.000409350               0.000003913               0.000317470               0.000321383               0.000000000               0.000000000               0.000000000               0.000000000               0.000240636               0.001090146              -0.000285920              -0.000046030               0.000378722               0.000332692               0.000000000               0.000000000               0.000000000               0.000000000               0.000219923               0.001149094              -0.000214498              -0.000061166               0.000403416               0.000342250               0.000000000               0.000000000               0.000000000               0.000000000               0.000204208               0.001199276              -0.000169007              -0.000073332               0.000424198               0.000350867               0.000000000               0.000000000               0.000000000               0.000000000               0.000182355               0.001256568              -0.000137450              -0.000088688               0.000448414               0.000359727               0.000000000               0.000000000               0.000000000               0.000000000               0.000164543               0.001312058              -0.000112341              -0.000102304               0.000471450               0.000369146               0.000000000               0.000000000               0.000000000               0.000000000               0.000157513               0.001365644              -0.000090379              -0.000111638               0.000492423               0.000380785               0.000000000               0.000000000               0.000000000               0.000000000               0.000160752               0.001429689              -0.000069940              -0.000118429               0.000516035               0.000397606               0.000000000               0.000000000               0.000000000               0.000000000               0.000165226               0.001512869              -0.000051161              -0.000127149               0.000546668               0.000419519               0.000000000               0.000000000               0.000000000               0.000000000               0.000155420               0.001603931              -0.000035874              -0.000142208               0.000582041               0.000439833               0.000000000               0.000000000               0.000000000               0.000000000               0.000135062               0.001691329              -0.000024470              -0.000160768               0.000617360               0.000456592               0.000000000               0.000000000               0.000000000               0.000000000               0.000114386               0.001771054              -0.000016981              -0.000178487               0.000649841               0.000471354               0.000000000               0.000000000               0.000000000               0.000000000               0.000090104               0.001846562              -0.000011762              -0.000197031               0.000681191               0.000484161               0.000000000               0.000000000               0.000000000               0.000000000               0.000065234               0.001919767              -0.000005160              -0.000215508               0.000711752               0.000496244               0.000000000               0.000000000               0.000000000               0.000000000               0.000046710               0.001986764              -0.000000703              -0.000230829               0.000739191               0.000508362               0.000000000               0.000000000               0.000000000               0.000000000               0.000036783               0.002020145               0.000000316              -0.000238724               0.000752950               0.000514226               0.000000000               0.000000000               0.000000000               0.000000000               0.000462836               0.000709262              -0.000462427               0.000084904               0.000208117               0.000293021               0.000000000               0.000000000               0.000000000               0.000000000               0.000338556               0.000820740              -0.000396602               0.000024365               0.000265455               0.000289821               0.000000000               0.000000000               0.000000000               0.000000000               0.000247225               0.000997103              -0.000306682              -0.000031929               0.000343007               0.000311079               0.000000000               0.000000000               0.000000000               0.000000000               0.000224147               0.001086478              -0.000237624              -0.000051755               0.000379407               0.000327652               0.000000000               0.000000000               0.000000000               0.000000000               0.000209886               0.001156156              -0.000189593              -0.000065812               0.000407319               0.000341507               0.000000000               0.000000000               0.000000000               0.000000000               0.000191692               0.001225923              -0.000157585              -0.000081356               0.000435755               0.000354400               0.000000000               0.000000000               0.000000000               0.000000000               0.000174579               0.001296614              -0.000131436              -0.000096609               0.000464404               0.000367794               0.000000000               0.000000000               0.000000000               0.000000000               0.000166896               0.001368075              -0.000105099              -0.000108423               0.000492161               0.000383738               0.000000000               0.000000000               0.000000000               0.000000000               0.000172536               0.001447846              -0.000081947              -0.000116279               0.000521370               0.000405091               0.000000000               0.000000000               0.000000000               0.000000000               0.000185741               0.001540320              -0.000061516              -0.000122887               0.000554397               0.000431510               0.000000000               0.000000000               0.000000000               0.000000000               0.000189718               0.001636615              -0.000044810              -0.000133432               0.000590010               0.000456578               0.000000000               0.000000000               0.000000000               0.000000000               0.000178215               0.001728723              -0.000033793              -0.000149259               0.000625988               0.000476729               0.000000000               0.000000000               0.000000000               0.000000000               0.000162064               0.001817072              -0.000024072              -0.000166359               0.000661138               0.000494778               0.000000000               0.000000000               0.000000000               0.000000000               0.000141571               0.001896018              -0.000013043              -0.000183913               0.000693304               0.000509391               0.000000000               0.000000000               0.000000000               0.000000000               0.000117499               0.001969621              -0.000006770              -0.000202140               0.000723914               0.000521774               0.000000000               0.000000000               0.000000000               0.000000000               0.000097872               0.002042119              -0.000003906              -0.000218562               0.000753554               0.000534991               0.000000000               0.000000000               0.000000000               0.000000000               0.000082323               0.002070142               0.000001039              -0.000227896               0.000766006               0.000538110               0.000000000               0.000000000               0.000000000               0.000000000               0.000435389               0.000539604              -0.000394220               0.000095819               0.000147926               0.000243746               0.000000000               0.000000000               0.000000000               0.000000000               0.000345276               0.000681902              -0.000371532               0.000044240               0.000212552               0.000256792               0.000000000               0.000000000               0.000000000               0.000000000               0.000263810               0.000888848              -0.000319610              -0.000012178               0.000300339               0.000288161               0.000000000               0.000000000               0.000000000               0.000000000               0.000239154               0.001007134              -0.000258528              -0.000036209               0.000347777               0.000311568               0.000000000               0.000000000               0.000000000               0.000000000               0.000226016               0.001095935              -0.000211384              -0.000052236               0.000382720               0.000330484               0.000000000               0.000000000               0.000000000               0.000000000               0.000211575               0.001179515              -0.000178485              -0.000068099               0.000415867               0.000347768               0.000000000               0.000000000               0.000000000               0.000000000               0.000195799               0.001261920              -0.000151271              -0.000084315               0.000448741               0.000364426               0.000000000               0.000000000               0.000000000               0.000000000               0.000187945               0.001345382              -0.000125411              -0.000097693               0.000481021               0.000383327               0.000000000               0.000000000               0.000000000               0.000000000               0.000197389               0.001439967              -0.000104196              -0.000105975               0.000515309               0.000409334               0.000000000               0.000000000               0.000000000               0.000000000               0.000215194               0.001539926              -0.000081442              -0.000111793               0.000550568               0.000438775               0.000000000               0.000000000               0.000000000               0.000000000               0.000228316               0.001638227              -0.000059396              -0.000119160               0.000585790               0.000466631               0.000000000               0.000000000               0.000000000               0.000000000               0.000228330               0.001731205              -0.000045371              -0.000130777               0.000620655               0.000489878               0.000000000               0.000000000               0.000000000               0.000000000               0.000218267               0.001821087              -0.000034524              -0.000145785               0.000655618               0.000509833               0.000000000               0.000000000               0.000000000               0.000000000               0.000203804               0.001902088              -0.000020235              -0.000161334               0.000687801               0.000526467               0.000000000               0.000000000               0.000000000               0.000000000               0.000185313               0.001977673              -0.000009847              -0.000177716               0.000718457               0.000540740               0.000000000               0.000000000               0.000000000               0.000000000               0.000160078               0.002045575              -0.000004754              -0.000195667               0.000747074               0.000551407               0.000000000               0.000000000               0.000000000               0.000000000               0.000138349               0.002070166               0.000000388              -0.000206889               0.000759012               0.000552122               0.000000000               0.000000000               0.000000000               0.000000000               0.000386267               0.000392037              -0.000317592               0.000095844               0.000098729               0.000194574               0.000000000               0.000000000               0.000000000               0.000000000               0.000339631               0.000548754              -0.000330294               0.000058766               0.000163327               0.000222094               0.000000000               0.000000000               0.000000000               0.000000000               0.000284154               0.000768917              -0.000313091               0.000010443               0.000252822               0.000263265               0.000000000               0.000000000               0.000000000               0.000000000               0.000261708               0.000910009              -0.000265429              -0.000015611               0.000308537               0.000292926               0.000000000               0.000000000               0.000000000               0.000000000               0.000249581               0.001019097              -0.000222809              -0.000033794               0.000350960               0.000317166               0.000000000               0.000000000               0.000000000               0.000000000               0.000239013               0.001117488              -0.000191502              -0.000050056               0.000389178               0.000339121               0.000000000               0.000000000               0.000000000               0.000000000               0.000227299               0.001209087              -0.000165862              -0.000065899               0.000424991               0.000359092               0.000000000               0.000000000               0.000000000               0.000000000               0.000224574               0.001310468              -0.000144547              -0.000079593               0.000463349               0.000383756               0.000000000               0.000000000               0.000000000               0.000000000               0.000230886               0.001421362              -0.000124482              -0.000091088               0.000504145               0.000413057               0.000000000               0.000000000               0.000000000               0.000000000               0.000244320               0.001529532              -0.000100684              -0.000099571               0.000543030               0.000443458               0.000000000               0.000000000               0.000000000               0.000000000               0.000261490               0.001632172              -0.000077194              -0.000105962               0.000579373               0.000473410               0.000000000               0.000000000               0.000000000               0.000000000               0.000272223               0.001728380              -0.000058600              -0.000113964               0.000614109               0.000500145               0.000000000               0.000000000               0.000000000               0.000000000               0.000270150               0.001815658              -0.000044229              -0.000125651               0.000647097               0.000521446               0.000000000               0.000000000               0.000000000               0.000000000               0.000262118               0.001897200              -0.000030139              -0.000138855               0.000678679               0.000539824               0.000000000               0.000000000               0.000000000               0.000000000               0.000250343               0.001974604              -0.000015149              -0.000152946               0.000709177               0.000556230               0.000000000               0.000000000               0.000000000               0.000000000               0.000229177               0.002044608              -0.000004811              -0.000169634               0.000738074               0.000568440               0.000000000               0.000000000               0.000000000               0.000000000               0.000206290               0.002071664               0.000001706              -0.000181599               0.000751081               0.000569482               0.000000000               0.000000000               0.000000000               0.000000000               0.000321488               0.000271663              -0.000238454               0.000086599               0.000061687               0.000148286               0.000000000               0.000000000               0.000000000               0.000000000               0.000323048               0.000426416              -0.000276332               0.000067840               0.000119524               0.000187364               0.000000000               0.000000000               0.000000000               0.000000000               0.000301727               0.000644815              -0.000285887               0.000032545               0.000204088               0.000236633               0.000000000               0.000000000               0.000000000               0.000000000               0.000289718               0.000803893              -0.000252596               0.000008157               0.000265243               0.000273400               0.000000000               0.000000000               0.000000000               0.000000000               0.000280684               0.000931313              -0.000218830              -0.000011158               0.000314154               0.000302996               0.000000000               0.000000000               0.000000000               0.000000000               0.000273962               0.001041549              -0.000192506              -0.000027458               0.000356332               0.000328874               0.000000000               0.000000000               0.000000000               0.000000000               0.000267244               0.001148330              -0.000170828              -0.000043325               0.000397215               0.000353890               0.000000000               0.000000000               0.000000000               0.000000000               0.000266728               0.001269027              -0.000152708              -0.000058605               0.000442540               0.000383935               0.000000000               0.000000000               0.000000000               0.000000000               0.000269711               0.001391789              -0.000134517              -0.000072832               0.000488202               0.000415371               0.000000000               0.000000000               0.000000000               0.000000000               0.000279863               0.001508384              -0.000114422              -0.000083599               0.000530656               0.000447057               0.000000000               0.000000000               0.000000000               0.000000000               0.000295434               0.001615083              -0.000091942              -0.000091097               0.000568722               0.000477624               0.000000000               0.000000000               0.000000000               0.000000000               0.000307594               0.001707049              -0.000070003              -0.000098033               0.000601688               0.000503655               0.000000000               0.000000000               0.000000000               0.000000000               0.000313634               0.001793720              -0.000051944              -0.000106602               0.000633435               0.000526833               0.000000000               0.000000000               0.000000000               0.000000000               0.000314211               0.001881374              -0.000036751              -0.000117342               0.000666233               0.000548890               0.000000000               0.000000000               0.000000000               0.000000000               0.000310274               0.001962721              -0.000020197              -0.000128987               0.000697229               0.000568242               0.000000000               0.000000000               0.000000000               0.000000000               0.000302135               0.002038323              -0.000006870              -0.000141489               0.000726598               0.000585108               0.000000000               0.000000000               0.000000000               0.000000000               0.000287269               0.002069487               0.000000875              -0.000150960               0.000740142               0.000589182               0.000000000               0.000000000               0.000000000               0.000000000               0.000250392               0.000179893              -0.000163338               0.000071410               0.000036160               0.000107570               0.000000000               0.000000000               0.000000000               0.000000000               0.000299637               0.000322745              -0.000211316               0.000072020               0.000083574               0.000155594               0.000000000               0.000000000               0.000000000               0.000000000               0.000314296               0.000528886              -0.000236789               0.000051750               0.000159044               0.000210793               0.000000000               0.000000000               0.000000000               0.000000000               0.000318130               0.000698038              -0.000217980               0.000032044               0.000221996               0.000254039               0.000000000               0.000000000               0.000000000               0.000000000               0.000316946               0.000840548              -0.000194437               0.000013786               0.000275585               0.000289371               0.000000000               0.000000000               0.000000000               0.000000000               0.000312360               0.000963531              -0.000174720              -0.000003306               0.000322276               0.000318970               0.000000000               0.000000000               0.000000000               0.000000000               0.000310474               0.001089120              -0.000158213              -0.000019712               0.000369607               0.000349895               0.000000000               0.000000000               0.000000000               0.000000000               0.000310914               0.001222918              -0.000143610              -0.000036272               0.000419726               0.000383454               0.000000000               0.000000000               0.000000000               0.000000000               0.000314730               0.001349451              -0.000130051              -0.000050658               0.000466698               0.000416041               0.000000000               0.000000000               0.000000000               0.000000000               0.000321201               0.001468618              -0.000114047              -0.000063127               0.000510577               0.000447450               0.000000000               0.000000000               0.000000000               0.000000000               0.000329997               0.001577508              -0.000093628              -0.000073440               0.000550310               0.000476871               0.000000000               0.000000000               0.000000000               0.000000000               0.000339207               0.001671262              -0.000072232              -0.000081705               0.000584317               0.000502612               0.000000000               0.000000000               0.000000000               0.000000000               0.000350224               0.001764563              -0.000053872              -0.000089236               0.000617927               0.000528691               0.000000000               0.000000000               0.000000000               0.000000000               0.000359962               0.001859791              -0.000038474              -0.000097488               0.000652420               0.000554932               0.000000000               0.000000000               0.000000000               0.000000000               0.000367111               0.001950023              -0.000024939              -0.000106086               0.000685363               0.000579277               0.000000000               0.000000000               0.000000000               0.000000000               0.000372997               0.002034040              -0.000012373              -0.000114381               0.000716133               0.000601752               0.000000000               0.000000000               0.000000000               0.000000000               0.000368552               0.002069552              -0.000004199              -0.000120487               0.000730006               0.000609519               0.000000000               0.000000000               0.000000000               0.000000000               0.000181921               0.000117846              -0.000099505               0.000053489               0.000021452               0.000074941               0.000000000               0.000000000               0.000000000               0.000000000               0.000271923               0.000244324              -0.000141192               0.000071430               0.000057631               0.000129060               0.000000000               0.000000000               0.000000000               0.000000000               0.000322825               0.000434021              -0.000169025               0.000066806               0.000122403               0.000189209               0.000000000               0.000000000               0.000000000               0.000000000               0.000342223               0.000607764              -0.000161262               0.000052363               0.000185132               0.000237494               0.000000000               0.000000000               0.000000000               0.000000000               0.000348866               0.000758853              -0.000147078               0.000035968               0.000240959               0.000276927               0.000000000               0.000000000               0.000000000               0.000000000               0.000350159               0.000897052              -0.000134225               0.000019178               0.000292622               0.000311800               0.000000000               0.000000000               0.000000000               0.000000000               0.000351652               0.001037664              -0.000123491               0.000002161               0.000345164               0.000347325               0.000000000               0.000000000               0.000000000               0.000000000               0.000355697               0.001172096              -0.000114769              -0.000013125               0.000395070               0.000381944               0.000000000               0.000000000               0.000000000               0.000000000               0.000356700               0.001298636              -0.000105084              -0.000028567               0.000442397               0.000413830               0.000000000               0.000000000               0.000000000               0.000000000               0.000357858               0.001421129              -0.000092170              -0.000043444               0.000488186               0.000444742               0.000000000               0.000000000               0.000000000               0.000000000               0.000360758               0.001532395              -0.000076589              -0.000056265               0.000529548               0.000473283               0.000000000               0.000000000               0.000000000               0.000000000               0.000369241               0.001637087              -0.000061256              -0.000066170               0.000567747               0.000501577               0.000000000               0.000000000               0.000000000               0.000000000               0.000384292               0.001742376              -0.000047810              -0.000073687               0.000605349               0.000531661               0.000000000               0.000000000               0.000000000               0.000000000               0.000400067               0.001841410              -0.000035527              -0.000080151               0.000640514               0.000560363               0.000000000               0.000000000               0.000000000               0.000000000               0.000414667               0.001933340              -0.000024926              -0.000086167               0.000673163               0.000586996               0.000000000               0.000000000               0.000000000               0.000000000               0.000429064               0.002022511              -0.000013683              -0.000091915               0.000704802               0.000612887               0.000000000               0.000000000               0.000000000               0.000000000               0.000432855               0.002063863              -0.000006522              -0.000095662               0.000719835               0.000624173               0.000000000               0.000000000               0.000000000               0.000000000               0.000132609               0.000080332              -0.000046667               0.000039686               0.000013548               0.000053235               0.000000000               0.000000000               0.000000000               0.000000000               0.000250227               0.000194834              -0.000070438               0.000069480               0.000041784               0.000111264               0.000000000               0.000000000               0.000000000               0.000000000               0.000328235               0.000373304              -0.000088245               0.000076424               0.000098959               0.000175383               0.000000000               0.000000000               0.000000000               0.000000000               0.000358086               0.000546310              -0.000085998               0.000065993               0.000160104               0.000226097               0.000000000               0.000000000               0.000000000               0.000000000               0.000371632               0.000702050              -0.000079358               0.000051605               0.000216812               0.000268418               0.000000000               0.000000000               0.000000000               0.000000000               0.000378706               0.000851107              -0.000072945               0.000035626               0.000271824               0.000307450               0.000000000               0.000000000               0.000000000               0.000000000               0.000384071               0.000998924              -0.000068596               0.000019161               0.000326585               0.000345745               0.000000000               0.000000000               0.000000000               0.000000000               0.000386006               0.001133464              -0.000064867               0.000003069               0.000376794               0.000379864               0.000000000               0.000000000               0.000000000               0.000000000               0.000383700               0.001258403              -0.000058748              -0.000013413               0.000423935               0.000410522               0.000000000               0.000000000               0.000000000               0.000000000               0.000382739               0.001380292              -0.000051140              -0.000029009               0.000469763               0.000440753               0.000000000               0.000000000               0.000000000               0.000000000               0.000386639               0.001500156              -0.000043379              -0.000042530               0.000514223               0.000471694               0.000000000               0.000000000               0.000000000               0.000000000               0.000396600               0.001617911              -0.000037230              -0.000053514               0.000557136               0.000503622               0.000000000               0.000000000               0.000000000               0.000000000               0.000410254               0.001727081              -0.000030006              -0.000062040               0.000596368               0.000534328               0.000000000               0.000000000               0.000000000               0.000000000               0.000425448               0.001823230              -0.000021760              -0.000068360               0.000630524               0.000562164               0.000000000               0.000000000               0.000000000               0.000000000               0.000443973               0.001916345              -0.000015344              -0.000073053               0.000663126               0.000590073               0.000000000               0.000000000               0.000000000               0.000000000               0.000467059               0.002013627              -0.000008777              -0.000076556               0.000696721               0.000620165               0.000000000               0.000000000               0.000000000               0.000000000               0.000478825               0.002061670              -0.000004688              -0.000078149               0.000713266               0.000635117               0.000000000               0.000000000               0.000000000               0.000000000               0.000115138               0.000067645               0.000000000               0.000034721               0.000010975               0.000045695               0.000000000               0.000000000               0.000000000               0.000000000               0.000242397               0.000178341               0.000000000               0.000068606               0.000036578               0.000105184               0.000000000               0.000000000               0.000000000               0.000000000               0.000330005               0.000352663              -0.000000000               0.000079668               0.000090997               0.000170665               0.000000000               0.000000000               0.000000000               0.000000000               0.000363611               0.000523386              -0.000000000               0.000070930               0.000150817               0.000221747               0.000000000               0.000000000               0.000000000               0.000000000               0.000380458               0.000681738              -0.000000000               0.000057454               0.000208093               0.000265546               0.000000000               0.000000000               0.000000000               0.000000000               0.000389307               0.000834529              -0.000000000               0.000041674               0.000264282               0.000305956               0.000000000               0.000000000               0.000000000               0.000000000               0.000397234               0.000984821              -0.000000000               0.000025860               0.000319651               0.000345510               0.000000000               0.000000000               0.000000000               0.000000000               0.000394889               0.001120946              -0.000000000               0.000007965               0.000370990               0.000378955               0.000000000               0.000000000               0.000000000               0.000000000               0.000392019               0.001242362               0.000000000              -0.000008288               0.000416879               0.000408591               0.000000000               0.000000000               0.000000000               0.000000000               0.000392229               0.001361683               0.000000000              -0.000023125               0.000461598               0.000438474               0.000000000               0.000000000               0.000000000               0.000000000               0.000399310               0.001491208               0.000000000              -0.000036660               0.000509284               0.000472625               0.000000000               0.000000000               0.000000000               0.000000000               0.000408827               0.001613929               0.000000000              -0.000048431               0.000554115               0.000505684               0.000000000               0.000000000               0.000000000               0.000000000               0.000418068               0.001717749              -0.000000000              -0.000057943               0.000591892               0.000533948               0.000000000               0.000000000               0.000000000               0.000000000               0.000432853               0.001813572              -0.000000000              -0.000064376               0.000625977               0.000561600               0.000000000               0.000000000               0.000000000               0.000000000               0.000454372               0.001910965              -0.000000000              -0.000068481               0.000659809               0.000591328               0.000000000               0.000000000               0.000000000               0.000000000               0.000481350               0.002011390               0.000000000              -0.000070917               0.000694096               0.000623179               0.000000000               0.000000000               0.000000000               0.000000000               0.000496632               0.002061406               0.000000000              -0.000071438               0.000710941               0.000639503               0.000000000               0.000000000               0.000000000               0.000000000               0.000000000               0.000000000               0.000000000               0.000000000               0.000000000               0.000000000               0.000000000               0.000000000               0.000000000               0.000000000               0.000000000               0.000000000               0.000000000               0.000000000               0.000000000               0.000000000               0.000000000               0.000000000               0.000000000               0.000000000               0.000000000               0.000000000               0.000000000               0.000000000               0.000000000               0.000000000               0.000000000               0.000000000               0.000000000               0.000000000               0.000000000               0.000000000               0.000000000               0.000000000               0.000000000               0.000000000               0.000000000               0.000000000               0.000000000               0.000000000               0.000000000               0.000000000               0.000000000               0.000000000               0.000000000               0.000000000               0.000000000               0.000000000               0.000000000               0.000000000               0.000000000               0.000000000               0.000000000               0.000000000               0.000000000               0.000000000               0.000000000               0.000000000               0.000000000               0.000000000               0.000000000               0.000000000               0.000000000               0.000000000               0.000000000               0.000000000               0.000000000               0.000000000               0.000000000               0.000000000               0.000000000               0.000000000               0.000000000               0.000000000               0.000000000               0.000000000               0.000000000               0.000000000               0.000000000               0.000000000               0.000000000               0.000000000               0.000000000               0.000000000               0.000000000               0.000000000               0.000000000               0.000000000               0.000000000               0.000000000               0.000000000               0.000000000               0.000000000               0.000000000               0.000000000               0.000000000               0.000000000               0.000000000               0.000000000               0.000000000               0.000000000               0.000000000               0.000000000               0.000000000               0.000000000               0.000000000               0.000000000               0.000000000               0.000000000               0.000000000               0.000000000               0.000000000               0.000000000               0.000000000               0.000000000               0.000000000               0.000000000               0.000000000               0.000000000               0.000000000               0.000000000               0.000000000               0.000000000               0.000000000               0.000000000               0.000000000               0.000000000               0.000000000               0.000000000               0.000000000               0.000000000               0.000000000               0.000000000               0.000000000               0.000000000               0.000000000               0.000000000               0.000000000               0.000000000               0.000000000               0.000000000               0.000000000               0.000000000               0.000000000               0.000000000               0.000000000               0.000000000               0.000000000               0.000000000               0.000000000               0.000000000               0.000000000               0.000000000               0.000000000               0.000000000               0.000000000               0.000000000               0.000000000               0.000000000               0.000000000               0.000000000               0.000000000               0.000000000               0.000000000               0.000000000               0.000000000               0.000000000               0.000000000               0.000000000               0.000000000               0.000199084               0.002102346               0.000167003              -0.000188136               0.000763487               0.000575351               0.000000000               0.000000000               0.000000000               0.000000000               0.000224169               0.001770350               0.000113813              -0.000137230               0.000635854               0.000498624               0.000000000               0.000000000               0.000000000               0.000000000               0.000316681               0.001503511               0.000059376              -0.000069184               0.000524227               0.000455043               0.000000000               0.000000000               0.000000000               0.000000000               0.000349558               0.001352616               0.000034719              -0.000037993               0.000463532               0.000425539               0.000000000               0.000000000               0.000000000               0.000000000               0.000361361               0.001261049               0.000024080              -0.000022121               0.000427719               0.000405598               0.000000000               0.000000000               0.000000000               0.000000000               0.000362729               0.001203622               0.000019452              -0.000014429               0.000406013               0.000391584               0.000000000               0.000000000               0.000000000               0.000000000               0.000356413               0.001170093               0.000016289              -0.000012607               0.000394229               0.000381623               0.000000000               0.000000000               0.000000000               0.000000000               0.000341506               0.001158025               0.000012832              -0.000016688               0.000391567               0.000374879               0.000000000               0.000000000               0.000000000               0.000000000               0.000317437               0.001163011               0.000010749              -0.000026338               0.000396446               0.000370108               0.000000000               0.000000000               0.000000000               0.000000000               0.000288847               0.001177460               0.000012607              -0.000038865               0.000405438               0.000366573               0.000000000               0.000000000               0.000000000               0.000000000               0.000260112               0.001195490               0.000017992              -0.000051894               0.000415791               0.000363896               0.000000000               0.000000000               0.000000000               0.000000000               0.000227668               0.001212932               0.000020055              -0.000066241               0.000426387               0.000360146               0.000000000               0.000000000               0.000000000               0.000000000               0.000189467               0.001235117               0.000017630              -0.000083339               0.000439481               0.000356142               0.000000000               0.000000000               0.000000000               0.000000000               0.000148626               0.001261334               0.000016730              -0.000101932               0.000454418               0.000352486               0.000000000               0.000000000               0.000000000               0.000000000               0.000103046               0.001288590               0.000014425              -0.000122431               0.000470336               0.000347905               0.000000000               0.000000000               0.000000000               0.000000000               0.000051005               0.001317805               0.000008255              -0.000145598               0.000487797               0.000342198               0.000000000               0.000000000               0.000000000               0.000000000               0.000027781               0.001342781               0.000005209              -0.000157429               0.000500066               0.000342636               0.000000000               0.000000000               0.000000000               0.000000000               0.000235655               0.002007819               0.000316563              -0.000162607               0.000723468               0.000560862               0.000000000               0.000000000               0.000000000               0.000000000               0.000239970               0.001702674               0.000216621              -0.000122845               0.000608501               0.000485655               0.000000000               0.000000000               0.000000000               0.000000000               0.000309941               0.001466984               0.000114090              -0.000067145               0.000511371               0.000444226               0.000000000               0.000000000               0.000000000               0.000000000               0.000332164               0.001336975               0.000068315              -0.000042560               0.000459841               0.000417280               0.000000000               0.000000000               0.000000000               0.000000000               0.000336638               0.001257679               0.000048650              -0.000030971               0.000429546               0.000398575               0.000000000               0.000000000               0.000000000               0.000000000               0.000333030               0.001211251               0.000039975              -0.000026520               0.000412586               0.000386066               0.000000000               0.000000000               0.000000000               0.000000000               0.000323150               0.001187009               0.000033311              -0.000027195               0.000404731               0.000377536               0.000000000               0.000000000               0.000000000               0.000000000               0.000305774               0.001181358               0.000026118              -0.000033004               0.000404784               0.000371779               0.000000000               0.000000000               0.000000000               0.000000000               0.000282840               0.001188297               0.000022535              -0.000042472               0.000410253               0.000367781               0.000000000               0.000000000               0.000000000               0.000000000               0.000258226               0.001199025               0.000025544              -0.000053043               0.000417352               0.000364309               0.000000000               0.000000000               0.000000000               0.000000000               0.000233014               0.001210080               0.000033396              -0.000063879               0.000424649               0.000360770               0.000000000               0.000000000               0.000000000               0.000000000               0.000205984               0.001223306               0.000034481              -0.000075669               0.000432988               0.000357319               0.000000000               0.000000000               0.000000000               0.000000000               0.000172740               0.001240413               0.000028683              -0.000090274               0.000443558               0.000353284               0.000000000               0.000000000               0.000000000               0.000000000               0.000134646               0.001258438               0.000025744              -0.000106812               0.000455079               0.000348267               0.000000000               0.000000000               0.000000000               0.000000000               0.000092996               0.001276989               0.000020275              -0.000124750               0.000467242               0.000342492               0.000000000               0.000000000               0.000000000               0.000000000               0.000046323               0.001294894               0.000010634              -0.000144490               0.000479790               0.000335300               0.000000000               0.000000000               0.000000000               0.000000000               0.000024561               0.001308931               0.000006455              -0.000154406               0.000487775               0.000333369               0.000000000               0.000000000               0.000000000               0.000000000               0.000287632               0.001860651               0.000438322              -0.000124719               0.000661784               0.000537064               0.000000000               0.000000000               0.000000000               0.000000000               0.000261353               0.001598826               0.000300873              -0.000101846               0.000566885               0.000465039               0.000000000               0.000000000               0.000000000               0.000000000               0.000299563               0.001413616               0.000160372              -0.000064366               0.000492656               0.000428290               0.000000000               0.000000000               0.000000000               0.000000000               0.000306660               0.001312126               0.000100358              -0.000049018               0.000453710               0.000404692               0.000000000               0.000000000               0.000000000               0.000000000               0.000302490               0.001251761               0.000074158              -0.000043036               0.000431595               0.000388559               0.000000000               0.000000000               0.000000000               0.000000000               0.000294191               0.001221057               0.000060702              -0.000042311               0.000421118               0.000378808               0.000000000               0.000000000               0.000000000               0.000000000               0.000278153               0.001209743               0.000050608              -0.000046911               0.000418881               0.000371970               0.000000000               0.000000000               0.000000000               0.000000000               0.000258026               0.001214135               0.000040166              -0.000055007               0.000423043               0.000368036               0.000000000               0.000000000               0.000000000               0.000000000               0.000236799               0.001222068               0.000034717              -0.000063959               0.000428672               0.000364713               0.000000000               0.000000000               0.000000000               0.000000000               0.000217701               0.001230418               0.000038486              -0.000072164               0.000434190               0.000362026               0.000000000               0.000000000               0.000000000               0.000000000               0.000199079               0.001235379               0.000044737              -0.000079767               0.000438378               0.000358611               0.000000000               0.000000000               0.000000000               0.000000000               0.000175363               0.001244691               0.000041196              -0.000089825               0.000444834               0.000355009               0.000000000               0.000000000               0.000000000               0.000000000               0.000145833               0.001256704               0.000031742              -0.000102401               0.000453031               0.000350630               0.000000000               0.000000000               0.000000000               0.000000000               0.000116011               0.001269629               0.000025749              -0.000115199               0.000461605               0.000346406               0.000000000               0.000000000               0.000000000               0.000000000               0.000082924               0.001283106               0.000017142              -0.000129291               0.000470795               0.000341504               0.000000000               0.000000000               0.000000000               0.000000000               0.000042367               0.001294758               0.000007131              -0.000145957               0.000480234               0.000334277               0.000000000               0.000000000               0.000000000               0.000000000               0.000023381               0.001305240               0.000004557              -0.000154387               0.000486538               0.000332151               0.000000000               0.000000000               0.000000000               0.000000000               0.000345618               0.001677773               0.000523534              -0.000080115               0.000585957               0.000505842               0.000000000               0.000000000               0.000000000               0.000000000               0.000284918               0.001471939               0.000361911              -0.000077148               0.000516357               0.000439209               0.000000000               0.000000000               0.000000000               0.000000000               0.000285694               0.001348398               0.000198533              -0.000061414               0.000469933               0.000408519               0.000000000               0.000000000               0.000000000               0.000000000               0.000279077               0.001279253               0.000130253              -0.000055252               0.000444831               0.000389578               0.000000000               0.000000000               0.000000000               0.000000000               0.000269831               0.001242726               0.000098798              -0.000054154               0.000432289               0.000378135               0.000000000               0.000000000               0.000000000               0.000000000               0.000254586               0.001228809               0.000081666              -0.000058131               0.000428976               0.000370845               0.000000000               0.000000000               0.000000000               0.000000000               0.000233989               0.001232439               0.000066715              -0.000066309               0.000432912               0.000366603               0.000000000               0.000000000               0.000000000               0.000000000               0.000211573               0.001246782               0.000053632              -0.000076508               0.000441092               0.000364585               0.000000000               0.000000000               0.000000000               0.000000000               0.000191539               0.001258628               0.000047689              -0.000085501               0.000448039               0.000362538               0.000000000               0.000000000               0.000000000               0.000000000               0.000176665               0.001264733               0.000050754              -0.000091842               0.000452187               0.000360345               0.000000000               0.000000000               0.000000000               0.000000000               0.000162110               0.001270233               0.000054129              -0.000097988               0.000456069               0.000358082               0.000000000               0.000000000               0.000000000               0.000000000               0.000144133               0.001282575               0.000044843              -0.000106272               0.000462945               0.000356673               0.000000000               0.000000000               0.000000000               0.000000000               0.000120831               0.001295943               0.000032642              -0.000116681               0.000470870               0.000354190               0.000000000               0.000000000               0.000000000               0.000000000               0.000097672               0.001310732               0.000024991              -0.000127214               0.000479311               0.000352097               0.000000000               0.000000000               0.000000000               0.000000000               0.000071076               0.001327941               0.000016686              -0.000139339               0.000489089               0.000349750               0.000000000               0.000000000               0.000000000               0.000000000               0.000035392               0.001343905               0.000007440              -0.000154716               0.000499536               0.000344820               0.000000000               0.000000000               0.000000000               0.000000000               0.000020284               0.001358737               0.000005423              -0.000162235               0.000506986               0.000344751               0.000000000               0.000000000               0.000000000               0.000000000               0.000396620               0.001475026               0.000570557              -0.000035646               0.000503553               0.000467906               0.000000000               0.000000000               0.000000000               0.000000000               0.000304399               0.001335782               0.000400495              -0.000052823               0.000462864               0.000410040               0.000000000               0.000000000               0.000000000               0.000000000               0.000271233               0.001279398               0.000229127              -0.000058212               0.000445866               0.000387654               0.000000000               0.000000000               0.000000000               0.000000000               0.000255198               0.001243944               0.000157160              -0.000059794               0.000434575               0.000374781               0.000000000               0.000000000               0.000000000               0.000000000               0.000242809               0.001229374               0.000122411              -0.000062618               0.000430660               0.000368042               0.000000000               0.000000000               0.000000000               0.000000000               0.000224340               0.001232517               0.000100410              -0.000069937               0.000434147               0.000364210               0.000000000               0.000000000               0.000000000               0.000000000               0.000200736               0.001252026               0.000081189              -0.000081227               0.000444413               0.000363186               0.000000000               0.000000000               0.000000000               0.000000000               0.000177884               0.001274507               0.000066037              -0.000092607               0.000455700               0.000363094               0.000000000               0.000000000               0.000000000               0.000000000               0.000159823               0.001289645               0.000060249              -0.000101272               0.000463634               0.000362363               0.000000000               0.000000000               0.000000000               0.000000000               0.000146037               0.001300287               0.000062152              -0.000107772               0.000469348               0.000361577               0.000000000               0.000000000               0.000000000               0.000000000               0.000134857               0.001317391               0.000059649              -0.000114102               0.000477160               0.000363058               0.000000000               0.000000000               0.000000000               0.000000000               0.000120801               0.001343280               0.000046848              -0.000122609               0.000488625               0.000366016               0.000000000               0.000000000               0.000000000               0.000000000               0.000099421               0.001370401               0.000035056              -0.000134017               0.000501468               0.000367451               0.000000000               0.000000000               0.000000000               0.000000000               0.000075961               0.001398529               0.000026694              -0.000146330               0.000514948               0.000368618               0.000000000               0.000000000               0.000000000               0.000000000               0.000051604               0.001428671               0.000018099              -0.000159232               0.000529296               0.000370064               0.000000000               0.000000000               0.000000000               0.000000000               0.000025164               0.001458908               0.000009304              -0.000172927               0.000543940               0.000371014               0.000000000               0.000000000               0.000000000               0.000000000               0.000017074               0.001482103               0.000007622              -0.000178860               0.000553649               0.000374790               0.000000000               0.000000000               0.000000000               0.000000000               0.000434113               0.001268382               0.000581244               0.000004244               0.000421375               0.000425619               0.000000000               0.000000000               0.000000000               0.000000000               0.000316576               0.001200076               0.000418071              -0.000031294               0.000410452               0.000379158               0.000000000               0.000000000               0.000000000               0.000000000               0.000256352               0.001211547               0.000252416              -0.000055311               0.000422282               0.000366971               0.000000000               0.000000000               0.000000000               0.000000000               0.000236078               0.001208909               0.000180412              -0.000062584               0.000423827               0.000361243               0.000000000               0.000000000               0.000000000               0.000000000               0.000223077               0.001215897               0.000142072              -0.000068333               0.000428072               0.000359739               0.000000000               0.000000000               0.000000000               0.000000000               0.000203327               0.001236615               0.000115196              -0.000078329               0.000438311               0.000359981               0.000000000               0.000000000               0.000000000               0.000000000               0.000179900               0.001269130               0.000092867              -0.000091179               0.000453432               0.000362253               0.000000000               0.000000000               0.000000000               0.000000000               0.000159492               0.001297158               0.000077605              -0.000102335               0.000466493               0.000364159               0.000000000               0.000000000               0.000000000               0.000000000               0.000146464               0.001319250               0.000070406              -0.000109982               0.000476406               0.000366424               0.000000000               0.000000000               0.000000000               0.000000000               0.000137584               0.001346371               0.000067391              -0.000116702               0.000487687               0.000370984               0.000000000               0.000000000               0.000000000               0.000000000               0.000126699               0.001386372               0.000059237              -0.000125784               0.000504047               0.000378264               0.000000000               0.000000000               0.000000000               0.000000000               0.000111119               0.001436733               0.000042842              -0.000137922               0.000524880               0.000386958               0.000000000               0.000000000               0.000000000               0.000000000               0.000089817               0.001488379               0.000031129              -0.000152365               0.000546910               0.000394544               0.000000000               0.000000000               0.000000000               0.000000000               0.000065144               0.001537461               0.000024094              -0.000167753               0.000568400               0.000400646               0.000000000               0.000000000               0.000000000               0.000000000               0.000040193               0.001584877               0.000016074              -0.000183037               0.000589300               0.000406262               0.000000000               0.000000000               0.000000000               0.000000000               0.000017675               0.001632382               0.000008399              -0.000197419               0.000609928               0.000412509               0.000000000               0.000000000               0.000000000               0.000000000               0.000013553               0.001666105               0.000008429              -0.000203180               0.000623090               0.000419909               0.000000000               0.000000000               0.000000000               0.000000000               0.000456608               0.001068076               0.000560645               0.000037718               0.000343449               0.000381166               0.000000000               0.000000000               0.000000000               0.000000000               0.000321796               0.001071191               0.000418232              -0.000013226               0.000361469               0.000348243               0.000000000               0.000000000               0.000000000               0.000000000               0.000243857               0.001147782               0.000269450              -0.000052027               0.000399932               0.000347906               0.000000000               0.000000000               0.000000000               0.000000000               0.000223687               0.001176902               0.000197975              -0.000063230               0.000413373               0.000350143               0.000000000               0.000000000               0.000000000               0.000000000               0.000209618               0.001206289               0.000156252              -0.000072179               0.000426152               0.000353973               0.000000000               0.000000000               0.000000000               0.000000000               0.000188713               0.001245730               0.000126145              -0.000084949               0.000443555               0.000358607               0.000000000               0.000000000               0.000000000               0.000000000               0.000166788               0.001289358               0.000102251              -0.000098624               0.000462656               0.000364032               0.000000000               0.000000000               0.000000000               0.000000000               0.000152715               0.001326381               0.000084924              -0.000108529               0.000478299               0.000369770               0.000000000               0.000000000               0.000000000               0.000000000               0.000148889               0.001368236               0.000073131              -0.000115196               0.000494473               0.000379277               0.000000000               0.000000000               0.000000000               0.000000000               0.000145749               0.001423445               0.000062173              -0.000123275               0.000515569               0.000392294               0.000000000               0.000000000               0.000000000               0.000000000               0.000135037               0.001495038               0.000047877              -0.000136241               0.000543754               0.000407514               0.000000000               0.000000000               0.000000000               0.000000000               0.000117732               0.001570356               0.000031441              -0.000152145               0.000574162               0.000422017               0.000000000               0.000000000               0.000000000               0.000000000               0.000094973               0.001641030               0.000022619              -0.000169514               0.000603509               0.000433995               0.000000000               0.000000000               0.000000000               0.000000000               0.000066537               0.001706265               0.000018611              -0.000188331               0.000631526               0.000443195               0.000000000               0.000000000               0.000000000               0.000000000               0.000039870               0.001769973               0.000011949              -0.000206295               0.000658750               0.000452455               0.000000000               0.000000000               0.000000000               0.000000000               0.000018522               0.001831107               0.000005320              -0.000221942               0.000684344               0.000462402               0.000000000               0.000000000               0.000000000               0.000000000               0.000013907               0.001870775               0.000006379              -0.000228631               0.000699796               0.000471165               0.000000000               0.000000000               0.000000000               0.000000000               0.000468517               0.000888223               0.000518037               0.000064665               0.000274516               0.000339181               0.000000000               0.000000000               0.000000000               0.000000000               0.000329214               0.000956332               0.000409350               0.000003913               0.000317470               0.000321383               0.000000000               0.000000000               0.000000000               0.000000000               0.000240636               0.001090146               0.000285920              -0.000046030               0.000378722               0.000332692               0.000000000               0.000000000               0.000000000               0.000000000               0.000219923               0.001149094               0.000214498              -0.000061166               0.000403416               0.000342250               0.000000000               0.000000000               0.000000000               0.000000000               0.000204208               0.001199276               0.000169007              -0.000073332               0.000424198               0.000350867               0.000000000               0.000000000               0.000000000               0.000000000               0.000182355               0.001256568               0.000137450              -0.000088688               0.000448414               0.000359727               0.000000000               0.000000000               0.000000000               0.000000000               0.000164543               0.001312058               0.000112341              -0.000102304               0.000471450               0.000369146               0.000000000               0.000000000               0.000000000               0.000000000               0.000157513               0.001365644               0.000090379              -0.000111638               0.000492423               0.000380785               0.000000000               0.000000000               0.000000000               0.000000000               0.000160752               0.001429689               0.000069940              -0.000118429               0.000516035               0.000397606               0.000000000               0.000000000               0.000000000               0.000000000               0.000165226               0.001512869               0.000051161              -0.000127149               0.000546668               0.000419519               0.000000000               0.000000000               0.000000000               0.000000000               0.000155420               0.001603931               0.000035874              -0.000142208               0.000582041               0.000439833               0.000000000               0.000000000               0.000000000               0.000000000               0.000135062               0.001691329               0.000024470              -0.000160768               0.000617360               0.000456592               0.000000000               0.000000000               0.000000000               0.000000000               0.000114386               0.001771054               0.000016981              -0.000178487               0.000649841               0.000471354               0.000000000               0.000000000               0.000000000               0.000000000               0.000090104               0.001846562               0.000011762              -0.000197031               0.000681191               0.000484161               0.000000000               0.000000000               0.000000000               0.000000000               0.000065234               0.001919767               0.000005160              -0.000215508               0.000711752               0.000496244               0.000000000               0.000000000               0.000000000               0.000000000               0.000046710               0.001986764               0.000000703              -0.000230829               0.000739191               0.000508362               0.000000000               0.000000000               0.000000000               0.000000000               0.000036783               0.002020145              -0.000000316              -0.000238724               0.000752950               0.000514226               0.000000000               0.000000000               0.000000000               0.000000000               0.000462836               0.000709262               0.000462427               0.000084904               0.000208117               0.000293021               0.000000000               0.000000000               0.000000000               0.000000000               0.000338556               0.000820740               0.000396602               0.000024365               0.000265455               0.000289821               0.000000000               0.000000000               0.000000000               0.000000000               0.000247225               0.000997103               0.000306682              -0.000031929               0.000343007               0.000311079               0.000000000               0.000000000               0.000000000               0.000000000               0.000224147               0.001086478               0.000237624              -0.000051755               0.000379407               0.000327652               0.000000000               0.000000000               0.000000000               0.000000000               0.000209886               0.001156156               0.000189593              -0.000065812               0.000407319               0.000341507               0.000000000               0.000000000               0.000000000               0.000000000               0.000191692               0.001225923               0.000157585              -0.000081356               0.000435755               0.000354400               0.000000000               0.000000000               0.000000000               0.000000000               0.000174579               0.001296614               0.000131436              -0.000096609               0.000464404               0.000367794               0.000000000               0.000000000               0.000000000               0.000000000               0.000166896               0.001368075               0.000105099              -0.000108423               0.000492161               0.000383738               0.000000000               0.000000000               0.000000000               0.000000000               0.000172536               0.001447846               0.000081947              -0.000116279               0.000521370               0.000405091               0.000000000               0.000000000               0.000000000               0.000000000               0.000185741               0.001540320               0.000061516              -0.000122887               0.000554397               0.000431510               0.000000000               0.000000000               0.000000000               0.000000000               0.000189718               0.001636615               0.000044810              -0.000133432               0.000590010               0.000456578               0.000000000               0.000000000               0.000000000               0.000000000               0.000178215               0.001728723               0.000033793              -0.000149259               0.000625988               0.000476729               0.000000000               0.000000000               0.000000000               0.000000000               0.000162064               0.001817072               0.000024072              -0.000166359               0.000661138               0.000494778               0.000000000               0.000000000               0.000000000               0.000000000               0.000141571               0.001896018               0.000013043              -0.000183913               0.000693304               0.000509391               0.000000000               0.000000000               0.000000000               0.000000000               0.000117499               0.001969621               0.000006770              -0.000202140               0.000723914               0.000521774               0.000000000               0.000000000               0.000000000               0.000000000               0.000097872               0.002042119               0.000003906              -0.000218562               0.000753554               0.000534991               0.000000000               0.000000000               0.000000000               0.000000000               0.000082323               0.002070142              -0.000001039              -0.000227896               0.000766006               0.000538110               0.000000000               0.000000000               0.000000000               0.000000000               0.000435389               0.000539604               0.000394220               0.000095819               0.000147926               0.000243746               0.000000000               0.000000000               0.000000000               0.000000000               0.000345276               0.000681902               0.000371532               0.000044240               0.000212552               0.000256792               0.000000000               0.000000000               0.000000000               0.000000000               0.000263810               0.000888848               0.000319610              -0.000012178               0.000300339               0.000288161               0.000000000               0.000000000               0.000000000               0.000000000               0.000239154               0.001007134               0.000258528              -0.000036209               0.000347777               0.000311568               0.000000000               0.000000000               0.000000000               0.000000000               0.000226016               0.001095935               0.000211384              -0.000052236               0.000382720               0.000330484               0.000000000               0.000000000               0.000000000               0.000000000               0.000211575               0.001179515               0.000178485              -0.000068099               0.000415867               0.000347768               0.000000000               0.000000000               0.000000000               0.000000000               0.000195799               0.001261920               0.000151271              -0.000084315               0.000448741               0.000364426               0.000000000               0.000000000               0.000000000               0.000000000               0.000187945               0.001345382               0.000125411              -0.000097693               0.000481021               0.000383327               0.000000000               0.000000000               0.000000000               0.000000000               0.000197389               0.001439967               0.000104196              -0.000105975               0.000515309               0.000409334               0.000000000               0.000000000               0.000000000               0.000000000               0.000215194               0.001539926               0.000081442              -0.000111793               0.000550568               0.000438775               0.000000000               0.000000000               0.000000000               0.000000000               0.000228316               0.001638227               0.000059396              -0.000119160               0.000585790               0.000466631               0.000000000               0.000000000               0.000000000               0.000000000               0.000228330               0.001731205               0.000045371              -0.000130777               0.000620655               0.000489878               0.000000000               0.000000000               0.000000000               0.000000000               0.000218267               0.001821087               0.000034524              -0.000145785               0.000655618               0.000509833               0.000000000               0.000000000               0.000000000               0.000000000               0.000203804               0.001902088               0.000020235              -0.000161334               0.000687801               0.000526467               0.000000000               0.000000000               0.000000000               0.000000000               0.000185313               0.001977673               0.000009847              -0.000177716               0.000718457               0.000540740               0.000000000               0.000000000               0.000000000               0.000000000               0.000160078               0.002045575               0.000004754              -0.000195667               0.000747074               0.000551407               0.000000000               0.000000000               0.000000000               0.000000000               0.000138349               0.002070166              -0.000000388              -0.000206889               0.000759012               0.000552122               0.000000000               0.000000000               0.000000000               0.000000000               0.000386267               0.000392037               0.000317592               0.000095844               0.000098729               0.000194574               0.000000000               0.000000000               0.000000000               0.000000000               0.000339631               0.000548754               0.000330294               0.000058766               0.000163327               0.000222094               0.000000000               0.000000000               0.000000000               0.000000000               0.000284154               0.000768917               0.000313091               0.000010443               0.000252822               0.000263265               0.000000000               0.000000000               0.000000000               0.000000000               0.000261708               0.000910009               0.000265429              -0.000015611               0.000308537               0.000292926               0.000000000               0.000000000               0.000000000               0.000000000               0.000249581               0.001019097               0.000222809              -0.000033794               0.000350960               0.000317166               0.000000000               0.000000000               0.000000000               0.000000000               0.000239013               0.001117488               0.000191502              -0.000050056               0.000389178               0.000339121               0.000000000               0.000000000               0.000000000               0.000000000               0.000227299               0.001209087               0.000165862              -0.000065899               0.000424991               0.000359092               0.000000000               0.000000000               0.000000000               0.000000000               0.000224574               0.001310468               0.000144547              -0.000079593               0.000463349               0.000383756               0.000000000               0.000000000               0.000000000               0.000000000               0.000230886               0.001421362               0.000124482              -0.000091088               0.000504145               0.000413057               0.000000000               0.000000000               0.000000000               0.000000000               0.000244320               0.001529532               0.000100684              -0.000099571               0.000543030               0.000443458               0.000000000               0.000000000               0.000000000               0.000000000               0.000261490               0.001632172               0.000077194              -0.000105962               0.000579373               0.000473410               0.000000000               0.000000000               0.000000000               0.000000000               0.000272223               0.001728380               0.000058600              -0.000113964               0.000614109               0.000500145               0.000000000               0.000000000               0.000000000               0.000000000               0.000270150               0.001815658               0.000044229              -0.000125651               0.000647097               0.000521446               0.000000000               0.000000000               0.000000000               0.000000000               0.000262118               0.001897200               0.000030139              -0.000138855               0.000678679               0.000539824               0.000000000               0.000000000               0.000000000               0.000000000               0.000250343               0.001974604               0.000015149              -0.000152946               0.000709177               0.000556230               0.000000000               0.000000000               0.000000000               0.000000000               0.000229177               0.002044608               0.000004811              -0.000169634               0.000738074               0.000568440               0.000000000               0.000000000               0.000000000               0.000000000               0.000206290               0.002071664              -0.000001706              -0.000181599               0.000751081               0.000569482               0.000000000               0.000000000               0.000000000               0.000000000               0.000321488               0.000271663               0.000238454               0.000086599               0.000061687               0.000148286               0.000000000               0.000000000               0.000000000               0.000000000               0.000323048               0.000426416               0.000276332               0.000067840               0.000119524               0.000187364               0.000000000               0.000000000               0.000000000               0.000000000               0.000301727               0.000644815               0.000285887               0.000032545               0.000204088               0.000236633               0.000000000               0.000000000               0.000000000               0.000000000               0.000289718               0.000803893               0.000252596               0.000008157               0.000265243               0.000273400               0.000000000               0.000000000               0.000000000               0.000000000               0.000280684               0.000931313               0.000218830              -0.000011158               0.000314154               0.000302996               0.000000000               0.000000000               0.000000000               0.000000000               0.000273962               0.001041549               0.000192506              -0.000027458               0.000356332               0.000328874               0.000000000               0.000000000               0.000000000               0.000000000               0.000267244               0.001148330               0.000170828              -0.000043325               0.000397215               0.000353890               0.000000000               0.000000000               0.000000000               0.000000000               0.000266728               0.001269027               0.000152708              -0.000058605               0.000442540               0.000383935               0.000000000               0.000000000               0.000000000               0.000000000               0.000269711               0.001391789               0.000134517              -0.000072832               0.000488202               0.000415371               0.000000000               0.000000000               0.000000000               0.000000000               0.000279863               0.001508384               0.000114422              -0.000083599               0.000530656               0.000447057               0.000000000               0.000000000               0.000000000               0.000000000               0.000295434               0.001615083               0.000091942              -0.000091097               0.000568722               0.000477624               0.000000000               0.000000000               0.000000000               0.000000000               0.000307594               0.001707049               0.000070003              -0.000098033               0.000601688               0.000503655               0.000000000               0.000000000               0.000000000               0.000000000               0.000313634               0.001793720               0.000051944              -0.000106602               0.000633435               0.000526833               0.000000000               0.000000000               0.000000000               0.000000000               0.000314211               0.001881374               0.000036751              -0.000117342               0.000666233               0.000548890               0.000000000               0.000000000               0.000000000               0.000000000               0.000310274               0.001962721               0.000020197              -0.000128987               0.000697229               0.000568242               0.000000000               0.000000000               0.000000000               0.000000000               0.000302135               0.002038323               0.000006870              -0.000141489               0.000726598               0.000585108               0.000000000               0.000000000               0.000000000               0.000000000               0.000287269               0.002069487              -0.000000875              -0.000150960               0.000740142               0.000589182               0.000000000               0.000000000               0.000000000               0.000000000               0.000250392               0.000179893               0.000163338               0.000071410               0.000036160               0.000107570               0.000000000               0.000000000               0.000000000               0.000000000               0.000299637               0.000322745               0.000211316               0.000072020               0.000083574               0.000155594               0.000000000               0.000000000               0.000000000               0.000000000               0.000314296               0.000528886               0.000236789               0.000051750               0.000159044               0.000210793               0.000000000               0.000000000               0.000000000               0.000000000               0.000318130               0.000698038               0.000217980               0.000032044               0.000221996               0.000254039               0.000000000               0.000000000               0.000000000               0.000000000               0.000316946               0.000840548               0.000194437               0.000013786               0.000275585               0.000289371               0.000000000               0.000000000               0.000000000               0.000000000               0.000312360               0.000963531               0.000174720              -0.000003306               0.000322276               0.000318970               0.000000000               0.000000000               0.000000000               0.000000000               0.000310474               0.001089120               0.000158213              -0.000019712               0.000369607               0.000349895               0.000000000               0.000000000               0.000000000               0.000000000               0.000310914               0.001222918               0.000143610              -0.000036272               0.000419726               0.000383454               0.000000000               0.000000000               0.000000000               0.000000000               0.000314730               0.001349451               0.000130051              -0.000050658               0.000466698               0.000416041               0.000000000               0.000000000               0.000000000               0.000000000               0.000321201               0.001468618               0.000114047              -0.000063127               0.000510577               0.000447450               0.000000000               0.000000000               0.000000000               0.000000000               0.000329997               0.001577508               0.000093628              -0.000073440               0.000550310               0.000476871               0.000000000               0.000000000               0.000000000               0.000000000               0.000339207               0.001671262               0.000072232              -0.000081705               0.000584317               0.000502612               0.000000000               0.000000000               0.000000000               0.000000000               0.000350224               0.001764563               0.000053872              -0.000089236               0.000617927               0.000528691               0.000000000               0.000000000               0.000000000               0.000000000               0.000359962               0.001859791               0.000038474              -0.000097488               0.000652420               0.000554932               0.000000000               0.000000000               0.000000000               0.000000000               0.000367111               0.001950023               0.000024939              -0.000106086               0.000685363               0.000579277               0.000000000               0.000000000               0.000000000               0.000000000               0.000372997               0.002034040               0.000012373              -0.000114381               0.000716133               0.000601752               0.000000000               0.000000000               0.000000000               0.000000000               0.000368552               0.002069552               0.000004199              -0.000120487               0.000730006               0.000609519               0.000000000               0.000000000               0.000000000               0.000000000               0.000181921               0.000117846               0.000099505               0.000053489               0.000021452               0.000074941               0.000000000               0.000000000               0.000000000               0.000000000               0.000271923               0.000244324               0.000141192               0.000071430               0.000057631               0.000129060               0.000000000               0.000000000               0.000000000               0.000000000               0.000322825               0.000434021               0.000169025               0.000066806               0.000122403               0.000189209               0.000000000               0.000000000               0.000000000               0.000000000               0.000342223               0.000607764               0.000161262               0.000052363               0.000185132               0.000237494               0.000000000               0.000000000               0.000000000               0.000000000               0.000348866               0.000758853               0.000147078               0.000035968               0.000240959               0.000276927               0.000000000               0.000000000               0.000000000               0.000000000               0.000350159               0.000897052               0.000134225               0.000019178               0.000292622               0.000311800               0.000000000               0.000000000               0.000000000               0.000000000               0.000351652               0.001037664               0.000123491               0.000002161               0.000345164               0.000347325               0.000000000               0.000000000               0.000000000               0.000000000               0.000355697               0.001172096               0.000114769              -0.000013125               0.000395070               0.000381944               0.000000000               0.000000000               0.000000000               0.000000000               0.000356700               0.001298636               0.000105084              -0.000028567               0.000442397               0.000413830               0.000000000               0.000000000               0.000000000               0.000000000               0.000357858               0.001421129               0.000092170              -0.000043444               0.000488186               0.000444742               0.000000000               0.000000000               0.000000000               0.000000000               0.000360758               0.001532395               0.000076589              -0.000056265               0.000529548               0.000473283               0.000000000               0.000000000               0.000000000               0.000000000               0.000369241               0.001637087               0.000061256              -0.000066170               0.000567747               0.000501577               0.000000000               0.000000000               0.000000000               0.000000000               0.000384292               0.001742376               0.000047810              -0.000073687               0.000605349               0.000531661               0.000000000               0.000000000               0.000000000               0.000000000               0.000400067               0.001841410               0.000035527              -0.000080151               0.000640514               0.000560363               0.000000000               0.000000000               0.000000000               0.000000000               0.000414667               0.001933340               0.000024926              -0.000086167               0.000673163               0.000586996               0.000000000               0.000000000               0.000000000               0.000000000               0.000429064               0.002022511               0.000013683              -0.000091915               0.000704802               0.000612887               0.000000000               0.000000000               0.000000000               0.000000000               0.000432855               0.002063863               0.000006522              -0.000095662               0.000719835               0.000624173               0.000000000               0.000000000               0.000000000               0.000000000               0.000132609               0.000080332               0.000046667               0.000039686               0.000013548               0.000053235               0.000000000               0.000000000               0.000000000               0.000000000               0.000250227               0.000194834               0.000070438               0.000069480               0.000041784               0.000111264               0.000000000               0.000000000               0.000000000               0.000000000               0.000328235               0.000373304               0.000088245               0.000076424               0.000098959               0.000175383               0.000000000               0.000000000               0.000000000               0.000000000               0.000358086               0.000546310               0.000085998               0.000065993               0.000160104               0.000226097               0.000000000               0.000000000               0.000000000               0.000000000               0.000371632               0.000702050               0.000079358               0.000051605               0.000216812               0.000268418               0.000000000               0.000000000               0.000000000               0.000000000               0.000378706               0.000851107               0.000072945               0.000035626               0.000271824               0.000307450               0.000000000               0.000000000               0.000000000               0.000000000               0.000384071               0.000998924               0.000068596               0.000019161               0.000326585               0.000345745               0.000000000               0.000000000               0.000000000               0.000000000               0.000386006               0.001133464               0.000064867               0.000003069               0.000376794               0.000379864               0.000000000               0.000000000               0.000000000               0.000000000               0.000383700               0.001258403               0.000058748              -0.000013413               0.000423935               0.000410522               0.000000000               0.000000000               0.000000000               0.000000000               0.000382739               0.001380292               0.000051140              -0.000029009               0.000469763               0.000440753               0.000000000               0.000000000               0.000000000               0.000000000               0.000386639               0.001500156               0.000043379              -0.000042530               0.000514223               0.000471694               0.000000000               0.000000000               0.000000000               0.000000000               0.000396600               0.001617911               0.000037230              -0.000053514               0.000557136               0.000503622               0.000000000               0.000000000               0.000000000               0.000000000               0.000410254               0.001727081               0.000030006              -0.000062040               0.000596368               0.000534328               0.000000000               0.000000000               0.000000000               0.000000000               0.000425448               0.001823230               0.000021760              -0.000068360               0.000630524               0.000562164               0.000000000               0.000000000               0.000000000               0.000000000               0.000443973               0.001916345               0.000015344              -0.000073053               0.000663126               0.000590073               0.000000000               0.000000000               0.000000000               0.000000000               0.000467059               0.002013627               0.000008777              -0.000076556               0.000696721               0.000620165               0.000000000               0.000000000               0.000000000               0.000000000               0.000478825               0.002061670               0.000004688              -0.000078149               0.000713266               0.000635117               0.000000000               0.000000000               0.000000000               0.000000000               0.000115138               0.000067645               0.000000000               0.000034721               0.000010975               0.000045695               0.000000000               0.000000000               0.000000000               0.000000000               0.000242397               0.000178341               0.000000000               0.000068606               0.000036578               0.000105184               0.000000000               0.000000000               0.000000000               0.000000000               0.000330005               0.000352663               0.000000000               0.000079668               0.000090997               0.000170665               0.000000000               0.000000000               0.000000000               0.000000000               0.000363611               0.000523386              -0.000000000               0.000070930               0.000150817               0.000221747               0.000000000               0.000000000               0.000000000               0.000000000               0.000380458               0.000681738              -0.000000000               0.000057454               0.000208093               0.000265546               0.000000000               0.000000000               0.000000000               0.000000000               0.000389307               0.000834529               0.000000000               0.000041674               0.000264282               0.000305956               0.000000000               0.000000000               0.000000000               0.000000000               0.000397234               0.000984821               0.000000000               0.000025860               0.000319651               0.000345510               0.000000000               0.000000000               0.000000000               0.000000000               0.000394889               0.001120946               0.000000000               0.000007965               0.000370990               0.000378955               0.000000000               0.000000000               0.000000000               0.000000000               0.000392019               0.001242362               0.000000000              -0.000008288               0.000416879               0.000408591               0.000000000               0.000000000               0.000000000               0.000000000               0.000392229               0.001361683              -0.000000000              -0.000023125               0.000461598               0.000438474               0.000000000               0.000000000               0.000000000               0.000000000               0.000399310               0.001491208               0.000000000              -0.000036660               0.000509284               0.000472625               0.000000000               0.000000000               0.000000000               0.000000000               0.000408827               0.001613929               0.000000000              -0.000048431               0.000554115               0.000505684               0.000000000               0.000000000               0.000000000               0.000000000               0.000418068               0.001717749               0.000000000              -0.000057943               0.000591892               0.000533948               0.000000000               0.000000000               0.000000000               0.000000000               0.000432853               0.001813572               0.000000000              -0.000064376               0.000625977               0.000561600               0.000000000               0.000000000               0.000000000               0.000000000               0.000454372               0.001910965              -0.000000000              -0.000068481               0.000659809               0.000591328               0.000000000               0.000000000               0.000000000               0.000000000               0.000481350               0.002011390              -0.000000000              -0.000070917               0.000694096               0.000623179               0.000000000               0.000000000               0.000000000               0.000000000               0.000496632               0.002061406               0.000000000              -0.000071438               0.000710941               0.000639503               0.000000000               0.000000000               0.000000000               0.000000000               0.000184972               0.002134185              -0.000000000              -0.000197408               0.000777191               0.000579783               0.000000000               0.000000000               0.000000000               0.000000000               0.000217265               0.001793486              -0.000000000              -0.000142711               0.000645393               0.000502682               0.000000000               0.000000000               0.000000000               0.000000000               0.000319076               0.001516884               0.000000000              -0.000069957               0.000528942               0.000458985               0.000000000               0.000000000               0.000000000               0.000000000               0.000356115               0.001358927               0.000000000              -0.000036323               0.000465079               0.000428756               0.000000000               0.000000000               0.000000000               0.000000000               0.000370125               0.001262453               0.000000000              -0.000019010               0.000427150               0.000408140               0.000000000               0.000000000               0.000000000               0.000000000               0.000374370               0.001199888              -0.000000000              -0.000009597               0.000403158               0.000393561               0.000000000               0.000000000               0.000000000               0.000000000               0.000368835               0.001164255               0.000000000              -0.000007219               0.000390487               0.000383269               0.000000000               0.000000000               0.000000000               0.000000000               0.000353893               0.001149153               0.000000000              -0.000010934               0.000386692               0.000375758               0.000000000               0.000000000               0.000000000               0.000000000               0.000330994               0.001153607               0.000000000              -0.000020078               0.000391224               0.000371146               0.000000000               0.000000000               0.000000000               0.000000000               0.000300146               0.001169927               0.000000000              -0.000033686               0.000401201               0.000367514               0.000000000               0.000000000               0.000000000               0.000000000               0.000267679               0.001190062               0.000000000              -0.000048378               0.000412809               0.000364431               0.000000000               0.000000000               0.000000000               0.000000000               0.000234341               0.001210253              -0.000000000              -0.000063404               0.000424548               0.000361145               0.000000000               0.000000000               0.000000000               0.000000000               0.000197169               0.001235252               0.000000000              -0.000080468               0.000438569               0.000358101               0.000000000               0.000000000               0.000000000               0.000000000               0.000154722               0.001264846              -0.000000000              -0.000100085               0.000454973               0.000354888               0.000000000               0.000000000               0.000000000               0.000000000               0.000104721               0.001295243              -0.000000000              -0.000122635               0.000472622               0.000349987               0.000000000               0.000000000               0.000000000               0.000000000               0.000050646               0.001330110              -0.000000000              -0.000147271               0.000492456               0.000345185               0.000000000               0.000000000               0.000000000               0.000000000               0.000028172               0.001361189              -0.000000000              -0.000159584               0.000506920               0.000347336               0.000000000               0.000000000               0.000000000               0.000000000               0.000199084               0.002102346              -0.000167003              -0.000188136               0.000763487               0.000575351               0.000000000               0.000000000               0.000000000               0.000000000               0.000224169               0.001770350              -0.000113813              -0.000137230               0.000635854               0.000498624               0.000000000               0.000000000               0.000000000               0.000000000               0.000316681               0.001503511              -0.000059376              -0.000069184               0.000524227               0.000455043               0.000000000               0.000000000               0.000000000               0.000000000               0.000349558               0.001352616              -0.000034719              -0.000037993               0.000463532               0.000425539               0.000000000               0.000000000               0.000000000               0.000000000               0.000361361               0.001261049              -0.000024080              -0.000022121               0.000427719               0.000405598               0.000000000               0.000000000               0.000000000               0.000000000               0.000362729               0.001203622              -0.000019452              -0.000014429               0.000406013               0.000391584               0.000000000               0.000000000               0.000000000               0.000000000               0.000356413               0.001170093              -0.000016289              -0.000012607               0.000394229               0.000381623               0.000000000               0.000000000               0.000000000               0.000000000               0.000341506               0.001158025              -0.000012832              -0.000016688               0.000391567               0.000374879               0.000000000               0.000000000               0.000000000               0.000000000               0.000317437               0.001163011              -0.000010749              -0.000026338               0.000396446               0.000370108               0.000000000               0.000000000               0.000000000               0.000000000               0.000288847               0.001177460              -0.000012607              -0.000038865               0.000405438               0.000366573               0.000000000               0.000000000               0.000000000               0.000000000               0.000260112               0.001195490              -0.000017992              -0.000051894               0.000415791               0.000363896               0.000000000               0.000000000               0.000000000               0.000000000               0.000227668               0.001212932              -0.000020055              -0.000066241               0.000426387               0.000360146               0.000000000               0.000000000               0.000000000               0.000000000               0.000189467               0.001235117              -0.000017630              -0.000083339               0.000439481               0.000356142               0.000000000               0.000000000               0.000000000               0.000000000               0.000148626               0.001261334              -0.000016730              -0.000101932               0.000454418               0.000352486               0.000000000               0.000000000               0.000000000               0.000000000               0.000103046               0.001288590              -0.000014425              -0.000122431               0.000470336               0.000347905               0.000000000               0.000000000               0.000000000               0.000000000               0.000051005               0.001317805              -0.000008255              -0.000145598               0.000487797               0.000342198               0.000000000               0.000000000               0.000000000               0.000000000               0.000027781               0.001342781              -0.000005209              -0.000157429               0.000500066               0.000342636               0.000000000               0.000000000               0.000000000               0.000000000               0.000235655               0.002007819              -0.000316563              -0.000162607               0.000723468               0.000560862               0.000000000               0.000000000               0.000000000               0.000000000               0.000239970               0.001702674              -0.000216621              -0.000122845               0.000608501               0.000485655               0.000000000               0.000000000               0.000000000               0.000000000               0.000309941               0.001466984              -0.000114090              -0.000067145               0.000511371               0.000444226               0.000000000               0.000000000               0.000000000               0.000000000               0.000332164               0.001336975              -0.000068315              -0.000042560               0.000459841               0.000417280               0.000000000               0.000000000               0.000000000               0.000000000               0.000336638               0.001257679              -0.000048650              -0.000030971               0.000429546               0.000398575               0.000000000               0.000000000               0.000000000               0.000000000               0.000333030               0.001211251              -0.000039975              -0.000026520               0.000412586               0.000386066               0.000000000               0.000000000               0.000000000               0.000000000               0.000323150               0.001187009              -0.000033311              -0.000027195               0.000404731               0.000377536               0.000000000               0.000000000               0.000000000               0.000000000               0.000305774               0.001181358              -0.000026118              -0.000033004               0.000404784               0.000371779               0.000000000               0.000000000               0.000000000               0.000000000               0.000282840               0.001188297              -0.000022535              -0.000042472               0.000410253               0.000367781               0.000000000               0.000000000               0.000000000               0.000000000               0.000258226               0.001199025              -0.000025544              -0.000053043               0.000417352               0.000364309               0.000000000               0.000000000               0.000000000               0.000000000               0.000233014               0.001210080              -0.000033396              -0.000063879               0.000424649               0.000360770               0.000000000               0.000000000               0.000000000               0.000000000               0.000205984               0.001223306              -0.000034481              -0.000075669               0.000432988               0.000357319               0.000000000               0.000000000               0.000000000               0.000000000               0.000172740               0.001240413              -0.000028683              -0.000090274               0.000443558               0.000353284               0.000000000               0.000000000               0.000000000               0.000000000               0.000134646               0.001258438              -0.000025744              -0.000106812               0.000455079               0.000348267               0.000000000               0.000000000               0.000000000               0.000000000               0.000092996               0.001276989              -0.000020275              -0.000124750               0.000467242               0.000342492               0.000000000               0.000000000               0.000000000               0.000000000               0.000046323               0.001294894              -0.000010634              -0.000144490               0.000479790               0.000335300               0.000000000               0.000000000               0.000000000               0.000000000               0.000024561               0.001308931              -0.000006455              -0.000154406               0.000487775               0.000333369               0.000000000               0.000000000               0.000000000               0.000000000               0.000287632               0.001860651              -0.000438322              -0.000124719               0.000661784               0.000537064               0.000000000               0.000000000               0.000000000               0.000000000               0.000261353               0.001598826              -0.000300873              -0.000101846               0.000566885               0.000465039               0.000000000               0.000000000               0.000000000               0.000000000               0.000299563               0.001413616              -0.000160372              -0.000064366               0.000492656               0.000428290               0.000000000               0.000000000               0.000000000               0.000000000               0.000306660               0.001312126              -0.000100358              -0.000049018               0.000453710               0.000404692               0.000000000               0.000000000               0.000000000               0.000000000               0.000302490               0.001251761              -0.000074158              -0.000043036               0.000431595               0.000388559               0.000000000               0.000000000               0.000000000               0.000000000               0.000294191               0.001221057              -0.000060702              -0.000042311               0.000421118               0.000378808               0.000000000               0.000000000               0.000000000               0.000000000               0.000278153               0.001209743              -0.000050608              -0.000046911               0.000418881               0.000371970               0.000000000               0.000000000               0.000000000               0.000000000               0.000258026               0.001214135              -0.000040166              -0.000055007               0.000423043               0.000368036               0.000000000               0.000000000               0.000000000               0.000000000               0.000236799               0.001222068              -0.000034717              -0.000063959               0.000428672               0.000364713               0.000000000               0.000000000               0.000000000               0.000000000               0.000217701               0.001230418              -0.000038486              -0.000072164               0.000434190               0.000362026               0.000000000               0.000000000               0.000000000               0.000000000               0.000199079               0.001235379              -0.000044737              -0.000079767               0.000438378               0.000358611               0.000000000               0.000000000               0.000000000               0.000000000               0.000175363               0.001244691              -0.000041196              -0.000089825               0.000444834               0.000355009               0.000000000               0.000000000               0.000000000               0.000000000               0.000145833               0.001256704              -0.000031742              -0.000102401               0.000453031               0.000350630               0.000000000               0.000000000               0.000000000               0.000000000               0.000116011               0.001269629              -0.000025749              -0.000115199               0.000461605               0.000346406               0.000000000               0.000000000               0.000000000               0.000000000               0.000082924               0.001283106              -0.000017142              -0.000129291               0.000470795               0.000341504               0.000000000               0.000000000               0.000000000               0.000000000               0.000042367               0.001294758              -0.000007131              -0.000145957               0.000480234               0.000334277               0.000000000               0.000000000               0.000000000               0.000000000               0.000023381               0.001305240              -0.000004557              -0.000154387               0.000486538               0.000332151               0.000000000               0.000000000               0.000000000               0.000000000               0.000345618               0.001677773              -0.000523534              -0.000080115               0.000585957               0.000505842               0.000000000               0.000000000               0.000000000               0.000000000               0.000284918               0.001471939              -0.000361911              -0.000077148               0.000516357               0.000439209               0.000000000               0.000000000               0.000000000               0.000000000               0.000285694               0.001348398              -0.000198533              -0.000061414               0.000469933               0.000408519               0.000000000               0.000000000               0.000000000               0.000000000               0.000279077               0.001279253              -0.000130253              -0.000055252               0.000444831               0.000389578               0.000000000               0.000000000               0.000000000               0.000000000               0.000269831               0.001242726              -0.000098798              -0.000054154               0.000432289               0.000378135               0.000000000               0.000000000               0.000000000               0.000000000               0.000254586               0.001228809              -0.000081666              -0.000058131               0.000428976               0.000370845               0.000000000               0.000000000               0.000000000               0.000000000               0.000233989               0.001232439              -0.000066715              -0.000066309               0.000432912               0.000366603               0.000000000               0.000000000               0.000000000               0.000000000               0.000211573               0.001246782              -0.000053632              -0.000076508               0.000441092               0.000364585               0.000000000               0.000000000               0.000000000               0.000000000               0.000191539               0.001258628              -0.000047689              -0.000085501               0.000448039               0.000362538               0.000000000               0.000000000               0.000000000               0.000000000               0.000176665               0.001264733              -0.000050754              -0.000091842               0.000452187               0.000360345               0.000000000               0.000000000               0.000000000               0.000000000               0.000162110               0.001270233              -0.000054129              -0.000097988               0.000456069               0.000358082               0.000000000               0.000000000               0.000000000               0.000000000               0.000144133               0.001282575              -0.000044843              -0.000106272               0.000462945               0.000356673               0.000000000               0.000000000               0.000000000               0.000000000               0.000120831               0.001295943              -0.000032642              -0.000116681               0.000470870               0.000354190               0.000000000               0.000000000               0.000000000               0.000000000               0.000097672               0.001310732              -0.000024991              -0.000127214               0.000479311               0.000352097               0.000000000               0.000000000               0.000000000               0.000000000               0.000071076               0.001327941              -0.000016686              -0.000139339               0.000489089               0.000349750               0.000000000               0.000000000               0.000000000               0.000000000               0.000035392               0.001343905              -0.000007440              -0.000154716               0.000499536               0.000344820               0.000000000               0.000000000               0.000000000               0.000000000               0.000020284               0.001358737              -0.000005423              -0.000162235               0.000506986               0.000344751               0.000000000               0.000000000               0.000000000               0.000000000               0.000396620               0.001475026              -0.000570557              -0.000035646               0.000503553               0.000467906               0.000000000               0.000000000               0.000000000               0.000000000               0.000304399               0.001335782              -0.000400495              -0.000052823               0.000462864               0.000410040               0.000000000               0.000000000               0.000000000               0.000000000               0.000271233               0.001279398              -0.000229127              -0.000058212               0.000445866               0.000387654               0.000000000               0.000000000               0.000000000               0.000000000               0.000255198               0.001243944              -0.000157160              -0.000059794               0.000434575               0.000374781               0.000000000               0.000000000               0.000000000               0.000000000               0.000242809               0.001229374              -0.000122411              -0.000062618               0.000430660               0.000368042               0.000000000               0.000000000               0.000000000               0.000000000               0.000224340               0.001232517              -0.000100410              -0.000069937               0.000434147               0.000364210               0.000000000               0.000000000               0.000000000               0.000000000               0.000200736               0.001252026              -0.000081189              -0.000081227               0.000444413               0.000363186               0.000000000               0.000000000               0.000000000               0.000000000               0.000177884               0.001274507              -0.000066037              -0.000092607               0.000455700               0.000363094               0.000000000               0.000000000               0.000000000               0.000000000               0.000159823               0.001289645              -0.000060249              -0.000101272               0.000463634               0.000362363               0.000000000               0.000000000               0.000000000               0.000000000               0.000146037               0.001300287              -0.000062152              -0.000107772               0.000469348               0.000361577               0.000000000               0.000000000               0.000000000               0.000000000               0.000134857               0.001317391              -0.000059649              -0.000114102               0.000477160               0.000363058               0.000000000               0.000000000               0.000000000               0.000000000               0.000120801               0.001343280              -0.000046848              -0.000122609               0.000488625               0.000366016               0.000000000               0.000000000               0.000000000               0.000000000               0.000099421               0.001370401              -0.000035056              -0.000134017               0.000501468               0.000367451               0.000000000               0.000000000               0.000000000               0.000000000               0.000075961               0.001398529              -0.000026694              -0.000146330               0.000514948               0.000368618               0.000000000               0.000000000               0.000000000               0.000000000               0.000051604               0.001428671              -0.000018099              -0.000159232               0.000529296               0.000370064               0.000000000               0.000000000               0.000000000               0.000000000               0.000025164               0.001458908              -0.000009304              -0.000172927               0.000543940               0.000371014               0.000000000               0.000000000               0.000000000               0.000000000               0.000017074               0.001482103              -0.000007622              -0.000178860               0.000553649               0.000374790               0.000000000               0.000000000               0.000000000               0.000000000               0.000434113               0.001268382              -0.000581244               0.000004244               0.000421375               0.000425619               0.000000000               0.000000000               0.000000000               0.000000000               0.000316576               0.001200076              -0.000418071              -0.000031294               0.000410452               0.000379158               0.000000000               0.000000000               0.000000000               0.000000000               0.000256352               0.001211547              -0.000252416              -0.000055311               0.000422282               0.000366971               0.000000000               0.000000000               0.000000000               0.000000000               0.000236078               0.001208909              -0.000180412              -0.000062584               0.000423827               0.000361243               0.000000000               0.000000000               0.000000000               0.000000000               0.000223077               0.001215897              -0.000142072              -0.000068333               0.000428072               0.000359739               0.000000000               0.000000000               0.000000000               0.000000000               0.000203327               0.001236615              -0.000115196              -0.000078329               0.000438311               0.000359981               0.000000000               0.000000000               0.000000000               0.000000000               0.000179900               0.001269130              -0.000092867              -0.000091179               0.000453432               0.000362253               0.000000000               0.000000000               0.000000000               0.000000000               0.000159492               0.001297158              -0.000077605              -0.000102335               0.000466493               0.000364159               0.000000000               0.000000000               0.000000000               0.000000000               0.000146464               0.001319250              -0.000070406              -0.000109982               0.000476406               0.000366424               0.000000000               0.000000000               0.000000000               0.000000000               0.000137584               0.001346371              -0.000067391              -0.000116702               0.000487687               0.000370984               0.000000000               0.000000000               0.000000000               0.000000000               0.000126699               0.001386372              -0.000059237              -0.000125784               0.000504047               0.000378264               0.000000000               0.000000000               0.000000000               0.000000000               0.000111119               0.001436733              -0.000042842              -0.000137922               0.000524880               0.000386958               0.000000000               0.000000000               0.000000000               0.000000000               0.000089817               0.001488379              -0.000031129              -0.000152365               0.000546910               0.000394544               0.000000000               0.000000000               0.000000000               0.000000000               0.000065144               0.001537461              -0.000024094              -0.000167753               0.000568400               0.000400646               0.000000000               0.000000000               0.000000000               0.000000000               0.000040193               0.001584877              -0.000016074              -0.000183037               0.000589300               0.000406262               0.000000000               0.000000000               0.000000000               0.000000000               0.000017675               0.001632382              -0.000008399              -0.000197419               0.000609928               0.000412509               0.000000000               0.000000000               0.000000000               0.000000000               0.000013553               0.001666105              -0.000008429              -0.000203180               0.000623090               0.000419909               0.000000000               0.000000000               0.000000000               0.000000000               0.000456608               0.001068076              -0.000560645               0.000037718               0.000343449               0.000381166               0.000000000               0.000000000               0.000000000               0.000000000               0.000321796               0.001071191              -0.000418232              -0.000013226               0.000361469               0.000348243               0.000000000               0.000000000               0.000000000               0.000000000               0.000243857               0.001147782              -0.000269450              -0.000052027               0.000399932               0.000347906               0.000000000               0.000000000               0.000000000               0.000000000               0.000223687               0.001176902              -0.000197975              -0.000063230               0.000413373               0.000350143               0.000000000               0.000000000               0.000000000               0.000000000               0.000209618               0.001206289              -0.000156252              -0.000072179               0.000426152               0.000353973               0.000000000               0.000000000               0.000000000               0.000000000               0.000188713               0.001245730              -0.000126145              -0.000084949               0.000443555               0.000358607               0.000000000               0.000000000               0.000000000               0.000000000               0.000166788               0.001289358              -0.000102251              -0.000098624               0.000462656               0.000364032               0.000000000               0.000000000               0.000000000               0.000000000               0.000152715               0.001326381              -0.000084924              -0.000108529               0.000478299               0.000369770               0.000000000               0.000000000               0.000000000               0.000000000               0.000148889               0.001368236              -0.000073131              -0.000115196               0.000494473               0.000379277               0.000000000               0.000000000               0.000000000               0.000000000               0.000145749               0.001423445              -0.000062173              -0.000123275               0.000515569               0.000392294               0.000000000               0.000000000               0.000000000               0.000000000               0.000135037               0.001495038              -0.000047877              -0.000136241               0.000543754               0.000407514               0.000000000               0.000000000               0.000000000               0.000000000               0.000117732               0.001570356              -0.000031441              -0.000152145               0.000574162               0.000422017               0.000000000               0.000000000               0.000000000               0.000000000               0.000094973               0.001641030              -0.000022619              -0.000169514               0.000603509               0.000433995               0.000000000               0.000000000               0.000000000               0.000000000               0.000066537               0.001706265              -0.000018611              -0.000188331               0.000631526               0.000443195               0.000000000               0.000000000               0.000000000               0.000000000               0.000039870               0.001769973              -0.000011949              -0.000206295               0.000658750               0.000452455               0.000000000               0.000000000               0.000000000               0.000000000               0.000018522               0.001831107              -0.000005320              -0.000221942               0.000684344               0.000462402               0.000000000               0.000000000               0.000000000               0.000000000               0.000013907               0.001870775              -0.000006379              -0.000228631               0.000699796               0.000471165               0.000000000               0.000000000               0.000000000               0.000000000               0.000468517               0.000888223              -0.000518037               0.000064665               0.000274516               0.000339181               0.000000000               0.000000000               0.000000000               0.000000000               0.000329214               0.000956332              -0.000409350               0.000003913               0.000317470               0.000321383               0.000000000               0.000000000               0.000000000               0.000000000               0.000240636               0.001090146              -0.000285920              -0.000046030               0.000378722               0.000332692               0.000000000               0.000000000               0.000000000               0.000000000               0.000219923               0.001149094              -0.000214498              -0.000061166               0.000403416               0.000342250               0.000000000               0.000000000               0.000000000               0.000000000               0.000204208               0.001199276              -0.000169007              -0.000073332               0.000424198               0.000350867               0.000000000               0.000000000               0.000000000               0.000000000               0.000182355               0.001256568              -0.000137450              -0.000088688               0.000448414               0.000359727               0.000000000               0.000000000               0.000000000               0.000000000               0.000164543               0.001312058              -0.000112341              -0.000102304               0.000471450               0.000369146               0.000000000               0.000000000               0.000000000               0.000000000               0.000157513               0.001365644              -0.000090379              -0.000111638               0.000492423               0.000380785               0.000000000               0.000000000               0.000000000               0.000000000               0.000160752               0.001429689              -0.000069940              -0.000118429               0.000516035               0.000397606               0.000000000               0.000000000               0.000000000               0.000000000               0.000165226               0.001512869              -0.000051161              -0.000127149               0.000546668               0.000419519               0.000000000               0.000000000               0.000000000               0.000000000               0.000155420               0.001603931              -0.000035874              -0.000142208               0.000582041               0.000439833               0.000000000               0.000000000               0.000000000               0.000000000               0.000135062               0.001691329              -0.000024470              -0.000160768               0.000617360               0.000456592               0.000000000               0.000000000               0.000000000               0.000000000               0.000114386               0.001771054              -0.000016981              -0.000178487               0.000649841               0.000471354               0.000000000               0.000000000               0.000000000               0.000000000               0.000090104               0.001846562              -0.000011762              -0.000197031               0.000681191               0.000484161               0.000000000               0.000000000               0.000000000               0.000000000               0.000065234               0.001919767              -0.000005160              -0.000215508               0.000711752               0.000496244               0.000000000               0.000000000               0.000000000               0.000000000               0.000046710               0.001986764              -0.000000703              -0.000230829               0.000739191               0.000508362               0.000000000               0.000000000               0.000000000               0.000000000               0.000036783               0.002020145               0.000000316              -0.000238724               0.000752950               0.000514226               0.000000000               0.000000000               0.000000000               0.000000000               0.000462836               0.000709262              -0.000462427               0.000084904               0.000208117               0.000293021               0.000000000               0.000000000               0.000000000               0.000000000               0.000338556               0.000820740              -0.000396602               0.000024365               0.000265455               0.000289821               0.000000000               0.000000000               0.000000000               0.000000000               0.000247225               0.000997103              -0.000306682              -0.000031929               0.000343007               0.000311079               0.000000000               0.000000000               0.000000000               0.000000000               0.000224147               0.001086478              -0.000237624              -0.000051755               0.000379407               0.000327652               0.000000000               0.000000000               0.000000000               0.000000000               0.000209886               0.001156156              -0.000189593              -0.000065812               0.000407319               0.000341507               0.000000000               0.000000000               0.000000000               0.000000000               0.000191692               0.001225923              -0.000157585              -0.000081356               0.000435755               0.000354400               0.000000000               0.000000000               0.000000000               0.000000000               0.000174579               0.001296614              -0.000131436              -0.000096609               0.000464404               0.000367794               0.000000000               0.000000000               0.000000000               0.000000000               0.000166896               0.001368075              -0.000105099              -0.000108423               0.000492161               0.000383738               0.000000000               0.000000000               0.000000000               0.000000000               0.000172536               0.001447846              -0.000081947              -0.000116279               0.000521370               0.000405091               0.000000000               0.000000000               0.000000000               0.000000000               0.000185741               0.001540320              -0.000061516              -0.000122887               0.000554397               0.000431510               0.000000000               0.000000000               0.000000000               0.000000000               0.000189718               0.001636615              -0.000044810              -0.000133432               0.000590010               0.000456578               0.000000000               0.000000000               0.000000000               0.000000000               0.000178215               0.001728723              -0.000033793              -0.000149259               0.000625988               0.000476729               0.000000000               0.000000000               0.000000000               0.000000000               0.000162064               0.001817072              -0.000024072              -0.000166359               0.000661138               0.000494778               0.000000000               0.000000000               0.000000000               0.000000000               0.000141571               0.001896018              -0.000013043              -0.000183913               0.000693304               0.000509391               0.000000000               0.000000000               0.000000000               0.000000000               0.000117499               0.001969621              -0.000006770              -0.000202140               0.000723914               0.000521774               0.000000000               0.000000000               0.000000000               0.000000000               0.000097872               0.002042119              -0.000003906              -0.000218562               0.000753554               0.000534991               0.000000000               0.000000000               0.000000000               0.000000000               0.000082323               0.002070142               0.000001039              -0.000227896               0.000766006               0.000538110               0.000000000               0.000000000               0.000000000               0.000000000               0.000435389               0.000539604              -0.000394220               0.000095819               0.000147926               0.000243746               0.000000000               0.000000000               0.000000000               0.000000000               0.000345276               0.000681902              -0.000371532               0.000044240               0.000212552               0.000256792               0.000000000               0.000000000               0.000000000               0.000000000               0.000263810               0.000888848              -0.000319610              -0.000012178               0.000300339               0.000288161               0.000000000               0.000000000               0.000000000               0.000000000               0.000239154               0.001007134              -0.000258528              -0.000036209               0.000347777               0.000311568               0.000000000               0.000000000               0.000000000               0.000000000               0.000226016               0.001095935              -0.000211384              -0.000052236               0.000382720               0.000330484               0.000000000               0.000000000               0.000000000               0.000000000               0.000211575               0.001179515              -0.000178485              -0.000068099               0.000415867               0.000347768               0.000000000               0.000000000               0.000000000               0.000000000               0.000195799               0.001261920              -0.000151271              -0.000084315               0.000448741               0.000364426               0.000000000               0.000000000               0.000000000               0.000000000               0.000187945               0.001345382              -0.000125411              -0.000097693               0.000481021               0.000383327               0.000000000               0.000000000               0.000000000               0.000000000               0.000197389               0.001439967              -0.000104196              -0.000105975               0.000515309               0.000409334               0.000000000               0.000000000               0.000000000               0.000000000               0.000215194               0.001539926              -0.000081442              -0.000111793               0.000550568               0.000438775               0.000000000               0.000000000               0.000000000               0.000000000               0.000228316               0.001638227              -0.000059396              -0.000119160               0.000585790               0.000466631               0.000000000               0.000000000               0.000000000               0.000000000               0.000228330               0.001731205              -0.000045371              -0.000130777               0.000620655               0.000489878               0.000000000               0.000000000               0.000000000               0.000000000               0.000218267               0.001821087              -0.000034524              -0.000145785               0.000655618               0.000509833               0.000000000               0.000000000               0.000000000               0.000000000               0.000203804               0.001902088              -0.000020235              -0.000161334               0.000687801               0.000526467               0.000000000               0.000000000               0.000000000               0.000000000               0.000185313               0.001977673              -0.000009847              -0.000177716               0.000718457               0.000540740               0.000000000               0.000000000               0.000000000               0.000000000               0.000160078               0.002045575              -0.000004754              -0.000195667               0.000747074               0.000551407               0.000000000               0.000000000               0.000000000               0.000000000               0.000138349               0.002070166               0.000000388              -0.000206889               0.000759012               0.000552122               0.000000000               0.000000000               0.000000000               0.000000000               0.000386267               0.000392037              -0.000317592               0.000095844               0.000098729               0.000194574               0.000000000               0.000000000               0.000000000               0.000000000               0.000339631               0.000548754              -0.000330294               0.000058766               0.000163327               0.000222094               0.000000000               0.000000000               0.000000000               0.000000000               0.000284154               0.000768917              -0.000313091               0.000010443               0.000252822               0.000263265               0.000000000               0.000000000               0.000000000               0.000000000               0.000261708               0.000910009              -0.000265429              -0.000015611               0.000308537               0.000292926               0.000000000               0.000000000               0.000000000               0.000000000               0.000249581               0.001019097              -0.000222809              -0.000033794               0.000350960               0.000317166               0.000000000               0.000000000               0.000000000               0.000000000               0.000239013               0.001117488              -0.000191502              -0.000050056               0.000389178               0.000339121               0.000000000               0.000000000               0.000000000               0.000000000               0.000227299               0.001209087              -0.000165862              -0.000065899               0.000424991               0.000359092               0.000000000               0.000000000               0.000000000               0.000000000               0.000224574               0.001310468              -0.000144547              -0.000079593               0.000463349               0.000383756               0.000000000               0.000000000               0.000000000               0.000000000               0.000230886               0.001421362              -0.000124482              -0.000091088               0.000504145               0.000413057               0.000000000               0.000000000               0.000000000               0.000000000               0.000244320               0.001529532              -0.000100684              -0.000099571               0.000543030               0.000443458               0.000000000               0.000000000               0.000000000               0.000000000               0.000261490               0.001632172              -0.000077194              -0.000105962               0.000579373               0.000473410               0.000000000               0.000000000               0.000000000               0.000000000               0.000272223               0.001728380              -0.000058600              -0.000113964               0.000614109               0.000500145               0.000000000               0.000000000               0.000000000               0.000000000               0.000270150               0.001815658              -0.000044229              -0.000125651               0.000647097               0.000521446               0.000000000               0.000000000               0.000000000               0.000000000               0.000262118               0.001897200              -0.000030139              -0.000138855               0.000678679               0.000539824               0.000000000               0.000000000               0.000000000               0.000000000               0.000250343               0.001974604              -0.000015149              -0.000152946               0.000709177               0.000556230               0.000000000               0.000000000               0.000000000               0.000000000               0.000229177               0.002044608              -0.000004811              -0.000169634               0.000738074               0.000568440               0.000000000               0.000000000               0.000000000               0.000000000               0.000206290               0.002071664               0.000001706              -0.000181599               0.000751081               0.000569482               0.000000000               0.000000000               0.000000000               0.000000000               0.000321488               0.000271663              -0.000238454               0.000086599               0.000061687               0.000148286               0.000000000               0.000000000               0.000000000               0.000000000               0.000323048               0.000426416              -0.000276332               0.000067840               0.000119524               0.000187364               0.000000000               0.000000000               0.000000000               0.000000000               0.000301727               0.000644815              -0.000285887               0.000032545               0.000204088               0.000236633               0.000000000               0.000000000               0.000000000               0.000000000               0.000289718               0.000803893              -0.000252596               0.000008157               0.000265243               0.000273400               0.000000000               0.000000000               0.000000000               0.000000000               0.000280684               0.000931313              -0.000218830              -0.000011158               0.000314154               0.000302996               0.000000000               0.000000000               0.000000000               0.000000000               0.000273962               0.001041549              -0.000192506              -0.000027458               0.000356332               0.000328874               0.000000000               0.000000000               0.000000000               0.000000000               0.000267244               0.001148330              -0.000170828              -0.000043325               0.000397215               0.000353890               0.000000000               0.000000000               0.000000000               0.000000000               0.000266728               0.001269027              -0.000152708              -0.000058605               0.000442540               0.000383935               0.000000000               0.000000000               0.000000000               0.000000000               0.000269711               0.001391789              -0.000134517              -0.000072832               0.000488202               0.000415371               0.000000000               0.000000000               0.000000000               0.000000000               0.000279863               0.001508384              -0.000114422              -0.000083599               0.000530656               0.000447057               0.000000000               0.000000000               0.000000000               0.000000000               0.000295434               0.001615083              -0.000091942              -0.000091097               0.000568722               0.000477624               0.000000000               0.000000000               0.000000000               0.000000000               0.000307594               0.001707049              -0.000070003              -0.000098033               0.000601688               0.000503655               0.000000000               0.000000000               0.000000000               0.000000000               0.000313634               0.001793720              -0.000051944              -0.000106602               0.000633435               0.000526833               0.000000000               0.000000000               0.000000000               0.000000000               0.000314211               0.001881374              -0.000036751              -0.000117342               0.000666233               0.000548890               0.000000000               0.000000000               0.000000000               0.000000000               0.000310274               0.001962721              -0.000020197              -0.000128987               0.000697229               0.000568242               0.000000000               0.000000000               0.000000000               0.000000000               0.000302135               0.002038323              -0.000006870              -0.000141489               0.000726598               0.000585108               0.000000000               0.000000000               0.000000000               0.000000000               0.000287269               0.002069487               0.000000875              -0.000150960               0.000740142               0.000589182               0.000000000               0.000000000               0.000000000               0.000000000               0.000250392               0.000179893              -0.000163338               0.000071410               0.000036160               0.000107570               0.000000000               0.000000000               0.000000000               0.000000000               0.000299637               0.000322745              -0.000211316               0.000072020               0.000083574               0.000155594               0.000000000               0.000000000               0.000000000               0.000000000               0.000314296               0.000528886              -0.000236789               0.000051750               0.000159044               0.000210793               0.000000000               0.000000000               0.000000000               0.000000000               0.000318130               0.000698038              -0.000217980               0.000032044               0.000221996               0.000254039               0.000000000               0.000000000               0.000000000               0.000000000               0.000316946               0.000840548              -0.000194437               0.000013786               0.000275585               0.000289371               0.000000000               0.000000000               0.000000000               0.000000000               0.000312360               0.000963531              -0.000174720              -0.000003306               0.000322276               0.000318970               0.000000000               0.000000000               0.000000000               0.000000000               0.000310474               0.001089120              -0.000158213              -0.000019712               0.000369607               0.000349895               0.000000000               0.000000000               0.000000000               0.000000000               0.000310914               0.001222918              -0.000143610              -0.000036272               0.000419726               0.000383454               0.000000000               0.000000000               0.000000000               0.000000000               0.000314730               0.001349451              -0.000130051              -0.000050658               0.000466698               0.000416041               0.000000000               0.000000000               0.000000000               0.000000000               0.000321201               0.001468618              -0.000114047              -0.000063127               0.000510577               0.000447450               0.000000000               0.000000000               0.000000000               0.000000000               0.000329997               0.001577508              -0.000093628              -0.000073440               0.000550310               0.000476871               0.000000000               0.000000000               0.000000000               0.000000000               0.000339207               0.001671262              -0.000072232              -0.000081705               0.000584317               0.000502612               0.000000000               0.000000000               0.000000000               0.000000000               0.000350224               0.001764563              -0.000053872              -0.000089236               0.000617927               0.000528691               0.000000000               0.000000000               0.000000000               0.000000000               0.000359962               0.001859791              -0.000038474              -0.000097488               0.000652420               0.000554932               0.000000000               0.000000000               0.000000000               0.000000000               0.000367111               0.001950023              -0.000024939              -0.000106086               0.000685363               0.000579277               0.000000000               0.000000000               0.000000000               0.000000000               0.000372997               0.002034040              -0.000012373              -0.000114381               0.000716133               0.000601752               0.000000000               0.000000000               0.000000000               0.000000000               0.000368552               0.002069552              -0.000004199              -0.000120487               0.000730006               0.000609519               0.000000000               0.000000000               0.000000000               0.000000000               0.000181921               0.000117846              -0.000099505               0.000053489               0.000021452               0.000074941               0.000000000               0.000000000               0.000000000               0.000000000               0.000271923               0.000244324              -0.000141192               0.000071430               0.000057631               0.000129060               0.000000000               0.000000000               0.000000000               0.000000000               0.000322825               0.000434021              -0.000169025               0.000066806               0.000122403               0.000189209               0.000000000               0.000000000               0.000000000               0.000000000               0.000342223               0.000607764              -0.000161262               0.000052363               0.000185132               0.000237494               0.000000000               0.000000000               0.000000000               0.000000000               0.000348866               0.000758853              -0.000147078               0.000035968               0.000240959               0.000276927               0.000000000               0.000000000               0.000000000               0.000000000               0.000350159               0.000897052              -0.000134225               0.000019178               0.000292622               0.000311800               0.000000000               0.000000000               0.000000000               0.000000000               0.000351652               0.001037664              -0.000123491               0.000002161               0.000345164               0.000347325               0.000000000               0.000000000               0.000000000               0.000000000               0.000355697               0.001172096              -0.000114769              -0.000013125               0.000395070               0.000381944               0.000000000               0.000000000               0.000000000               0.000000000               0.000356700               0.001298636              -0.000105084              -0.000028567               0.000442397               0.000413830               0.000000000               0.000000000               0.000000000               0.000000000               0.000357858               0.001421129              -0.000092170              -0.000043444               0.000488186               0.000444742               0.000000000               0.000000000               0.000000000               0.000000000               0.000360758               0.001532395              -0.000076589              -0.000056265               0.000529548               0.000473283               0.000000000               0.000000000               0.000000000               0.000000000               0.000369241               0.001637087              -0.000061256              -0.000066170               0.000567747               0.000501577               0.000000000               0.000000000               0.000000000               0.000000000               0.000384292               0.001742376              -0.000047810              -0.000073687               0.000605349               0.000531661               0.000000000               0.000000000               0.000000000               0.000000000               0.000400067               0.001841410              -0.000035527              -0.000080151               0.000640514               0.000560363               0.000000000               0.000000000               0.000000000               0.000000000               0.000414667               0.001933340              -0.000024926              -0.000086167               0.000673163               0.000586996               0.000000000               0.000000000               0.000000000               0.000000000               0.000429064               0.002022511              -0.000013683              -0.000091915               0.000704802               0.000612887               0.000000000               0.000000000               0.000000000               0.000000000               0.000432855               0.002063863              -0.000006522              -0.000095662               0.000719835               0.000624173               0.000000000               0.000000000               0.000000000               0.000000000               0.000132609               0.000080332              -0.000046667               0.000039686               0.000013548               0.000053235               0.000000000               0.000000000               0.000000000               0.000000000               0.000250227               0.000194834              -0.000070438               0.000069480               0.000041784               0.000111264               0.000000000               0.000000000               0.000000000               0.000000000               0.000328235               0.000373304              -0.000088245               0.000076424               0.000098959               0.000175383               0.000000000               0.000000000               0.000000000               0.000000000               0.000358086               0.000546310              -0.000085998               0.000065993               0.000160104               0.000226097               0.000000000               0.000000000               0.000000000               0.000000000               0.000371632               0.000702050              -0.000079358               0.000051605               0.000216812               0.000268418               0.000000000               0.000000000               0.000000000               0.000000000               0.000378706               0.000851107              -0.000072945               0.000035626               0.000271824               0.000307450               0.000000000               0.000000000               0.000000000               0.000000000               0.000384071               0.000998924              -0.000068596               0.000019161               0.000326585               0.000345745               0.000000000               0.000000000               0.000000000               0.000000000               0.000386006               0.001133464              -0.000064867               0.000003069               0.000376794               0.000379864               0.000000000               0.000000000               0.000000000               0.000000000               0.000383700               0.001258403              -0.000058748              -0.000013413               0.000423935               0.000410522               0.000000000               0.000000000               0.000000000               0.000000000               0.000382739               0.001380292              -0.000051140              -0.000029009               0.000469763               0.000440753               0.000000000               0.000000000               0.000000000               0.000000000               0.000386639               0.001500156              -0.000043379              -0.000042530               0.000514223               0.000471694               0.000000000               0.000000000               0.000000000               0.000000000               0.000396600               0.001617911              -0.000037230              -0.000053514               0.000557136               0.000503622               0.000000000               0.000000000               0.000000000               0.000000000               0.000410254               0.001727081              -0.000030006              -0.000062040               0.000596368               0.000534328               0.000000000               0.000000000               0.000000000               0.000000000               0.000425448               0.001823230              -0.000021760              -0.000068360               0.000630524               0.000562164               0.000000000               0.000000000               0.000000000               0.000000000               0.000443973               0.001916345              -0.000015344              -0.000073053               0.000663126               0.000590073               0.000000000               0.000000000               0.000000000               0.000000000               0.000467059               0.002013627              -0.000008777              -0.000076556               0.000696721               0.000620165               0.000000000               0.000000000               0.000000000               0.000000000               0.000478825               0.002061670              -0.000004688              -0.000078149               0.000713266               0.000635117               0.000000000               0.000000000               0.000000000               0.000000000               0.000000000               0.000000000               0.000000000               0.000000000               0.000000000               0.000000000               0.000000000               0.000000000               0.000000000               0.000000000               0.000000000               0.000000000               0.000000000               0.000000000               0.000000000               0.000000000               0.000000000               0.000000000               0.000000000               0.000000000               0.000000000               0.000000000               0.000000000               0.000000000               0.000000000               0.000000000               0.000000000               0.000000000               0.000000000               0.000000000               0.000000000               0.000000000               0.000000000               0.000000000               0.000000000               0.000000000               0.000000000               0.000000000               0.000000000               0.000000000               0.000000000               0.000000000               0.000000000               0.000000000               0.000000000               0.000000000               0.000000000               0.000000000               0.000000000               0.000000000               0.000000000               0.000000000               0.000000000               0.000000000               0.000000000               0.000000000               0.000000000               0.000000000               0.000000000               0.000000000               0.000000000               0.000000000               0.000000000               0.000000000               0.000000000               0.000000000               0.000000000               0.000000000               0.000000000               0.000000000               0.000000000               0.000000000               0.000000000               0.000000000               0.000000000               0.000000000               0.000000000               0.000000000               0.000000000               0.000000000               0.000000000               0.000000000               0.000000000               0.000000000               0.000000000               0.000000000               0.000000000               0.000000000               0.000000000               0.000000000               0.000000000               0.000000000               0.000000000               0.000000000               0.000000000               0.000000000               0.000000000               0.000000000               0.000000000               0.000000000               0.000000000               0.000000000               0.000000000               0.000000000               0.000000000               0.000000000               0.000000000               0.000000000               0.000000000               0.000000000               0.000000000               0.000000000               0.000000000               0.000000000               0.000000000               0.000000000               0.000000000               0.000000000               0.000000000               0.000000000               0.000000000               0.000000000               0.000000000               0.000000000               0.000000000               0.000000000               0.000000000               0.000000000               0.000000000               0.000000000               0.000000000               0.000000000               0.000000000               0.000000000               0.000000000               0.000000000               0.000000000               0.000000000               0.000000000               0.000000000               0.000000000               0.000000000               0.000000000               0.000000000               0.000000000               0.000000000               0.000000000               0.000000000               0.000000000               0.000000000               0.000000000               0.000000000               0.000000000               0.000000000               0.000000000               0.000000000               0.000000000               0.000000000               0.000000000               0.000000000               0.000000000               0.000000000               0.000000000               0.000000000               0.000000000               0.000000000               0.000000000               0.000000000               0.000000000               0.000000000               0.000000000               0.000000000               0.000000000               0.000000000               0.000000000               0.000000000               0.000000000               0.000000000               0.000000000               0.000000000               0.000000000               0.000000000               0.000000000               0.000000000               0.000000000               0.000000000               0.000000000               0.000000000               0.000000000               0.000000000               0.000000000               0.000000000               0.000000000               0.000000000               0.000000000               0.000000000               0.000000000               0.000000000               0.000000000               0.000000000               0.000000000               0.000000000               0.000000000               0.000000000               0.000000000               0.000000000               0.000000000               0.000000000               0.000000000               0.000000000               0.000000000               0.000000000               0.000000000               0.000000000               0.000000000               0.000000000               0.000000000               0.000000000               0.000000000               0.000000000               0.000000000               0.000000000               0.000000000               0.000000000               0.000000000               0.000000000               0.000000000               0.000000000               0.000000000               0.000000000               0.000000000               0.000000000               0.000000000               0.000000000               0.000000000               0.000000000               0.000000000               0.000000000               0.000000000               0.000000000               0.000000000               0.000000000               0.000000000               0.000000000               0.000000000               0.000000000               0.000000000               0.000000000               0.000000000               0.000000000               0.000000000               0.000000000               0.000000000               0.000000000               0.000000000               0.000000000               0.000000000               0.000000000               0.000000000               0.000000000               0.000000000               0.000000000               0.000000000               0.000000000               0.000000000               0.000000000               0.000000000               0.000000000               0.000000000               0.000000000               0.000000000               0.000000000               0.000000000               0.000000000               0.000000000               0.000000000               0.000000000               0.000000000               0.000000000               0.000000000               0.000000000               0.000000000               0.000000000               0.000000000               0.000000000               0.000000000               0.000000000               0.000000000               0.000000000               0.000000000               0.000000000               0.000000000               0.000000000               0.000000000               0.000000000               0.000000000               0.000000000               0.000000000               0.000000000               0.000000000               0.000000000               0.000000000               0.000000000               0.000000000               0.000000000               0.000000000               0.000000000               0.000000000               0.000000000               0.000000000               0.000000000               0.000000000               0.000000000               0.000000000               0.000000000               0.000000000               0.000000000               0.000000000               0.000000000               0.000000000               0.000000000               0.000000000               0.000000000               0.000000000               0.000000000               0.000000000               0.000000000               0.000000000               0.000000000               0.000000000               0.000000000               0.000000000               0.000000000               0.000000000               0.000000000               0.000000000               0.000000000               0.000000000               0.000000000               0.000000000               0.000199084               0.002102346               0.000167003              -0.000188136               0.000763487               0.000575351               0.000000000               0.000000000               0.000000000               0.000000000               0.000224169               0.001770350               0.000113813              -0.000137230               0.000635854               0.000498624               0.000000000               0.000000000               0.000000000               0.000000000               0.000316681               0.001503511               0.000059376              -0.000069184               0.000524227               0.000455043               0.000000000               0.000000000               0.000000000               0.000000000               0.000349558               0.001352616               0.000034719              -0.000037993               0.000463532               0.000425539               0.000000000               0.000000000               0.000000000               0.000000000               0.000361361               0.001261049               0.000024080              -0.000022121               0.000427719               0.000405598               0.000000000               0.000000000               0.000000000               0.000000000               0.000362729               0.001203622               0.000019452              -0.000014429               0.000406013               0.000391584               0.000000000               0.000000000               0.000000000               0.000000000               0.000356413               0.001170093               0.000016289              -0.000012607               0.000394229               0.000381623               0.000000000               0.000000000               0.000000000               0.000000000               0.000341506               0.001158025               0.000012832              -0.000016688               0.000391567               0.000374879               0.000000000               0.000000000               0.000000000               0.000000000               0.000317437               0.001163011               0.000010749              -0.000026338               0.000396446               0.000370108               0.000000000               0.000000000               0.000000000               0.000000000               0.000288847               0.001177460               0.000012607              -0.000038865               0.000405438               0.000366573               0.000000000               0.000000000               0.000000000               0.000000000               0.000260112               0.001195490               0.000017992              -0.000051894               0.000415791               0.000363896               0.000000000               0.000000000               0.000000000               0.000000000               0.000227668               0.001212932               0.000020055              -0.000066241               0.000426387               0.000360146               0.000000000               0.000000000               0.000000000               0.000000000               0.000189467               0.001235117               0.000017630              -0.000083339               0.000439481               0.000356142               0.000000000               0.000000000               0.000000000               0.000000000               0.000148626               0.001261334               0.000016730              -0.000101932               0.000454418               0.000352486               0.000000000               0.000000000               0.000000000               0.000000000               0.000103046               0.001288590               0.000014425              -0.000122431               0.000470336               0.000347905               0.000000000               0.000000000               0.000000000               0.000000000               0.000051005               0.001317805               0.000008255              -0.000145598               0.000487797               0.000342198               0.000000000               0.000000000               0.000000000               0.000000000               0.000027781               0.001342781               0.000005209              -0.000157429               0.000500066               0.000342636               0.000000000               0.000000000               0.000000000               0.000000000               0.000235655               0.002007819               0.000316563              -0.000162607               0.000723468               0.000560862               0.000000000               0.000000000               0.000000000               0.000000000               0.000239970               0.001702674               0.000216621              -0.000122845               0.000608501               0.000485655               0.000000000               0.000000000               0.000000000               0.000000000               0.000309941               0.001466984               0.000114090              -0.000067145               0.000511371               0.000444226               0.000000000               0.000000000               0.000000000               0.000000000               0.000332164               0.001336975               0.000068315              -0.000042560               0.000459841               0.000417280               0.000000000               0.000000000               0.000000000               0.000000000               0.000336638               0.001257679               0.000048650              -0.000030971               0.000429546               0.000398575               0.000000000               0.000000000               0.000000000               0.000000000               0.000333030               0.001211251               0.000039975              -0.000026520               0.000412586               0.000386066               0.000000000               0.000000000               0.000000000               0.000000000               0.000323150               0.001187009               0.000033311              -0.000027195               0.000404731               0.000377536               0.000000000               0.000000000               0.000000000               0.000000000               0.000305774               0.001181358               0.000026118              -0.000033004               0.000404784               0.000371779               0.000000000               0.000000000               0.000000000               0.000000000               0.000282840               0.001188297               0.000022535              -0.000042472               0.000410253               0.000367781               0.000000000               0.000000000               0.000000000               0.000000000               0.000258226               0.001199025               0.000025544              -0.000053043               0.000417352               0.000364309               0.000000000               0.000000000               0.000000000               0.000000000               0.000233014               0.001210080               0.000033396              -0.000063879               0.000424649               0.000360770               0.000000000               0.000000000               0.000000000               0.000000000               0.000205984               0.001223306               0.000034481              -0.000075669               0.000432988               0.000357319               0.000000000               0.000000000               0.000000000               0.000000000               0.000172740               0.001240413               0.000028683              -0.000090274               0.000443558               0.000353284               0.000000000               0.000000000               0.000000000               0.000000000               0.000134646               0.001258438               0.000025744              -0.000106812               0.000455079               0.000348267               0.000000000               0.000000000               0.000000000               0.000000000               0.000092996               0.001276989               0.000020275              -0.000124750               0.000467242               0.000342492               0.000000000               0.000000000               0.000000000               0.000000000               0.000046323               0.001294894               0.000010634              -0.000144490               0.000479790               0.000335300               0.000000000               0.000000000               0.000000000               0.000000000               0.000024561               0.001308931               0.000006455              -0.000154406               0.000487775               0.000333369               0.000000000               0.000000000               0.000000000               0.000000000               0.000287632               0.001860651               0.000438322              -0.000124719               0.000661784               0.000537064               0.000000000               0.000000000               0.000000000               0.000000000               0.000261353               0.001598826               0.000300873              -0.000101846               0.000566885               0.000465039               0.000000000               0.000000000               0.000000000               0.000000000               0.000299563               0.001413616               0.000160372              -0.000064366               0.000492656               0.000428290               0.000000000               0.000000000               0.000000000               0.000000000               0.000306660               0.001312126               0.000100358              -0.000049018               0.000453710               0.000404692               0.000000000               0.000000000               0.000000000               0.000000000               0.000302490               0.001251761               0.000074158              -0.000043036               0.000431595               0.000388559               0.000000000               0.000000000               0.000000000               0.000000000               0.000294191               0.001221057               0.000060702              -0.000042311               0.000421118               0.000378808               0.000000000               0.000000000               0.000000000               0.000000000               0.000278153               0.001209743               0.000050608              -0.000046911               0.000418881               0.000371970               0.000000000               0.000000000               0.000000000               0.000000000               0.000258026               0.001214135               0.000040166              -0.000055007               0.000423043               0.000368036               0.000000000               0.000000000               0.000000000               0.000000000               0.000236799               0.001222068               0.000034717              -0.000063959               0.000428672               0.000364713               0.000000000               0.000000000               0.000000000               0.000000000               0.000217701               0.001230418               0.000038486              -0.000072164               0.000434190               0.000362026               0.000000000               0.000000000               0.000000000               0.000000000               0.000199079               0.001235379               0.000044737              -0.000079767               0.000438378               0.000358611               0.000000000               0.000000000               0.000000000               0.000000000               0.000175363               0.001244691               0.000041196              -0.000089825               0.000444834               0.000355009               0.000000000               0.000000000               0.000000000               0.000000000               0.000145833               0.001256704               0.000031742              -0.000102401               0.000453031               0.000350630               0.000000000               0.000000000               0.000000000               0.000000000               0.000116011               0.001269629               0.000025749              -0.000115199               0.000461605               0.000346406               0.000000000               0.000000000               0.000000000               0.000000000               0.000082924               0.001283106               0.000017142              -0.000129291               0.000470795               0.000341504               0.000000000               0.000000000               0.000000000               0.000000000               0.000042367               0.001294758               0.000007131              -0.000145957               0.000480234               0.000334277               0.000000000               0.000000000               0.000000000               0.000000000               0.000023381               0.001305240               0.000004557              -0.000154387               0.000486538               0.000332151               0.000000000               0.000000000               0.000000000               0.000000000               0.000345618               0.001677773               0.000523534              -0.000080115               0.000585957               0.000505842               0.000000000               0.000000000               0.000000000               0.000000000               0.000284918               0.001471939               0.000361911              -0.000077148               0.000516357               0.000439209               0.000000000               0.000000000               0.000000000               0.000000000               0.000285694               0.001348398               0.000198533              -0.000061414               0.000469933               0.000408519               0.000000000               0.000000000               0.000000000               0.000000000               0.000279077               0.001279253               0.000130253              -0.000055252               0.000444831               0.000389578               0.000000000               0.000000000               0.000000000               0.000000000               0.000269831               0.001242726               0.000098798              -0.000054154               0.000432289               0.000378135               0.000000000               0.000000000               0.000000000               0.000000000               0.000254586               0.001228809               0.000081666              -0.000058131               0.000428976               0.000370845               0.000000000               0.000000000               0.000000000               0.000000000               0.000233989               0.001232439               0.000066715              -0.000066309               0.000432912               0.000366603               0.000000000               0.000000000               0.000000000               0.000000000               0.000211573               0.001246782               0.000053632              -0.000076508               0.000441092               0.000364585               0.000000000               0.000000000               0.000000000               0.000000000               0.000191539               0.001258628               0.000047689              -0.000085501               0.000448039               0.000362538               0.000000000               0.000000000               0.000000000               0.000000000               0.000176665               0.001264733               0.000050754              -0.000091842               0.000452187               0.000360345               0.000000000               0.000000000               0.000000000               0.000000000               0.000162110               0.001270233               0.000054129              -0.000097988               0.000456069               0.000358082               0.000000000               0.000000000               0.000000000               0.000000000               0.000144133               0.001282575               0.000044843              -0.000106272               0.000462945               0.000356673               0.000000000               0.000000000               0.000000000               0.000000000               0.000120831               0.001295943               0.000032642              -0.000116681               0.000470870               0.000354190               0.000000000               0.000000000               0.000000000               0.000000000               0.000097672               0.001310732               0.000024991              -0.000127214               0.000479311               0.000352097               0.000000000               0.000000000               0.000000000               0.000000000               0.000071076               0.001327941               0.000016686              -0.000139339               0.000489089               0.000349750               0.000000000               0.000000000               0.000000000               0.000000000               0.000035392               0.001343905               0.000007440              -0.000154716               0.000499536               0.000344820               0.000000000               0.000000000               0.000000000               0.000000000               0.000020284               0.001358737               0.000005423              -0.000162235               0.000506986               0.000344751               0.000000000               0.000000000               0.000000000               0.000000000               0.000396620               0.001475026               0.000570557              -0.000035646               0.000503553               0.000467906               0.000000000               0.000000000               0.000000000               0.000000000               0.000304399               0.001335782               0.000400495              -0.000052823               0.000462864               0.000410040               0.000000000               0.000000000               0.000000000               0.000000000               0.000271233               0.001279398               0.000229127              -0.000058212               0.000445866               0.000387654               0.000000000               0.000000000               0.000000000               0.000000000               0.000255198               0.001243944               0.000157160              -0.000059794               0.000434575               0.000374781               0.000000000               0.000000000               0.000000000               0.000000000               0.000242809               0.001229374               0.000122411              -0.000062618               0.000430660               0.000368042               0.000000000               0.000000000               0.000000000               0.000000000               0.000224340               0.001232517               0.000100410              -0.000069937               0.000434147               0.000364210               0.000000000               0.000000000               0.000000000               0.000000000               0.000200736               0.001252026               0.000081189              -0.000081227               0.000444413               0.000363186               0.000000000               0.000000000               0.000000000               0.000000000               0.000177884               0.001274507               0.000066037              -0.000092607               0.000455700               0.000363094               0.000000000               0.000000000               0.000000000               0.000000000               0.000159823               0.001289645               0.000060249              -0.000101272               0.000463634               0.000362363               0.000000000               0.000000000               0.000000000               0.000000000               0.000146037               0.001300287               0.000062152              -0.000107772               0.000469348               0.000361577               0.000000000               0.000000000               0.000000000               0.000000000               0.000134857               0.001317391               0.000059649              -0.000114102               0.000477160               0.000363058               0.000000000               0.000000000               0.000000000               0.000000000               0.000120801               0.001343280               0.000046848              -0.000122609               0.000488625               0.000366016               0.000000000               0.000000000               0.000000000               0.000000000               0.000099421               0.001370401               0.000035056              -0.000134017               0.000501468               0.000367451               0.000000000               0.000000000               0.000000000               0.000000000               0.000075961               0.001398529               0.000026694              -0.000146330               0.000514948               0.000368618               0.000000000               0.000000000               0.000000000               0.000000000               0.000051604               0.001428671               0.000018099              -0.000159232               0.000529296               0.000370064               0.000000000               0.000000000               0.000000000               0.000000000               0.000025164               0.001458908               0.000009304              -0.000172927               0.000543940               0.000371014               0.000000000               0.000000000               0.000000000               0.000000000               0.000017074               0.001482103               0.000007622              -0.000178860               0.000553649               0.000374790               0.000000000               0.000000000               0.000000000               0.000000000               0.000434113               0.001268382               0.000581244               0.000004244               0.000421375               0.000425619               0.000000000               0.000000000               0.000000000               0.000000000               0.000316576               0.001200076               0.000418071              -0.000031294               0.000410452               0.000379158               0.000000000               0.000000000               0.000000000               0.000000000               0.000256352               0.001211547               0.000252416              -0.000055311               0.000422282               0.000366971               0.000000000               0.000000000               0.000000000               0.000000000               0.000236078               0.001208909               0.000180412              -0.000062584               0.000423827               0.000361243               0.000000000               0.000000000               0.000000000               0.000000000               0.000223077               0.001215897               0.000142072              -0.000068333               0.000428072               0.000359739               0.000000000               0.000000000               0.000000000               0.000000000               0.000203327               0.001236615               0.000115196              -0.000078329               0.000438311               0.000359981               0.000000000               0.000000000               0.000000000               0.000000000               0.000179900               0.001269130               0.000092867              -0.000091179               0.000453432               0.000362253               0.000000000               0.000000000               0.000000000               0.000000000               0.000159492               0.001297158               0.000077605              -0.000102335               0.000466493               0.000364159               0.000000000               0.000000000               0.000000000               0.000000000               0.000146464               0.001319250               0.000070406              -0.000109982               0.000476406               0.000366424               0.000000000               0.000000000               0.000000000               0.000000000               0.000137584               0.001346371               0.000067391              -0.000116702               0.000487687               0.000370984               0.000000000               0.000000000               0.000000000               0.000000000               0.000126699               0.001386372               0.000059237              -0.000125784               0.000504047               0.000378264               0.000000000               0.000000000               0.000000000               0.000000000               0.000111119               0.001436733               0.000042842              -0.000137922               0.000524880               0.000386958               0.000000000               0.000000000               0.000000000               0.000000000               0.000089817               0.001488379               0.000031129              -0.000152365               0.000546910               0.000394544               0.000000000               0.000000000               0.000000000               0.000000000               0.000065144               0.001537461               0.000024094              -0.000167753               0.000568400               0.000400646               0.000000000               0.000000000               0.000000000               0.000000000               0.000040193               0.001584877               0.000016074              -0.000183037               0.000589300               0.000406262               0.000000000               0.000000000               0.000000000               0.000000000               0.000017675               0.001632382               0.000008399              -0.000197419               0.000609928               0.000412509               0.000000000               0.000000000               0.000000000               0.000000000               0.000013553               0.001666105               0.000008429              -0.000203180               0.000623090               0.000419909               0.000000000               0.000000000               0.000000000               0.000000000               0.000456608               0.001068076               0.000560645               0.000037718               0.000343449               0.000381166               0.000000000               0.000000000               0.000000000               0.000000000               0.000321796               0.001071191               0.000418232              -0.000013226               0.000361469               0.000348243               0.000000000               0.000000000               0.000000000               0.000000000               0.000243857               0.001147782               0.000269450              -0.000052027               0.000399932               0.000347906               0.000000000               0.000000000               0.000000000               0.000000000               0.000223687               0.001176902               0.000197975              -0.000063230               0.000413373               0.000350143               0.000000000               0.000000000               0.000000000               0.000000000               0.000209618               0.001206289               0.000156252              -0.000072179               0.000426152               0.000353973               0.000000000               0.000000000               0.000000000               0.000000000               0.000188713               0.001245730               0.000126145              -0.000084949               0.000443555               0.000358607               0.000000000               0.000000000               0.000000000               0.000000000               0.000166788               0.001289358               0.000102251              -0.000098624               0.000462656               0.000364032               0.000000000               0.000000000               0.000000000               0.000000000               0.000152715               0.001326381               0.000084924              -0.000108529               0.000478299               0.000369770               0.000000000               0.000000000               0.000000000               0.000000000               0.000148889               0.001368236               0.000073131              -0.000115196               0.000494473               0.000379277               0.000000000               0.000000000               0.000000000               0.000000000               0.000145749               0.001423445               0.000062173              -0.000123275               0.000515569               0.000392294               0.000000000               0.000000000               0.000000000               0.000000000               0.000135037               0.001495038               0.000047877              -0.000136241               0.000543754               0.000407514               0.000000000               0.000000000               0.000000000               0.000000000               0.000117732               0.001570356               0.000031441              -0.000152145               0.000574162               0.000422017               0.000000000               0.000000000               0.000000000               0.000000000               0.000094973               0.001641030               0.000022619              -0.000169514               0.000603509               0.000433995               0.000000000               0.000000000               0.000000000               0.000000000               0.000066537               0.001706265               0.000018611              -0.000188331               0.000631526               0.000443195               0.000000000               0.000000000               0.000000000               0.000000000               0.000039870               0.001769973               0.000011949              -0.000206295               0.000658750               0.000452455               0.000000000               0.000000000               0.000000000               0.000000000               0.000018522               0.001831107               0.000005320              -0.000221942               0.000684344               0.000462402               0.000000000               0.000000000               0.000000000               0.000000000               0.000013907               0.001870775               0.000006379              -0.000228631               0.000699796               0.000471165               0.000000000               0.000000000               0.000000000               0.000000000               0.000468517               0.000888223               0.000518037               0.000064665               0.000274516               0.000339181               0.000000000               0.000000000               0.000000000               0.000000000               0.000329214               0.000956332               0.000409350               0.000003913               0.000317470               0.000321383               0.000000000               0.000000000               0.000000000               0.000000000               0.000240636               0.001090146               0.000285920              -0.000046030               0.000378722               0.000332692               0.000000000               0.000000000               0.000000000               0.000000000               0.000219923               0.001149094               0.000214498              -0.000061166               0.000403416               0.000342250               0.000000000               0.000000000               0.000000000               0.000000000               0.000204208               0.001199276               0.000169007              -0.000073332               0.000424198               0.000350867               0.000000000               0.000000000               0.000000000               0.000000000               0.000182355               0.001256568               0.000137450              -0.000088688               0.000448414               0.000359727               0.000000000               0.000000000               0.000000000               0.000000000               0.000164543               0.001312058               0.000112341              -0.000102304               0.000471450               0.000369146               0.000000000               0.000000000               0.000000000               0.000000000               0.000157513               0.001365644               0.000090379              -0.000111638               0.000492423               0.000380785               0.000000000               0.000000000               0.000000000               0.000000000               0.000160752               0.001429689               0.000069940              -0.000118429               0.000516035               0.000397606               0.000000000               0.000000000               0.000000000               0.000000000               0.000165226               0.001512869               0.000051161              -0.000127149               0.000546668               0.000419519               0.000000000               0.000000000               0.000000000               0.000000000               0.000155420               0.001603931               0.000035874              -0.000142208               0.000582041               0.000439833               0.000000000               0.000000000               0.000000000               0.000000000               0.000135062               0.001691329               0.000024470              -0.000160768               0.000617360               0.000456592               0.000000000               0.000000000               0.000000000               0.000000000               0.000114386               0.001771054               0.000016981              -0.000178487               0.000649841               0.000471354               0.000000000               0.000000000               0.000000000               0.000000000               0.000090104               0.001846562               0.000011762              -0.000197031               0.000681191               0.000484161               0.000000000               0.000000000               0.000000000               0.000000000               0.000065234               0.001919767               0.000005160              -0.000215508               0.000711752               0.000496244               0.000000000               0.000000000               0.000000000               0.000000000               0.000046710               0.001986764               0.000000703              -0.000230829               0.000739191               0.000508362               0.000000000               0.000000000               0.000000000               0.000000000               0.000036783               0.002020145              -0.000000316              -0.000238724               0.000752950               0.000514226               0.000000000               0.000000000               0.000000000               0.000000000               0.000462836               0.000709262               0.000462427               0.000084904               0.000208117               0.000293021               0.000000000               0.000000000               0.000000000               0.000000000               0.000338556               0.000820740               0.000396602               0.000024365               0.000265455               0.000289821               0.000000000               0.000000000               0.000000000               0.000000000               0.000247225               0.000997103               0.000306682              -0.000031929               0.000343007               0.000311079               0.000000000               0.000000000               0.000000000               0.000000000               0.000224147               0.001086478               0.000237624              -0.000051755               0.000379407               0.000327652               0.000000000               0.000000000               0.000000000               0.000000000               0.000209886               0.001156156               0.000189593              -0.000065812               0.000407319               0.000341507               0.000000000               0.000000000               0.000000000               0.000000000               0.000191692               0.001225923               0.000157585              -0.000081356               0.000435755               0.000354400               0.000000000               0.000000000               0.000000000               0.000000000               0.000174579               0.001296614               0.000131436              -0.000096609               0.000464404               0.000367794               0.000000000               0.000000000               0.000000000               0.000000000               0.000166896               0.001368075               0.000105099              -0.000108423               0.000492161               0.000383738               0.000000000               0.000000000               0.000000000               0.000000000               0.000172536               0.001447846               0.000081947              -0.000116279               0.000521370               0.000405091               0.000000000               0.000000000               0.000000000               0.000000000               0.000185741               0.001540320               0.000061516              -0.000122887               0.000554397               0.000431510               0.000000000               0.000000000               0.000000000               0.000000000               0.000189718               0.001636615               0.000044810              -0.000133432               0.000590010               0.000456578               0.000000000               0.000000000               0.000000000               0.000000000               0.000178215               0.001728723               0.000033793              -0.000149259               0.000625988               0.000476729               0.000000000               0.000000000               0.000000000               0.000000000               0.000162064               0.001817072               0.000024072              -0.000166359               0.000661138               0.000494778               0.000000000               0.000000000               0.000000000               0.000000000               0.000141571               0.001896018               0.000013043              -0.000183913               0.000693304               0.000509391               0.000000000               0.000000000               0.000000000               0.000000000               0.000117499               0.001969621               0.000006770              -0.000202140               0.000723914               0.000521774               0.000000000               0.000000000               0.000000000               0.000000000               0.000097872               0.002042119               0.000003906              -0.000218562               0.000753554               0.000534991               0.000000000               0.000000000               0.000000000               0.000000000               0.000082323               0.002070142              -0.000001039              -0.000227896               0.000766006               0.000538110               0.000000000               0.000000000               0.000000000               0.000000000               0.000435389               0.000539604               0.000394220               0.000095819               0.000147926               0.000243746               0.000000000               0.000000000               0.000000000               0.000000000               0.000345276               0.000681902               0.000371532               0.000044240               0.000212552               0.000256792               0.000000000               0.000000000               0.000000000               0.000000000               0.000263810               0.000888848               0.000319610              -0.000012178               0.000300339               0.000288161               0.000000000               0.000000000               0.000000000               0.000000000               0.000239154               0.001007134               0.000258528              -0.000036209               0.000347777               0.000311568               0.000000000               0.000000000               0.000000000               0.000000000               0.000226016               0.001095935               0.000211384              -0.000052236               0.000382720               0.000330484               0.000000000               0.000000000               0.000000000               0.000000000               0.000211575               0.001179515               0.000178485              -0.000068099               0.000415867               0.000347768               0.000000000               0.000000000               0.000000000               0.000000000               0.000195799               0.001261920               0.000151271              -0.000084315               0.000448741               0.000364426               0.000000000               0.000000000               0.000000000               0.000000000               0.000187945               0.001345382               0.000125411              -0.000097693               0.000481021               0.000383327               0.000000000               0.000000000               0.000000000               0.000000000               0.000197389               0.001439967               0.000104196              -0.000105975               0.000515309               0.000409334               0.000000000               0.000000000               0.000000000               0.000000000               0.000215194               0.001539926               0.000081442              -0.000111793               0.000550568               0.000438775               0.000000000               0.000000000               0.000000000               0.000000000               0.000228316               0.001638227               0.000059396              -0.000119160               0.000585790               0.000466631               0.000000000               0.000000000               0.000000000               0.000000000               0.000228330               0.001731205               0.000045371              -0.000130777               0.000620655               0.000489878               0.000000000               0.000000000               0.000000000               0.000000000               0.000218267               0.001821087               0.000034524              -0.000145785               0.000655618               0.000509833               0.000000000               0.000000000               0.000000000               0.000000000               0.000203804               0.001902088               0.000020235              -0.000161334               0.000687801               0.000526467               0.000000000               0.000000000               0.000000000               0.000000000               0.000185313               0.001977673               0.000009847              -0.000177716               0.000718457               0.000540740               0.000000000               0.000000000               0.000000000               0.000000000               0.000160078               0.002045575               0.000004754              -0.000195667               0.000747074               0.000551407               0.000000000               0.000000000               0.000000000               0.000000000               0.000138349               0.002070166              -0.000000388              -0.000206889               0.000759012               0.000552122               0.000000000               0.000000000               0.000000000               0.000000000               0.000386267               0.000392037               0.000317592               0.000095844               0.000098729               0.000194574               0.000000000               0.000000000               0.000000000               0.000000000               0.000339631               0.000548754               0.000330294               0.000058766               0.000163327               0.000222094               0.000000000               0.000000000               0.000000000               0.000000000               0.000284154               0.000768917               0.000313091               0.000010443               0.000252822               0.000263265               0.000000000               0.000000000               0.000000000               0.000000000               0.000261708               0.000910009               0.000265429              -0.000015611               0.000308537               0.000292926               0.000000000               0.000000000               0.000000000               0.000000000               0.000249581               0.001019097               0.000222809              -0.000033794               0.000350960               0.000317166               0.000000000               0.000000000               0.000000000               0.000000000               0.000239013               0.001117488               0.000191502              -0.000050056               0.000389178               0.000339121               0.000000000               0.000000000               0.000000000               0.000000000               0.000227299               0.001209087               0.000165862              -0.000065899               0.000424991               0.000359092               0.000000000               0.000000000               0.000000000               0.000000000               0.000224574               0.001310468               0.000144547              -0.000079593               0.000463349               0.000383756               0.000000000               0.000000000               0.000000000               0.000000000               0.000230886               0.001421362               0.000124482              -0.000091088               0.000504145               0.000413057               0.000000000               0.000000000               0.000000000               0.000000000               0.000244320               0.001529532               0.000100684              -0.000099571               0.000543030               0.000443458               0.000000000               0.000000000               0.000000000               0.000000000               0.000261490               0.001632172               0.000077194              -0.000105962               0.000579373               0.000473410               0.000000000               0.000000000               0.000000000               0.000000000               0.000272223               0.001728380               0.000058600              -0.000113964               0.000614109               0.000500145               0.000000000               0.000000000               0.000000000               0.000000000               0.000270150               0.001815658               0.000044229              -0.000125651               0.000647097               0.000521446               0.000000000               0.000000000               0.000000000               0.000000000               0.000262118               0.001897200               0.000030139              -0.000138855               0.000678679               0.000539824               0.000000000               0.000000000               0.000000000               0.000000000               0.000250343               0.001974604               0.000015149              -0.000152946               0.000709177               0.000556230               0.000000000               0.000000000               0.000000000               0.000000000               0.000229177               0.002044608               0.000004811              -0.000169634               0.000738074               0.000568440               0.000000000               0.000000000               0.000000000               0.000000000               0.000206290               0.002071664              -0.000001706              -0.000181599               0.000751081               0.000569482               0.000000000               0.000000000               0.000000000               0.000000000               0.000321488               0.000271663               0.000238454               0.000086599               0.000061687               0.000148286               0.000000000               0.000000000               0.000000000               0.000000000               0.000323048               0.000426416               0.000276332               0.000067840               0.000119524               0.000187364               0.000000000               0.000000000               0.000000000               0.000000000               0.000301727               0.000644815               0.000285887               0.000032545               0.000204088               0.000236633               0.000000000               0.000000000               0.000000000               0.000000000               0.000289718               0.000803893               0.000252596               0.000008157               0.000265243               0.000273400               0.000000000               0.000000000               0.000000000               0.000000000               0.000280684               0.000931313               0.000218830              -0.000011158               0.000314154               0.000302996               0.000000000               0.000000000               0.000000000               0.000000000               0.000273962               0.001041549               0.000192506              -0.000027458               0.000356332               0.000328874               0.000000000               0.000000000               0.000000000               0.000000000               0.000267244               0.001148330               0.000170828              -0.000043325               0.000397215               0.000353890               0.000000000               0.000000000               0.000000000               0.000000000               0.000266728               0.001269027               0.000152708              -0.000058605               0.000442540               0.000383935               0.000000000               0.000000000               0.000000000               0.000000000               0.000269711               0.001391789               0.000134517              -0.000072832               0.000488202               0.000415371               0.000000000               0.000000000               0.000000000               0.000000000               0.000279863               0.001508384               0.000114422              -0.000083599               0.000530656               0.000447057               0.000000000               0.000000000               0.000000000               0.000000000               0.000295434               0.001615083               0.000091942              -0.000091097               0.000568722               0.000477624               0.000000000               0.000000000               0.000000000               0.000000000               0.000307594               0.001707049               0.000070003              -0.000098033               0.000601688               0.000503655               0.000000000               0.000000000               0.000000000               0.000000000               0.000313634               0.001793720               0.000051944              -0.000106602               0.000633435               0.000526833               0.000000000               0.000000000               0.000000000               0.000000000               0.000314211               0.001881374               0.000036751              -0.000117342               0.000666233               0.000548890               0.000000000               0.000000000               0.000000000               0.000000000               0.000310274               0.001962721               0.000020197              -0.000128987               0.000697229               0.000568242               0.000000000               0.000000000               0.000000000               0.000000000               0.000302135               0.002038323               0.000006870              -0.000141489               0.000726598               0.000585108               0.000000000               0.000000000               0.000000000               0.000000000               0.000287269               0.002069487              -0.000000875              -0.000150960               0.000740142               0.000589182               0.000000000               0.000000000               0.000000000               0.000000000               0.000250392               0.000179893               0.000163338               0.000071410               0.000036160               0.000107570               0.000000000               0.000000000               0.000000000               0.000000000               0.000299637               0.000322745               0.000211316               0.000072020               0.000083574               0.000155594               0.000000000               0.000000000               0.000000000               0.000000000               0.000314296               0.000528886               0.000236789               0.000051750               0.000159044               0.000210793               0.000000000               0.000000000               0.000000000               0.000000000               0.000318130               0.000698038               0.000217980               0.000032044               0.000221996               0.000254039               0.000000000               0.000000000               0.000000000               0.000000000               0.000316946               0.000840548               0.000194437               0.000013786               0.000275585               0.000289371               0.000000000               0.000000000               0.000000000               0.000000000               0.000312360               0.000963531               0.000174720              -0.000003306               0.000322276               0.000318970               0.000000000               0.000000000               0.000000000               0.000000000               0.000310474               0.001089120               0.000158213              -0.000019712               0.000369607               0.000349895               0.000000000               0.000000000               0.000000000               0.000000000               0.000310914               0.001222918               0.000143610              -0.000036272               0.000419726               0.000383454               0.000000000               0.000000000               0.000000000               0.000000000               0.000314730               0.001349451               0.000130051              -0.000050658               0.000466698               0.000416041               0.000000000               0.000000000               0.000000000               0.000000000               0.000321201               0.001468618               0.000114047              -0.000063127               0.000510577               0.000447450               0.000000000               0.000000000               0.000000000               0.000000000               0.000329997               0.001577508               0.000093628              -0.000073440               0.000550310               0.000476871               0.000000000               0.000000000               0.000000000               0.000000000               0.000339207               0.001671262               0.000072232              -0.000081705               0.000584317               0.000502612               0.000000000               0.000000000               0.000000000               0.000000000               0.000350224               0.001764563               0.000053872              -0.000089236               0.000617927               0.000528691               0.000000000               0.000000000               0.000000000               0.000000000               0.000359962               0.001859791               0.000038474              -0.000097488               0.000652420               0.000554932               0.000000000               0.000000000               0.000000000               0.000000000               0.000367111               0.001950023               0.000024939              -0.000106086               0.000685363               0.000579277               0.000000000               0.000000000               0.000000000               0.000000000               0.000372997               0.002034040               0.000012373              -0.000114381               0.000716133               0.000601752               0.000000000               0.000000000               0.000000000               0.000000000               0.000368552               0.002069552               0.000004199              -0.000120487               0.000730006               0.000609519               0.000000000               0.000000000               0.000000000               0.000000000               0.000181921               0.000117846               0.000099505               0.000053489               0.000021452               0.000074941               0.000000000               0.000000000               0.000000000               0.000000000               0.000271923               0.000244324               0.000141192               0.000071430               0.000057631               0.000129060               0.000000000               0.000000000               0.000000000               0.000000000               0.000322825               0.000434021               0.000169025               0.000066806               0.000122403               0.000189209               0.000000000               0.000000000               0.000000000               0.000000000               0.000342223               0.000607764               0.000161262               0.000052363               0.000185132               0.000237494               0.000000000               0.000000000               0.000000000               0.000000000               0.000348866               0.000758853               0.000147078               0.000035968               0.000240959               0.000276927               0.000000000               0.000000000               0.000000000               0.000000000               0.000350159               0.000897052               0.000134225               0.000019178               0.000292622               0.000311800               0.000000000               0.000000000               0.000000000               0.000000000               0.000351652               0.001037664               0.000123491               0.000002161               0.000345164               0.000347325               0.000000000               0.000000000               0.000000000               0.000000000               0.000355697               0.001172096               0.000114769              -0.000013125               0.000395070               0.000381944               0.000000000               0.000000000               0.000000000               0.000000000               0.000356700               0.001298636               0.000105084              -0.000028567               0.000442397               0.000413830               0.000000000               0.000000000               0.000000000               0.000000000               0.000357858               0.001421129               0.000092170              -0.000043444               0.000488186               0.000444742               0.000000000               0.000000000               0.000000000               0.000000000               0.000360758               0.001532395               0.000076589              -0.000056265               0.000529548               0.000473283               0.000000000               0.000000000               0.000000000               0.000000000               0.000369241               0.001637087               0.000061256              -0.000066170               0.000567747               0.000501577               0.000000000               0.000000000               0.000000000               0.000000000               0.000384292               0.001742376               0.000047810              -0.000073687               0.000605349               0.000531661               0.000000000               0.000000000               0.000000000               0.000000000               0.000400067               0.001841410               0.000035527              -0.000080151               0.000640514               0.000560363               0.000000000               0.000000000               0.000000000               0.000000000               0.000414667               0.001933340               0.000024926              -0.000086167               0.000673163               0.000586996               0.000000000               0.000000000               0.000000000               0.000000000               0.000429064               0.002022511               0.000013683              -0.000091915               0.000704802               0.000612887               0.000000000               0.000000000               0.000000000               0.000000000               0.000432855               0.002063863               0.000006522              -0.000095662               0.000719835               0.000624173               0.000000000               0.000000000               0.000000000               0.000000000               0.000132609               0.000080332               0.000046667               0.000039686               0.000013548               0.000053235               0.000000000               0.000000000               0.000000000               0.000000000               0.000250227               0.000194834               0.000070438               0.000069480               0.000041784               0.000111264               0.000000000               0.000000000               0.000000000               0.000000000               0.000328235               0.000373304               0.000088245               0.000076424               0.000098959               0.000175383               0.000000000               0.000000000               0.000000000               0.000000000               0.000358086               0.000546310               0.000085998               0.000065993               0.000160104               0.000226097               0.000000000               0.000000000               0.000000000               0.000000000               0.000371632               0.000702050               0.000079358               0.000051605               0.000216812               0.000268418               0.000000000               0.000000000               0.000000000               0.000000000               0.000378706               0.000851107               0.000072945               0.000035626               0.000271824               0.000307450               0.000000000               0.000000000               0.000000000               0.000000000               0.000384071               0.000998924               0.000068596               0.000019161               0.000326585               0.000345745               0.000000000               0.000000000               0.000000000               0.000000000               0.000386006               0.001133464               0.000064867               0.000003069               0.000376794               0.000379864               0.000000000               0.000000000               0.000000000               0.000000000               0.000383700               0.001258403               0.000058748              -0.000013413               0.000423935               0.000410522               0.000000000               0.000000000               0.000000000               0.000000000               0.000382739               0.001380292               0.000051140              -0.000029009               0.000469763               0.000440753               0.000000000               0.000000000               0.000000000               0.000000000               0.000386639               0.001500156               0.000043379              -0.000042530               0.000514223               0.000471694               0.000000000               0.000000000               0.000000000               0.000000000               0.000396600               0.001617911               0.000037230              -0.000053514               0.000557136               0.000503622               0.000000000               0.000000000               0.000000000               0.000000000               0.000410254               0.001727081               0.000030006              -0.000062040               0.000596368               0.000534328               0.000000000               0.000000000               0.000000000               0.000000000               0.000425448               0.001823230               0.000021760              -0.000068360               0.000630524               0.000562164               0.000000000               0.000000000               0.000000000               0.000000000               0.000443973               0.001916345               0.000015344              -0.000073053               0.000663126               0.000590073               0.000000000               0.000000000               0.000000000               0.000000000               0.000467059               0.002013627               0.000008777              -0.000076556               0.000696721               0.000620165               0.000000000               0.000000000               0.000000000               0.000000000               0.000478825               0.002061670               0.000004688              -0.000078149               0.000713266               0.000635117               0.000000000               0.000000000               0.000000000               0.000000000               0.000000000               0.000000000               0.000000000               0.000000000               0.000000000               0.000000000               0.000000000               0.000000000               0.000000000               0.000000000               0.000000000               0.000000000               0.000000000               0.000000000               0.000000000               0.000000000               0.000000000               0.000000000               0.000000000               0.000000000               0.000000000               0.000000000               0.000000000               0.000000000               0.000000000               0.000000000               0.000000000               0.000000000               0.000000000               0.000000000               0.000000000               0.000000000               0.000000000               0.000000000               0.000000000               0.000000000               0.000000000               0.000000000               0.000000000               0.000000000               0.000000000               0.000000000               0.000000000               0.000000000               0.000000000               0.000000000               0.000000000               0.000000000               0.000000000               0.000000000               0.000000000               0.000000000               0.000000000               0.000000000               0.000000000               0.000000000               0.000000000               0.000000000               0.000000000               0.000000000               0.000000000               0.000000000               0.000000000               0.000000000               0.000000000               0.000000000               0.000000000               0.000000000               0.000000000               0.000000000               0.000000000               0.000000000               0.000000000               0.000000000               0.000000000               0.000000000               0.000000000               0.000000000               0.000000000               0.000000000               0.000000000               0.000000000               0.000000000               0.000000000               0.000000000               0.000000000               0.000000000               0.000000000               0.000000000               0.000000000               0.000000000               0.000000000               0.000000000               0.000000000               0.000000000               0.000000000               0.000000000               0.000000000               0.000000000               0.000000000               0.000000000               0.000000000               0.000000000               0.000000000               0.000000000               0.000000000               0.000000000               0.000000000               0.000000000               0.000000000               0.000000000               0.000000000               0.000000000               0.000000000               0.000000000               0.000000000               0.000000000               0.000000000               0.000000000               0.000000000               0.000000000               0.000000000               0.000000000               0.000000000               0.000000000               0.000000000               0.000000000               0.000000000               0.000000000               0.000000000               0.000000000               0.000000000               0.000000000               0.000000000               0.000000000               0.000000000               0.000000000               0.000000000               0.000000000               0.000000000               0.000000000               0.000000000               0.000000000               0.000000000               0.000000000               0.000000000               0.000000000               0.000000000               0.000000000               0.000000000               0.000000000               0.000000000               0.000000000               0.000000000               0.000000000               0.000000000               0.000000000               0.000000000               0.000000000               0.000000000               0.000000000               0.000000000               0.000000000               0.000000000               0.000000000               0.000000000               0.000000000               0.000000000               0.000000000               0.000000000 </DataArray>
</PointData>
</Piece>
</UnstructuredGrid> </VTKFile>
