<?xml version="1.0"?>
<VTKFile type="UnstructuredGrid" version="0.1">
<UnstructuredGrid>
<Piece NumberOfPoints="      1156" NumberOfCells="      1024">
<Points>
<DataArray type="Float64"                                    Name="coordinates"                                                      NumberOfComponents=" 3" format="ascii">
              0.133000000               0.000000000               0.000000000               0.155937500               0.000000000               0.000000000               0.178875000               0.000000000               0.000000000               0.201812500               0.000000000               0.000000000               0.224750000               0.000000000               0.000000000               0.247687500               0.000000000               0.000000000               0.270625000               0.000000000               0.000000000               0.293562500               0.000000000               0.000000000               0.316500000               0.000000000               0.000000000               0.339437500               0.000000000               0.000000000               0.362375000               0.000000000               0.000000000               0.385312500               0.000000000               0.000000000               0.408250000               0.000000000               0.000000000               0.431187500               0.000000000               0.000000000               0.454125000               0.000000000               0.000000000               0.477062500               0.000000000               0.000000000               0.500000000               0.000000000               0.000000000               0.132359569               0.013036280               0.000000000               0.155337096               0.016127762               0.000000000               0.178314623               0.019219245               0.000000000               0.201292150               0.022310727               0.000000000               0.224269676               0.025402210               0.000000000               0.247247203               0.028493692               0.000000000               0.270224730               0.031585175               0.000000000               0.293202257               0.034676657               0.000000000               0.316179784               0.037768140               0.000000000               0.339157311               0.040859622               0.000000000               0.362134838               0.043951105               0.000000000               0.385112365               0.047042587               0.000000000               0.408089892               0.050134070               0.000000000               0.431067419               0.053225552               0.000000000               0.454044946               0.056317035               0.000000000               0.477022473               0.059408517               0.000000000               0.500000000               0.062500000               0.000000000               0.130444442               0.025947013               0.000000000               0.153541665               0.032137825               0.000000000               0.176638887               0.038328636               0.000000000               0.199736109               0.044519448               0.000000000               0.222833332               0.050710260               0.000000000               0.245930554               0.056901071               0.000000000               0.269027776               0.063091883               0.000000000               0.292124999               0.069282695               0.000000000               0.315222221               0.075473506               0.000000000               0.338319444               0.081664318               0.000000000               0.361416666               0.087855130               0.000000000               0.384513888               0.094045942               0.000000000               0.407611111               0.100236753               0.000000000               0.430708333               0.106427565               0.000000000               0.453805555               0.112618377               0.000000000               0.476902778               0.118809188               0.000000000               0.500000000               0.125000000               0.000000000               0.127273065               0.038607862               0.000000000               0.150568498               0.047913621               0.000000000               0.173863932               0.057219379               0.000000000               0.197159365               0.066525138               0.000000000               0.220454798               0.075830897               0.000000000               0.243750232               0.085136655               0.000000000               0.267045665               0.094442414               0.000000000               0.290341099               0.103748172               0.000000000               0.313636532               0.113053931               0.000000000               0.336931966               0.122359690               0.000000000               0.360227399               0.131665448               0.000000000               0.383522833               0.140971207               0.000000000               0.406818266               0.150276966               0.000000000               0.430113700               0.159582724               0.000000000               0.453409133               0.168888483               0.000000000               0.476704567               0.178194241               0.000000000               0.500000000               0.187500000               0.000000000               0.122875978               0.050896897               0.000000000               0.146446229               0.063340840               0.000000000               0.170016481               0.075784784               0.000000000               0.193586732               0.088228728               0.000000000               0.217156983               0.100672672               0.000000000               0.240727235               0.113116616               0.000000000               0.264297486               0.125560560               0.000000000               0.287867738               0.138004504               0.000000000               0.311437989               0.150448448               0.000000000               0.335008240               0.162892392               0.000000000               0.358578492               0.175336336               0.000000000               0.382148743               0.187780280               0.000000000               0.405718994               0.200224224               0.000000000               0.429289246               0.212668168               0.000000000               0.452859497               0.225112112               0.000000000               0.476429749               0.237556056               0.000000000               0.500000000               0.250000000               0.000000000               0.117295528               0.062695766               0.000000000               0.141214558               0.078308531               0.000000000               0.165133587               0.093921295               0.000000000               0.189052617               0.109534060               0.000000000               0.212971646               0.125146824               0.000000000               0.236890676               0.140759589               0.000000000               0.260809705               0.156372354               0.000000000               0.284728735               0.171985118               0.000000000               0.308647764               0.187597883               0.000000000               0.332566794               0.203210648               0.000000000               0.356485823               0.218823412               0.000000000               0.380404853               0.234436177               0.000000000               0.404323882               0.250048941               0.000000000               0.428242912               0.265661706               0.000000000               0.452161941               0.281274471               0.000000000               0.476080971               0.296887235               0.000000000               0.500000000               0.312500000               0.000000000               0.110585458               0.073890841               0.000000000               0.134923867               0.092710163               0.000000000               0.159262276               0.111529486               0.000000000               0.183600685               0.130348808               0.000000000               0.207939094               0.149168131               0.000000000               0.232277503               0.167987453               0.000000000               0.256615912               0.186806776               0.000000000               0.280954320               0.205626098               0.000000000               0.305292729               0.224445420               0.000000000               0.329631138               0.243264743               0.000000000               0.353969547               0.262084065               0.000000000               0.378307956               0.280903388               0.000000000               0.402646365               0.299722710               0.000000000               0.426984773               0.318542033               0.000000000               0.451323182               0.337361355               0.000000000               0.475661591               0.356180678               0.000000000               0.500000000               0.375000000               0.000000000               0.102810390               0.084374307               0.000000000               0.127634741               0.106444663               0.000000000               0.152459092               0.128515018               0.000000000               0.177283442               0.150585374               0.000000000               0.202107793               0.172655730               0.000000000               0.226932143               0.194726086               0.000000000               0.251756494               0.216796442               0.000000000               0.276580845               0.238866798               0.000000000               0.301405195               0.260937153               0.000000000               0.326229546               0.283007509               0.000000000               0.351053896               0.305077865               0.000000000               0.375878247               0.327148221               0.000000000               0.400702598               0.349218577               0.000000000               0.425526948               0.371288933               0.000000000               0.450351299               0.393359288               0.000000000               0.475175649               0.415429644               0.000000000               0.500000000               0.437500000               0.000000000               0.094045202               0.094045202               0.000000000               0.119417377               0.119417377               0.000000000               0.144789552               0.144789552               0.000000000               0.170161727               0.170161727               0.000000000               0.195533901               0.195533901               0.000000000               0.220906076               0.220906076               0.000000000               0.246278251               0.246278251               0.000000000               0.271650426               0.271650426               0.000000000               0.297022601               0.297022601               0.000000000               0.322394776               0.322394776               0.000000000               0.347766951               0.347766951               0.000000000               0.373139126               0.373139126               0.000000000               0.398511300               0.398511300               0.000000000               0.423883475               0.423883475               0.000000000               0.449255650               0.449255650               0.000000000               0.474627825               0.474627825               0.000000000               0.500000000               0.500000000               0.000000000               0.084374307               0.102810390               0.000000000               0.106444663               0.127634741               0.000000000               0.128515018               0.152459092               0.000000000               0.150585374               0.177283442               0.000000000               0.172655730               0.202107793               0.000000000               0.194726086               0.226932143               0.000000000               0.216796442               0.251756494               0.000000000               0.238866798               0.276580845               0.000000000               0.260937153               0.301405195               0.000000000               0.283007509               0.326229546               0.000000000               0.305077865               0.351053896               0.000000000               0.327148221               0.375878247               0.000000000               0.349218577               0.400702598               0.000000000               0.371288933               0.425526948               0.000000000               0.393359288               0.450351299               0.000000000               0.415429644               0.475175649               0.000000000               0.437500000               0.500000000               0.000000000               0.073890841               0.110585458               0.000000000               0.092710163               0.134923867               0.000000000               0.111529486               0.159262276               0.000000000               0.130348808               0.183600685               0.000000000               0.149168131               0.207939094               0.000000000               0.167987453               0.232277503               0.000000000               0.186806776               0.256615912               0.000000000               0.205626098               0.280954320               0.000000000               0.224445420               0.305292729               0.000000000               0.243264743               0.329631138               0.000000000               0.262084065               0.353969547               0.000000000               0.280903388               0.378307956               0.000000000               0.299722710               0.402646365               0.000000000               0.318542033               0.426984773               0.000000000               0.337361355               0.451323182               0.000000000               0.356180678               0.475661591               0.000000000               0.375000000               0.500000000               0.000000000               0.062695766               0.117295528               0.000000000               0.078308531               0.141214558               0.000000000               0.093921295               0.165133587               0.000000000               0.109534060               0.189052617               0.000000000               0.125146824               0.212971646               0.000000000               0.140759589               0.236890676               0.000000000               0.156372354               0.260809705               0.000000000               0.171985118               0.284728735               0.000000000               0.187597883               0.308647764               0.000000000               0.203210648               0.332566794               0.000000000               0.218823412               0.356485823               0.000000000               0.234436177               0.380404853               0.000000000               0.250048941               0.404323882               0.000000000               0.265661706               0.428242912               0.000000000               0.281274471               0.452161941               0.000000000               0.296887235               0.476080971               0.000000000               0.312500000               0.500000000               0.000000000               0.050896897               0.122875978               0.000000000               0.063340840               0.146446229               0.000000000               0.075784784               0.170016481               0.000000000               0.088228728               0.193586732               0.000000000               0.100672672               0.217156983               0.000000000               0.113116616               0.240727235               0.000000000               0.125560560               0.264297486               0.000000000               0.138004504               0.287867738               0.000000000               0.150448448               0.311437989               0.000000000               0.162892392               0.335008240               0.000000000               0.175336336               0.358578492               0.000000000               0.187780280               0.382148743               0.000000000               0.200224224               0.405718994               0.000000000               0.212668168               0.429289246               0.000000000               0.225112112               0.452859497               0.000000000               0.237556056               0.476429749               0.000000000               0.250000000               0.500000000               0.000000000               0.038607862               0.127273065               0.000000000               0.047913621               0.150568498               0.000000000               0.057219379               0.173863932               0.000000000               0.066525138               0.197159365               0.000000000               0.075830897               0.220454798               0.000000000               0.085136655               0.243750232               0.000000000               0.094442414               0.267045665               0.000000000               0.103748172               0.290341099               0.000000000               0.113053931               0.313636532               0.000000000               0.122359690               0.336931966               0.000000000               0.131665448               0.360227399               0.000000000               0.140971207               0.383522833               0.000000000               0.150276966               0.406818266               0.000000000               0.159582724               0.430113700               0.000000000               0.168888483               0.453409133               0.000000000               0.178194241               0.476704567               0.000000000               0.187500000               0.500000000               0.000000000               0.025947013               0.130444442               0.000000000               0.032137825               0.153541665               0.000000000               0.038328636               0.176638887               0.000000000               0.044519448               0.199736109               0.000000000               0.050710260               0.222833332               0.000000000               0.056901071               0.245930554               0.000000000               0.063091883               0.269027776               0.000000000               0.069282695               0.292124999               0.000000000               0.075473506               0.315222221               0.000000000               0.081664318               0.338319444               0.000000000               0.087855130               0.361416666               0.000000000               0.094045942               0.384513888               0.000000000               0.100236753               0.407611111               0.000000000               0.106427565               0.430708333               0.000000000               0.112618377               0.453805555               0.000000000               0.118809188               0.476902778               0.000000000               0.125000000               0.500000000               0.000000000               0.013036280               0.132359569               0.000000000               0.016127762               0.155337096               0.000000000               0.019219245               0.178314623               0.000000000               0.022310727               0.201292150               0.000000000               0.025402210               0.224269676               0.000000000               0.028493692               0.247247203               0.000000000               0.031585175               0.270224730               0.000000000               0.034676657               0.293202257               0.000000000               0.037768140               0.316179784               0.000000000               0.040859622               0.339157311               0.000000000               0.043951105               0.362134838               0.000000000               0.047042587               0.385112365               0.000000000               0.050134070               0.408089892               0.000000000               0.053225552               0.431067419               0.000000000               0.056317035               0.454044946               0.000000000               0.059408517               0.477022473               0.000000000               0.062500000               0.500000000               0.000000000               0.000000000               0.133000000               0.000000000               0.000000000               0.155937500               0.000000000               0.000000000               0.178875000               0.000000000               0.000000000               0.201812500               0.000000000               0.000000000               0.224750000               0.000000000               0.000000000               0.247687500               0.000000000               0.000000000               0.270625000               0.000000000               0.000000000               0.293562500               0.000000000               0.000000000               0.316500000               0.000000000               0.000000000               0.339437500               0.000000000               0.000000000               0.362375000               0.000000000               0.000000000               0.385312500               0.000000000               0.000000000               0.408250000               0.000000000               0.000000000               0.431187500               0.000000000               0.000000000               0.454125000               0.000000000               0.000000000               0.477062500               0.000000000               0.000000000               0.500000000               0.000000000               0.133000000               0.000000000               0.000000000               0.155937500               0.000000000               0.000000000               0.178875000               0.000000000               0.000000000               0.201812500               0.000000000               0.000000000               0.224750000               0.000000000               0.000000000               0.247687500               0.000000000               0.000000000               0.270625000               0.000000000               0.000000000               0.293562500               0.000000000               0.000000000               0.316500000               0.000000000               0.000000000               0.339437500               0.000000000               0.000000000               0.362375000               0.000000000               0.000000000               0.385312500               0.000000000               0.000000000               0.408250000               0.000000000               0.000000000               0.431187500               0.000000000               0.000000000               0.454125000               0.000000000               0.000000000               0.477062500               0.000000000               0.000000000               0.500000000               0.000000000               0.000000000               0.132359569              -0.013036280               0.000000000               0.155337096              -0.016127762               0.000000000               0.178314623              -0.019219245               0.000000000               0.201292150              -0.022310727               0.000000000               0.224269676              -0.025402210               0.000000000               0.247247203              -0.028493692               0.000000000               0.270224730              -0.031585175               0.000000000               0.293202257              -0.034676657               0.000000000               0.316179784              -0.037768140               0.000000000               0.339157311              -0.040859622               0.000000000               0.362134838              -0.043951105               0.000000000               0.385112365              -0.047042587               0.000000000               0.408089892              -0.050134070               0.000000000               0.431067419              -0.053225552               0.000000000               0.454044946              -0.056317035               0.000000000               0.477022473              -0.059408517               0.000000000               0.500000000              -0.062500000               0.000000000               0.130444442              -0.025947013               0.000000000               0.153541665              -0.032137825               0.000000000               0.176638887              -0.038328636               0.000000000               0.199736109              -0.044519448               0.000000000               0.222833332              -0.050710260               0.000000000               0.245930554              -0.056901071               0.000000000               0.269027776              -0.063091883               0.000000000               0.292124999              -0.069282695               0.000000000               0.315222221              -0.075473506               0.000000000               0.338319444              -0.081664318               0.000000000               0.361416666              -0.087855130               0.000000000               0.384513888              -0.094045942               0.000000000               0.407611111              -0.100236753               0.000000000               0.430708333              -0.106427565               0.000000000               0.453805555              -0.112618377               0.000000000               0.476902778              -0.118809188               0.000000000               0.500000000              -0.125000000               0.000000000               0.127273065              -0.038607862               0.000000000               0.150568498              -0.047913621               0.000000000               0.173863932              -0.057219379               0.000000000               0.197159365              -0.066525138               0.000000000               0.220454798              -0.075830897               0.000000000               0.243750232              -0.085136655               0.000000000               0.267045665              -0.094442414               0.000000000               0.290341099              -0.103748172               0.000000000               0.313636532              -0.113053931               0.000000000               0.336931966              -0.122359690               0.000000000               0.360227399              -0.131665448               0.000000000               0.383522833              -0.140971207               0.000000000               0.406818266              -0.150276966               0.000000000               0.430113700              -0.159582724               0.000000000               0.453409133              -0.168888483               0.000000000               0.476704567              -0.178194241               0.000000000               0.500000000              -0.187500000               0.000000000               0.122875978              -0.050896897               0.000000000               0.146446229              -0.063340840               0.000000000               0.170016481              -0.075784784               0.000000000               0.193586732              -0.088228728               0.000000000               0.217156983              -0.100672672               0.000000000               0.240727235              -0.113116616               0.000000000               0.264297486              -0.125560560               0.000000000               0.287867738              -0.138004504               0.000000000               0.311437989              -0.150448448               0.000000000               0.335008240              -0.162892392               0.000000000               0.358578492              -0.175336336               0.000000000               0.382148743              -0.187780280               0.000000000               0.405718994              -0.200224224               0.000000000               0.429289246              -0.212668168               0.000000000               0.452859497              -0.225112112               0.000000000               0.476429749              -0.237556056               0.000000000               0.500000000              -0.250000000               0.000000000               0.117295528              -0.062695766               0.000000000               0.141214558              -0.078308531               0.000000000               0.165133587              -0.093921295               0.000000000               0.189052617              -0.109534060               0.000000000               0.212971646              -0.125146824               0.000000000               0.236890676              -0.140759589               0.000000000               0.260809705              -0.156372354               0.000000000               0.284728735              -0.171985118               0.000000000               0.308647764              -0.187597883               0.000000000               0.332566794              -0.203210648               0.000000000               0.356485823              -0.218823412               0.000000000               0.380404853              -0.234436177               0.000000000               0.404323882              -0.250048941               0.000000000               0.428242912              -0.265661706               0.000000000               0.452161941              -0.281274471               0.000000000               0.476080971              -0.296887235               0.000000000               0.500000000              -0.312500000               0.000000000               0.110585458              -0.073890841               0.000000000               0.134923867              -0.092710163               0.000000000               0.159262276              -0.111529486               0.000000000               0.183600685              -0.130348808               0.000000000               0.207939094              -0.149168131               0.000000000               0.232277503              -0.167987453               0.000000000               0.256615912              -0.186806776               0.000000000               0.280954320              -0.205626098               0.000000000               0.305292729              -0.224445420               0.000000000               0.329631138              -0.243264743               0.000000000               0.353969547              -0.262084065               0.000000000               0.378307956              -0.280903388               0.000000000               0.402646365              -0.299722710               0.000000000               0.426984773              -0.318542033               0.000000000               0.451323182              -0.337361355               0.000000000               0.475661591              -0.356180678               0.000000000               0.500000000              -0.375000000               0.000000000               0.102810390              -0.084374307               0.000000000               0.127634741              -0.106444663               0.000000000               0.152459092              -0.128515018               0.000000000               0.177283442              -0.150585374               0.000000000               0.202107793              -0.172655730               0.000000000               0.226932143              -0.194726086               0.000000000               0.251756494              -0.216796442               0.000000000               0.276580845              -0.238866798               0.000000000               0.301405195              -0.260937153               0.000000000               0.326229546              -0.283007509               0.000000000               0.351053896              -0.305077865               0.000000000               0.375878247              -0.327148221               0.000000000               0.400702598              -0.349218577               0.000000000               0.425526948              -0.371288933               0.000000000               0.450351299              -0.393359288               0.000000000               0.475175649              -0.415429644               0.000000000               0.500000000              -0.437500000               0.000000000               0.094045202              -0.094045202               0.000000000               0.119417377              -0.119417377               0.000000000               0.144789552              -0.144789552               0.000000000               0.170161727              -0.170161727               0.000000000               0.195533901              -0.195533901               0.000000000               0.220906076              -0.220906076               0.000000000               0.246278251              -0.246278251               0.000000000               0.271650426              -0.271650426               0.000000000               0.297022601              -0.297022601               0.000000000               0.322394776              -0.322394776               0.000000000               0.347766951              -0.347766951               0.000000000               0.373139126              -0.373139126               0.000000000               0.398511300              -0.398511300               0.000000000               0.423883475              -0.423883475               0.000000000               0.449255650              -0.449255650               0.000000000               0.474627825              -0.474627825               0.000000000               0.500000000              -0.500000000               0.000000000               0.084374307              -0.102810390               0.000000000               0.106444663              -0.127634741               0.000000000               0.128515018              -0.152459092               0.000000000               0.150585374              -0.177283442               0.000000000               0.172655730              -0.202107793               0.000000000               0.194726086              -0.226932143               0.000000000               0.216796442              -0.251756494               0.000000000               0.238866798              -0.276580845               0.000000000               0.260937153              -0.301405195               0.000000000               0.283007509              -0.326229546               0.000000000               0.305077865              -0.351053896               0.000000000               0.327148221              -0.375878247               0.000000000               0.349218577              -0.400702598               0.000000000               0.371288933              -0.425526948               0.000000000               0.393359288              -0.450351299               0.000000000               0.415429644              -0.475175649               0.000000000               0.437500000              -0.500000000               0.000000000               0.073890841              -0.110585458               0.000000000               0.092710163              -0.134923867               0.000000000               0.111529486              -0.159262276               0.000000000               0.130348808              -0.183600685               0.000000000               0.149168131              -0.207939094               0.000000000               0.167987453              -0.232277503               0.000000000               0.186806776              -0.256615912               0.000000000               0.205626098              -0.280954320               0.000000000               0.224445420              -0.305292729               0.000000000               0.243264743              -0.329631138               0.000000000               0.262084065              -0.353969547               0.000000000               0.280903388              -0.378307956               0.000000000               0.299722710              -0.402646365               0.000000000               0.318542033              -0.426984773               0.000000000               0.337361355              -0.451323182               0.000000000               0.356180678              -0.475661591               0.000000000               0.375000000              -0.500000000               0.000000000               0.062695766              -0.117295528               0.000000000               0.078308531              -0.141214558               0.000000000               0.093921295              -0.165133587               0.000000000               0.109534060              -0.189052617               0.000000000               0.125146824              -0.212971646               0.000000000               0.140759589              -0.236890676               0.000000000               0.156372354              -0.260809705               0.000000000               0.171985118              -0.284728735               0.000000000               0.187597883              -0.308647764               0.000000000               0.203210648              -0.332566794               0.000000000               0.218823412              -0.356485823               0.000000000               0.234436177              -0.380404853               0.000000000               0.250048941              -0.404323882               0.000000000               0.265661706              -0.428242912               0.000000000               0.281274471              -0.452161941               0.000000000               0.296887235              -0.476080971               0.000000000               0.312500000              -0.500000000               0.000000000               0.050896897              -0.122875978               0.000000000               0.063340840              -0.146446229               0.000000000               0.075784784              -0.170016481               0.000000000               0.088228728              -0.193586732               0.000000000               0.100672672              -0.217156983               0.000000000               0.113116616              -0.240727235               0.000000000               0.125560560              -0.264297486               0.000000000               0.138004504              -0.287867738               0.000000000               0.150448448              -0.311437989               0.000000000               0.162892392              -0.335008240               0.000000000               0.175336336              -0.358578492               0.000000000               0.187780280              -0.382148743               0.000000000               0.200224224              -0.405718994               0.000000000               0.212668168              -0.429289246               0.000000000               0.225112112              -0.452859497               0.000000000               0.237556056              -0.476429749               0.000000000               0.250000000              -0.500000000               0.000000000               0.038607862              -0.127273065               0.000000000               0.047913621              -0.150568498               0.000000000               0.057219379              -0.173863932               0.000000000               0.066525138              -0.197159365               0.000000000               0.075830897              -0.220454798               0.000000000               0.085136655              -0.243750232               0.000000000               0.094442414              -0.267045665               0.000000000               0.103748172              -0.290341099               0.000000000               0.113053931              -0.313636532               0.000000000               0.122359690              -0.336931966               0.000000000               0.131665448              -0.360227399               0.000000000               0.140971207              -0.383522833               0.000000000               0.150276966              -0.406818266               0.000000000               0.159582724              -0.430113700               0.000000000               0.168888483              -0.453409133               0.000000000               0.178194241              -0.476704567               0.000000000               0.187500000              -0.500000000               0.000000000               0.025947013              -0.130444442               0.000000000               0.032137825              -0.153541665               0.000000000               0.038328636              -0.176638887               0.000000000               0.044519448              -0.199736109               0.000000000               0.050710260              -0.222833332               0.000000000               0.056901071              -0.245930554               0.000000000               0.063091883              -0.269027776               0.000000000               0.069282695              -0.292124999               0.000000000               0.075473506              -0.315222221               0.000000000               0.081664318              -0.338319444               0.000000000               0.087855130              -0.361416666               0.000000000               0.094045942              -0.384513888               0.000000000               0.100236753              -0.407611111               0.000000000               0.106427565              -0.430708333               0.000000000               0.112618377              -0.453805555               0.000000000               0.118809188              -0.476902778               0.000000000               0.125000000              -0.500000000               0.000000000               0.013036280              -0.132359569               0.000000000               0.016127762              -0.155337096               0.000000000               0.019219245              -0.178314623               0.000000000               0.022310727              -0.201292150               0.000000000               0.025402210              -0.224269676               0.000000000               0.028493692              -0.247247203               0.000000000               0.031585175              -0.270224730               0.000000000               0.034676657              -0.293202257               0.000000000               0.037768140              -0.316179784               0.000000000               0.040859622              -0.339157311               0.000000000               0.043951105              -0.362134838               0.000000000               0.047042587              -0.385112365               0.000000000               0.050134070              -0.408089892               0.000000000               0.053225552              -0.431067419               0.000000000               0.056317035              -0.454044946               0.000000000               0.059408517              -0.477022473               0.000000000               0.062500000              -0.500000000               0.000000000               0.000000000              -0.133000000               0.000000000               0.000000000              -0.155937500               0.000000000               0.000000000              -0.178875000               0.000000000               0.000000000              -0.201812500               0.000000000               0.000000000              -0.224750000               0.000000000               0.000000000              -0.247687500               0.000000000               0.000000000              -0.270625000               0.000000000               0.000000000              -0.293562500               0.000000000               0.000000000              -0.316500000               0.000000000               0.000000000              -0.339437500               0.000000000               0.000000000              -0.362375000               0.000000000               0.000000000              -0.385312500               0.000000000               0.000000000              -0.408250000               0.000000000               0.000000000              -0.431187500               0.000000000               0.000000000              -0.454125000               0.000000000               0.000000000              -0.477062500               0.000000000               0.000000000              -0.500000000               0.000000000              -0.133000000               0.000000000               0.000000000              -0.155937500               0.000000000               0.000000000              -0.178875000               0.000000000               0.000000000              -0.201812500               0.000000000               0.000000000              -0.224750000               0.000000000               0.000000000              -0.247687500               0.000000000               0.000000000              -0.270625000               0.000000000               0.000000000              -0.293562500               0.000000000               0.000000000              -0.316500000               0.000000000               0.000000000              -0.339437500               0.000000000               0.000000000              -0.362375000               0.000000000               0.000000000              -0.385312500               0.000000000               0.000000000              -0.408250000               0.000000000               0.000000000              -0.431187500               0.000000000               0.000000000              -0.454125000               0.000000000               0.000000000              -0.477062500               0.000000000               0.000000000              -0.500000000               0.000000000               0.000000000              -0.132359569              -0.013036280               0.000000000              -0.155337096              -0.016127762               0.000000000              -0.178314623              -0.019219245               0.000000000              -0.201292150              -0.022310727               0.000000000              -0.224269676              -0.025402210               0.000000000              -0.247247203              -0.028493692               0.000000000              -0.270224730              -0.031585175               0.000000000              -0.293202257              -0.034676657               0.000000000              -0.316179784              -0.037768140               0.000000000              -0.339157311              -0.040859622               0.000000000              -0.362134838              -0.043951105               0.000000000              -0.385112365              -0.047042587               0.000000000              -0.408089892              -0.050134070               0.000000000              -0.431067419              -0.053225552               0.000000000              -0.454044946              -0.056317035               0.000000000              -0.477022473              -0.059408517               0.000000000              -0.500000000              -0.062500000               0.000000000              -0.130444442              -0.025947013               0.000000000              -0.153541665              -0.032137825               0.000000000              -0.176638887              -0.038328636               0.000000000              -0.199736109              -0.044519448               0.000000000              -0.222833332              -0.050710260               0.000000000              -0.245930554              -0.056901071               0.000000000              -0.269027776              -0.063091883               0.000000000              -0.292124999              -0.069282695               0.000000000              -0.315222221              -0.075473506               0.000000000              -0.338319444              -0.081664318               0.000000000              -0.361416666              -0.087855130               0.000000000              -0.384513888              -0.094045942               0.000000000              -0.407611111              -0.100236753               0.000000000              -0.430708333              -0.106427565               0.000000000              -0.453805555              -0.112618377               0.000000000              -0.476902778              -0.118809188               0.000000000              -0.500000000              -0.125000000               0.000000000              -0.127273065              -0.038607862               0.000000000              -0.150568498              -0.047913621               0.000000000              -0.173863932              -0.057219379               0.000000000              -0.197159365              -0.066525138               0.000000000              -0.220454798              -0.075830897               0.000000000              -0.243750232              -0.085136655               0.000000000              -0.267045665              -0.094442414               0.000000000              -0.290341099              -0.103748172               0.000000000              -0.313636532              -0.113053931               0.000000000              -0.336931966              -0.122359690               0.000000000              -0.360227399              -0.131665448               0.000000000              -0.383522833              -0.140971207               0.000000000              -0.406818266              -0.150276966               0.000000000              -0.430113700              -0.159582724               0.000000000              -0.453409133              -0.168888483               0.000000000              -0.476704567              -0.178194241               0.000000000              -0.500000000              -0.187500000               0.000000000              -0.122875978              -0.050896897               0.000000000              -0.146446229              -0.063340840               0.000000000              -0.170016481              -0.075784784               0.000000000              -0.193586732              -0.088228728               0.000000000              -0.217156983              -0.100672672               0.000000000              -0.240727235              -0.113116616               0.000000000              -0.264297486              -0.125560560               0.000000000              -0.287867738              -0.138004504               0.000000000              -0.311437989              -0.150448448               0.000000000              -0.335008240              -0.162892392               0.000000000              -0.358578492              -0.175336336               0.000000000              -0.382148743              -0.187780280               0.000000000              -0.405718994              -0.200224224               0.000000000              -0.429289246              -0.212668168               0.000000000              -0.452859497              -0.225112112               0.000000000              -0.476429749              -0.237556056               0.000000000              -0.500000000              -0.250000000               0.000000000              -0.117295528              -0.062695766               0.000000000              -0.141214558              -0.078308531               0.000000000              -0.165133587              -0.093921295               0.000000000              -0.189052617              -0.109534060               0.000000000              -0.212971646              -0.125146824               0.000000000              -0.236890676              -0.140759589               0.000000000              -0.260809705              -0.156372354               0.000000000              -0.284728735              -0.171985118               0.000000000              -0.308647764              -0.187597883               0.000000000              -0.332566794              -0.203210648               0.000000000              -0.356485823              -0.218823412               0.000000000              -0.380404853              -0.234436177               0.000000000              -0.404323882              -0.250048941               0.000000000              -0.428242912              -0.265661706               0.000000000              -0.452161941              -0.281274471               0.000000000              -0.476080971              -0.296887235               0.000000000              -0.500000000              -0.312500000               0.000000000              -0.110585458              -0.073890841               0.000000000              -0.134923867              -0.092710163               0.000000000              -0.159262276              -0.111529486               0.000000000              -0.183600685              -0.130348808               0.000000000              -0.207939094              -0.149168131               0.000000000              -0.232277503              -0.167987453               0.000000000              -0.256615912              -0.186806776               0.000000000              -0.280954320              -0.205626098               0.000000000              -0.305292729              -0.224445420               0.000000000              -0.329631138              -0.243264743               0.000000000              -0.353969547              -0.262084065               0.000000000              -0.378307956              -0.280903388               0.000000000              -0.402646365              -0.299722710               0.000000000              -0.426984773              -0.318542033               0.000000000              -0.451323182              -0.337361355               0.000000000              -0.475661591              -0.356180678               0.000000000              -0.500000000              -0.375000000               0.000000000              -0.102810390              -0.084374307               0.000000000              -0.127634741              -0.106444663               0.000000000              -0.152459092              -0.128515018               0.000000000              -0.177283442              -0.150585374               0.000000000              -0.202107793              -0.172655730               0.000000000              -0.226932143              -0.194726086               0.000000000              -0.251756494              -0.216796442               0.000000000              -0.276580845              -0.238866798               0.000000000              -0.301405195              -0.260937153               0.000000000              -0.326229546              -0.283007509               0.000000000              -0.351053896              -0.305077865               0.000000000              -0.375878247              -0.327148221               0.000000000              -0.400702598              -0.349218577               0.000000000              -0.425526948              -0.371288933               0.000000000              -0.450351299              -0.393359288               0.000000000              -0.475175649              -0.415429644               0.000000000              -0.500000000              -0.437500000               0.000000000              -0.094045202              -0.094045202               0.000000000              -0.119417377              -0.119417377               0.000000000              -0.144789552              -0.144789552               0.000000000              -0.170161727              -0.170161727               0.000000000              -0.195533901              -0.195533901               0.000000000              -0.220906076              -0.220906076               0.000000000              -0.246278251              -0.246278251               0.000000000              -0.271650426              -0.271650426               0.000000000              -0.297022601              -0.297022601               0.000000000              -0.322394776              -0.322394776               0.000000000              -0.347766951              -0.347766951               0.000000000              -0.373139126              -0.373139126               0.000000000              -0.398511300              -0.398511300               0.000000000              -0.423883475              -0.423883475               0.000000000              -0.449255650              -0.449255650               0.000000000              -0.474627825              -0.474627825               0.000000000              -0.500000000              -0.500000000               0.000000000              -0.084374307              -0.102810390               0.000000000              -0.106444663              -0.127634741               0.000000000              -0.128515018              -0.152459092               0.000000000              -0.150585374              -0.177283442               0.000000000              -0.172655730              -0.202107793               0.000000000              -0.194726086              -0.226932143               0.000000000              -0.216796442              -0.251756494               0.000000000              -0.238866798              -0.276580845               0.000000000              -0.260937153              -0.301405195               0.000000000              -0.283007509              -0.326229546               0.000000000              -0.305077865              -0.351053896               0.000000000              -0.327148221              -0.375878247               0.000000000              -0.349218577              -0.400702598               0.000000000              -0.371288933              -0.425526948               0.000000000              -0.393359288              -0.450351299               0.000000000              -0.415429644              -0.475175649               0.000000000              -0.437500000              -0.500000000               0.000000000              -0.073890841              -0.110585458               0.000000000              -0.092710163              -0.134923867               0.000000000              -0.111529486              -0.159262276               0.000000000              -0.130348808              -0.183600685               0.000000000              -0.149168131              -0.207939094               0.000000000              -0.167987453              -0.232277503               0.000000000              -0.186806776              -0.256615912               0.000000000              -0.205626098              -0.280954320               0.000000000              -0.224445420              -0.305292729               0.000000000              -0.243264743              -0.329631138               0.000000000              -0.262084065              -0.353969547               0.000000000              -0.280903388              -0.378307956               0.000000000              -0.299722710              -0.402646365               0.000000000              -0.318542033              -0.426984773               0.000000000              -0.337361355              -0.451323182               0.000000000              -0.356180678              -0.475661591               0.000000000              -0.375000000              -0.500000000               0.000000000              -0.062695766              -0.117295528               0.000000000              -0.078308531              -0.141214558               0.000000000              -0.093921295              -0.165133587               0.000000000              -0.109534060              -0.189052617               0.000000000              -0.125146824              -0.212971646               0.000000000              -0.140759589              -0.236890676               0.000000000              -0.156372354              -0.260809705               0.000000000              -0.171985118              -0.284728735               0.000000000              -0.187597883              -0.308647764               0.000000000              -0.203210648              -0.332566794               0.000000000              -0.218823412              -0.356485823               0.000000000              -0.234436177              -0.380404853               0.000000000              -0.250048941              -0.404323882               0.000000000              -0.265661706              -0.428242912               0.000000000              -0.281274471              -0.452161941               0.000000000              -0.296887235              -0.476080971               0.000000000              -0.312500000              -0.500000000               0.000000000              -0.050896897              -0.122875978               0.000000000              -0.063340840              -0.146446229               0.000000000              -0.075784784              -0.170016481               0.000000000              -0.088228728              -0.193586732               0.000000000              -0.100672672              -0.217156983               0.000000000              -0.113116616              -0.240727235               0.000000000              -0.125560560              -0.264297486               0.000000000              -0.138004504              -0.287867738               0.000000000              -0.150448448              -0.311437989               0.000000000              -0.162892392              -0.335008240               0.000000000              -0.175336336              -0.358578492               0.000000000              -0.187780280              -0.382148743               0.000000000              -0.200224224              -0.405718994               0.000000000              -0.212668168              -0.429289246               0.000000000              -0.225112112              -0.452859497               0.000000000              -0.237556056              -0.476429749               0.000000000              -0.250000000              -0.500000000               0.000000000              -0.038607862              -0.127273065               0.000000000              -0.047913621              -0.150568498               0.000000000              -0.057219379              -0.173863932               0.000000000              -0.066525138              -0.197159365               0.000000000              -0.075830897              -0.220454798               0.000000000              -0.085136655              -0.243750232               0.000000000              -0.094442414              -0.267045665               0.000000000              -0.103748172              -0.290341099               0.000000000              -0.113053931              -0.313636532               0.000000000              -0.122359690              -0.336931966               0.000000000              -0.131665448              -0.360227399               0.000000000              -0.140971207              -0.383522833               0.000000000              -0.150276966              -0.406818266               0.000000000              -0.159582724              -0.430113700               0.000000000              -0.168888483              -0.453409133               0.000000000              -0.178194241              -0.476704567               0.000000000              -0.187500000              -0.500000000               0.000000000              -0.025947013              -0.130444442               0.000000000              -0.032137825              -0.153541665               0.000000000              -0.038328636              -0.176638887               0.000000000              -0.044519448              -0.199736109               0.000000000              -0.050710260              -0.222833332               0.000000000              -0.056901071              -0.245930554               0.000000000              -0.063091883              -0.269027776               0.000000000              -0.069282695              -0.292124999               0.000000000              -0.075473506              -0.315222221               0.000000000              -0.081664318              -0.338319444               0.000000000              -0.087855130              -0.361416666               0.000000000              -0.094045942              -0.384513888               0.000000000              -0.100236753              -0.407611111               0.000000000              -0.106427565              -0.430708333               0.000000000              -0.112618377              -0.453805555               0.000000000              -0.118809188              -0.476902778               0.000000000              -0.125000000              -0.500000000               0.000000000              -0.013036280              -0.132359569               0.000000000              -0.016127762              -0.155337096               0.000000000              -0.019219245              -0.178314623               0.000000000              -0.022310727              -0.201292150               0.000000000              -0.025402210              -0.224269676               0.000000000              -0.028493692              -0.247247203               0.000000000              -0.031585175              -0.270224730               0.000000000              -0.034676657              -0.293202257               0.000000000              -0.037768140              -0.316179784               0.000000000              -0.040859622              -0.339157311               0.000000000              -0.043951105              -0.362134838               0.000000000              -0.047042587              -0.385112365               0.000000000              -0.050134070              -0.408089892               0.000000000              -0.053225552              -0.431067419               0.000000000              -0.056317035              -0.454044946               0.000000000              -0.059408517              -0.477022473               0.000000000              -0.062500000              -0.500000000               0.000000000               0.000000000              -0.133000000               0.000000000               0.000000000              -0.155937500               0.000000000               0.000000000              -0.178875000               0.000000000               0.000000000              -0.201812500               0.000000000               0.000000000              -0.224750000               0.000000000               0.000000000              -0.247687500               0.000000000               0.000000000              -0.270625000               0.000000000               0.000000000              -0.293562500               0.000000000               0.000000000              -0.316500000               0.000000000               0.000000000              -0.339437500               0.000000000               0.000000000              -0.362375000               0.000000000               0.000000000              -0.385312500               0.000000000               0.000000000              -0.408250000               0.000000000               0.000000000              -0.431187500               0.000000000               0.000000000              -0.454125000               0.000000000               0.000000000              -0.477062500               0.000000000               0.000000000              -0.500000000               0.000000000              -0.133000000               0.000000000               0.000000000              -0.155937500               0.000000000               0.000000000              -0.178875000               0.000000000               0.000000000              -0.201812500               0.000000000               0.000000000              -0.224750000               0.000000000               0.000000000              -0.247687500               0.000000000               0.000000000              -0.270625000               0.000000000               0.000000000              -0.293562500               0.000000000               0.000000000              -0.316500000               0.000000000               0.000000000              -0.339437500               0.000000000               0.000000000              -0.362375000               0.000000000               0.000000000              -0.385312500               0.000000000               0.000000000              -0.408250000               0.000000000               0.000000000              -0.431187500               0.000000000               0.000000000              -0.454125000               0.000000000               0.000000000              -0.477062500               0.000000000               0.000000000              -0.500000000               0.000000000               0.000000000              -0.132359569               0.013036280               0.000000000              -0.155337096               0.016127762               0.000000000              -0.178314623               0.019219245               0.000000000              -0.201292150               0.022310727               0.000000000              -0.224269676               0.025402210               0.000000000              -0.247247203               0.028493692               0.000000000              -0.270224730               0.031585175               0.000000000              -0.293202257               0.034676657               0.000000000              -0.316179784               0.037768140               0.000000000              -0.339157311               0.040859622               0.000000000              -0.362134838               0.043951105               0.000000000              -0.385112365               0.047042587               0.000000000              -0.408089892               0.050134070               0.000000000              -0.431067419               0.053225552               0.000000000              -0.454044946               0.056317035               0.000000000              -0.477022473               0.059408517               0.000000000              -0.500000000               0.062500000               0.000000000              -0.130444442               0.025947013               0.000000000              -0.153541665               0.032137825               0.000000000              -0.176638887               0.038328636               0.000000000              -0.199736109               0.044519448               0.000000000              -0.222833332               0.050710260               0.000000000              -0.245930554               0.056901071               0.000000000              -0.269027776               0.063091883               0.000000000              -0.292124999               0.069282695               0.000000000              -0.315222221               0.075473506               0.000000000              -0.338319444               0.081664318               0.000000000              -0.361416666               0.087855130               0.000000000              -0.384513888               0.094045942               0.000000000              -0.407611111               0.100236753               0.000000000              -0.430708333               0.106427565               0.000000000              -0.453805555               0.112618377               0.000000000              -0.476902778               0.118809188               0.000000000              -0.500000000               0.125000000               0.000000000              -0.127273065               0.038607862               0.000000000              -0.150568498               0.047913621               0.000000000              -0.173863932               0.057219379               0.000000000              -0.197159365               0.066525138               0.000000000              -0.220454798               0.075830897               0.000000000              -0.243750232               0.085136655               0.000000000              -0.267045665               0.094442414               0.000000000              -0.290341099               0.103748172               0.000000000              -0.313636532               0.113053931               0.000000000              -0.336931966               0.122359690               0.000000000              -0.360227399               0.131665448               0.000000000              -0.383522833               0.140971207               0.000000000              -0.406818266               0.150276966               0.000000000              -0.430113700               0.159582724               0.000000000              -0.453409133               0.168888483               0.000000000              -0.476704567               0.178194241               0.000000000              -0.500000000               0.187500000               0.000000000              -0.122875978               0.050896897               0.000000000              -0.146446229               0.063340840               0.000000000              -0.170016481               0.075784784               0.000000000              -0.193586732               0.088228728               0.000000000              -0.217156983               0.100672672               0.000000000              -0.240727235               0.113116616               0.000000000              -0.264297486               0.125560560               0.000000000              -0.287867738               0.138004504               0.000000000              -0.311437989               0.150448448               0.000000000              -0.335008240               0.162892392               0.000000000              -0.358578492               0.175336336               0.000000000              -0.382148743               0.187780280               0.000000000              -0.405718994               0.200224224               0.000000000              -0.429289246               0.212668168               0.000000000              -0.452859497               0.225112112               0.000000000              -0.476429749               0.237556056               0.000000000              -0.500000000               0.250000000               0.000000000              -0.117295528               0.062695766               0.000000000              -0.141214558               0.078308531               0.000000000              -0.165133587               0.093921295               0.000000000              -0.189052617               0.109534060               0.000000000              -0.212971646               0.125146824               0.000000000              -0.236890676               0.140759589               0.000000000              -0.260809705               0.156372354               0.000000000              -0.284728735               0.171985118               0.000000000              -0.308647764               0.187597883               0.000000000              -0.332566794               0.203210648               0.000000000              -0.356485823               0.218823412               0.000000000              -0.380404853               0.234436177               0.000000000              -0.404323882               0.250048941               0.000000000              -0.428242912               0.265661706               0.000000000              -0.452161941               0.281274471               0.000000000              -0.476080971               0.296887235               0.000000000              -0.500000000               0.312500000               0.000000000              -0.110585458               0.073890841               0.000000000              -0.134923867               0.092710163               0.000000000              -0.159262276               0.111529486               0.000000000              -0.183600685               0.130348808               0.000000000              -0.207939094               0.149168131               0.000000000              -0.232277503               0.167987453               0.000000000              -0.256615912               0.186806776               0.000000000              -0.280954320               0.205626098               0.000000000              -0.305292729               0.224445420               0.000000000              -0.329631138               0.243264743               0.000000000              -0.353969547               0.262084065               0.000000000              -0.378307956               0.280903388               0.000000000              -0.402646365               0.299722710               0.000000000              -0.426984773               0.318542033               0.000000000              -0.451323182               0.337361355               0.000000000              -0.475661591               0.356180678               0.000000000              -0.500000000               0.375000000               0.000000000              -0.102810390               0.084374307               0.000000000              -0.127634741               0.106444663               0.000000000              -0.152459092               0.128515018               0.000000000              -0.177283442               0.150585374               0.000000000              -0.202107793               0.172655730               0.000000000              -0.226932143               0.194726086               0.000000000              -0.251756494               0.216796442               0.000000000              -0.276580845               0.238866798               0.000000000              -0.301405195               0.260937153               0.000000000              -0.326229546               0.283007509               0.000000000              -0.351053896               0.305077865               0.000000000              -0.375878247               0.327148221               0.000000000              -0.400702598               0.349218577               0.000000000              -0.425526948               0.371288933               0.000000000              -0.450351299               0.393359288               0.000000000              -0.475175649               0.415429644               0.000000000              -0.500000000               0.437500000               0.000000000              -0.094045202               0.094045202               0.000000000              -0.119417377               0.119417377               0.000000000              -0.144789552               0.144789552               0.000000000              -0.170161727               0.170161727               0.000000000              -0.195533901               0.195533901               0.000000000              -0.220906076               0.220906076               0.000000000              -0.246278251               0.246278251               0.000000000              -0.271650426               0.271650426               0.000000000              -0.297022601               0.297022601               0.000000000              -0.322394776               0.322394776               0.000000000              -0.347766951               0.347766951               0.000000000              -0.373139126               0.373139126               0.000000000              -0.398511300               0.398511300               0.000000000              -0.423883475               0.423883475               0.000000000              -0.449255650               0.449255650               0.000000000              -0.474627825               0.474627825               0.000000000              -0.500000000               0.500000000               0.000000000              -0.084374307               0.102810390               0.000000000              -0.106444663               0.127634741               0.000000000              -0.128515018               0.152459092               0.000000000              -0.150585374               0.177283442               0.000000000              -0.172655730               0.202107793               0.000000000              -0.194726086               0.226932143               0.000000000              -0.216796442               0.251756494               0.000000000              -0.238866798               0.276580845               0.000000000              -0.260937153               0.301405195               0.000000000              -0.283007509               0.326229546               0.000000000              -0.305077865               0.351053896               0.000000000              -0.327148221               0.375878247               0.000000000              -0.349218577               0.400702598               0.000000000              -0.371288933               0.425526948               0.000000000              -0.393359288               0.450351299               0.000000000              -0.415429644               0.475175649               0.000000000              -0.437500000               0.500000000               0.000000000              -0.073890841               0.110585458               0.000000000              -0.092710163               0.134923867               0.000000000              -0.111529486               0.159262276               0.000000000              -0.130348808               0.183600685               0.000000000              -0.149168131               0.207939094               0.000000000              -0.167987453               0.232277503               0.000000000              -0.186806776               0.256615912               0.000000000              -0.205626098               0.280954320               0.000000000              -0.224445420               0.305292729               0.000000000              -0.243264743               0.329631138               0.000000000              -0.262084065               0.353969547               0.000000000              -0.280903388               0.378307956               0.000000000              -0.299722710               0.402646365               0.000000000              -0.318542033               0.426984773               0.000000000              -0.337361355               0.451323182               0.000000000              -0.356180678               0.475661591               0.000000000              -0.375000000               0.500000000               0.000000000              -0.062695766               0.117295528               0.000000000              -0.078308531               0.141214558               0.000000000              -0.093921295               0.165133587               0.000000000              -0.109534060               0.189052617               0.000000000              -0.125146824               0.212971646               0.000000000              -0.140759589               0.236890676               0.000000000              -0.156372354               0.260809705               0.000000000              -0.171985118               0.284728735               0.000000000              -0.187597883               0.308647764               0.000000000              -0.203210648               0.332566794               0.000000000              -0.218823412               0.356485823               0.000000000              -0.234436177               0.380404853               0.000000000              -0.250048941               0.404323882               0.000000000              -0.265661706               0.428242912               0.000000000              -0.281274471               0.452161941               0.000000000              -0.296887235               0.476080971               0.000000000              -0.312500000               0.500000000               0.000000000              -0.050896897               0.122875978               0.000000000              -0.063340840               0.146446229               0.000000000              -0.075784784               0.170016481               0.000000000              -0.088228728               0.193586732               0.000000000              -0.100672672               0.217156983               0.000000000              -0.113116616               0.240727235               0.000000000              -0.125560560               0.264297486               0.000000000              -0.138004504               0.287867738               0.000000000              -0.150448448               0.311437989               0.000000000              -0.162892392               0.335008240               0.000000000              -0.175336336               0.358578492               0.000000000              -0.187780280               0.382148743               0.000000000              -0.200224224               0.405718994               0.000000000              -0.212668168               0.429289246               0.000000000              -0.225112112               0.452859497               0.000000000              -0.237556056               0.476429749               0.000000000              -0.250000000               0.500000000               0.000000000              -0.038607862               0.127273065               0.000000000              -0.047913621               0.150568498               0.000000000              -0.057219379               0.173863932               0.000000000              -0.066525138               0.197159365               0.000000000              -0.075830897               0.220454798               0.000000000              -0.085136655               0.243750232               0.000000000              -0.094442414               0.267045665               0.000000000              -0.103748172               0.290341099               0.000000000              -0.113053931               0.313636532               0.000000000              -0.122359690               0.336931966               0.000000000              -0.131665448               0.360227399               0.000000000              -0.140971207               0.383522833               0.000000000              -0.150276966               0.406818266               0.000000000              -0.159582724               0.430113700               0.000000000              -0.168888483               0.453409133               0.000000000              -0.178194241               0.476704567               0.000000000              -0.187500000               0.500000000               0.000000000              -0.025947013               0.130444442               0.000000000              -0.032137825               0.153541665               0.000000000              -0.038328636               0.176638887               0.000000000              -0.044519448               0.199736109               0.000000000              -0.050710260               0.222833332               0.000000000              -0.056901071               0.245930554               0.000000000              -0.063091883               0.269027776               0.000000000              -0.069282695               0.292124999               0.000000000              -0.075473506               0.315222221               0.000000000              -0.081664318               0.338319444               0.000000000              -0.087855130               0.361416666               0.000000000              -0.094045942               0.384513888               0.000000000              -0.100236753               0.407611111               0.000000000              -0.106427565               0.430708333               0.000000000              -0.112618377               0.453805555               0.000000000              -0.118809188               0.476902778               0.000000000              -0.125000000               0.500000000               0.000000000              -0.013036280               0.132359569               0.000000000              -0.016127762               0.155337096               0.000000000              -0.019219245               0.178314623               0.000000000              -0.022310727               0.201292150               0.000000000              -0.025402210               0.224269676               0.000000000              -0.028493692               0.247247203               0.000000000              -0.031585175               0.270224730               0.000000000              -0.034676657               0.293202257               0.000000000              -0.037768140               0.316179784               0.000000000              -0.040859622               0.339157311               0.000000000              -0.043951105               0.362134838               0.000000000              -0.047042587               0.385112365               0.000000000              -0.050134070               0.408089892               0.000000000              -0.053225552               0.431067419               0.000000000              -0.056317035               0.454044946               0.000000000              -0.059408517               0.477022473               0.000000000              -0.062500000               0.500000000               0.000000000               0.000000000               0.133000000               0.000000000               0.000000000               0.155937500               0.000000000               0.000000000               0.178875000               0.000000000               0.000000000               0.201812500               0.000000000               0.000000000               0.224750000               0.000000000               0.000000000               0.247687500               0.000000000               0.000000000               0.270625000               0.000000000               0.000000000               0.293562500               0.000000000               0.000000000               0.316500000               0.000000000               0.000000000               0.339437500               0.000000000               0.000000000               0.362375000               0.000000000               0.000000000               0.385312500               0.000000000               0.000000000               0.408250000               0.000000000               0.000000000               0.431187500               0.000000000               0.000000000               0.454125000               0.000000000               0.000000000               0.477062500               0.000000000               0.000000000               0.500000000               0.000000000 </DataArray>
</Points>
<Cells>
<DataArray type="Int32"                                    Name="connectivity"                                                      NumberOfComponents=" 1" format="ascii">
         0          1         18         17          1          2         19         18          2          3         20         19          3          4         21         20          4          5         22         21          5          6         23         22          6          7         24         23          7          8         25         24          8          9         26         25          9         10         27         26         10         11         28         27         11         12         29         28         12         13         30         29         13         14         31         30         14         15         32         31         15         16         33         32         17         18         35         34         18         19         36         35         19         20         37         36         20         21         38         37         21         22         39         38         22         23         40         39         23         24         41         40         24         25         42         41         25         26         43         42         26         27         44         43         27         28         45         44         28         29         46         45         29         30         47         46         30         31         48         47         31         32         49         48         32         33         50         49         34         35         52         51         35         36         53         52         36         37         54         53         37         38         55         54         38         39         56         55         39         40         57         56         40         41         58         57         41         42         59         58         42         43         60         59         43         44         61         60         44         45         62         61         45         46         63         62         46         47         64         63         47         48         65         64         48         49         66         65         49         50         67         66         51         52         69         68         52         53         70         69         53         54         71         70         54         55         72         71         55         56         73         72         56         57         74         73         57         58         75         74         58         59         76         75         59         60         77         76         60         61         78         77         61         62         79         78         62         63         80         79         63         64         81         80         64         65         82         81         65         66         83         82         66         67         84         83         68         69         86         85         69         70         87         86         70         71         88         87         71         72         89         88         72         73         90         89         73         74         91         90         74         75         92         91         75         76         93         92         76         77         94         93         77         78         95         94         78         79         96         95         79         80         97         96         80         81         98         97         81         82         99         98         82         83        100         99         83         84        101        100         85         86        103        102         86         87        104        103         87         88        105        104         88         89        106        105         89         90        107        106         90         91        108        107         91         92        109        108         92         93        110        109         93         94        111        110         94         95        112        111         95         96        113        112         96         97        114        113         97         98        115        114         98         99        116        115         99        100        117        116        100        101        118        117        102        103        120        119        103        104        121        120        104        105        122        121        105        106        123        122        106        107        124        123        107        108        125        124        108        109        126        125        109        110        127        126        110        111        128        127        111        112        129        128        112        113        130        129        113        114        131        130        114        115        132        131        115        116        133        132        116        117        134        133        117        118        135        134        119        120        137        136        120        121        138        137        121        122        139        138        122        123        140        139        123        124        141        140        124        125        142        141        125        126        143        142        126        127        144        143        127        128        145        144        128        129        146        145        129        130        147        146        130        131        148        147        131        132        149        148        132        133        150        149        133        134        151        150        134        135        152        151        136        137        154        153        137        138        155        154        138        139        156        155        139        140        157        156        140        141        158        157        141        142        159        158        142        143        160        159        143        144        161        160        144        145        162        161        145        146        163        162        146        147        164        163        147        148        165        164        148        149        166        165        149        150        167        166        150        151        168        167        151        152        169        168        153        154        171        170        154        155        172        171        155        156        173        172        156        157        174        173        157        158        175        174        158        159        176        175        159        160        177        176        160        161        178        177        161        162        179        178        162        163        180        179        163        164        181        180        164        165        182        181        165        166        183        182        166        167        184        183        167        168        185        184        168        169        186        185        170        171        188        187        171        172        189        188        172        173        190        189        173        174        191        190        174        175        192        191        175        176        193        192        176        177        194        193        177        178        195        194        178        179        196        195        179        180        197        196        180        181        198        197        181        182        199        198        182        183        200        199        183        184        201        200        184        185        202        201        185        186        203        202        187        188        205        204        188        189        206        205        189        190        207        206        190        191        208        207        191        192        209        208        192        193        210        209        193        194        211        210        194        195        212        211        195        196        213        212        196        197        214        213        197        198        215        214        198        199        216        215        199        200        217        216        200        201        218        217        201        202        219        218        202        203        220        219        204        205        222        221        205        206        223        222        206        207        224        223        207        208        225        224        208        209        226        225        209        210        227        226        210        211        228        227        211        212        229        228        212        213        230        229        213        214        231        230        214        215        232        231        215        216        233        232        216        217        234        233        217        218        235        234        218        219        236        235        219        220        237        236        221        222        239        238        222        223        240        239        223        224        241        240        224        225        242        241        225        226        243        242        226        227        244        243        227        228        245        244        228        229        246        245        229        230        247        246        230        231        248        247        231        232        249        248        232        233        250        249        233        234        251        250        234        235        252        251        235        236        253        252        236        237        254        253        238        239        256        255        239        240        257        256        240        241        258        257        241        242        259        258        242        243        260        259        243        244        261        260        244        245        262        261        245        246        263        262        246        247        264        263        247        248        265        264        248        249        266        265        249        250        267        266        250        251        268        267        251        252        269        268        252        253        270        269        253        254        271        270        255        256        273        272        256        257        274        273        257        258        275        274        258        259        276        275        259        260        277        276        260        261        278        277        261        262        279        278        262        263        280        279        263        264        281        280        264        265        282        281        265        266        283        282        266        267        284        283        267        268        285        284        268        269        286        285        269        270        287        286        270        271        288        287        306        307          1          0        307        308          2          1        308        309          3          2        309        310          4          3        310        311          5          4        311        312          6          5        312        313          7          6        313        314          8          7        314        315          9          8        315        316         10          9        316        317         11         10        317        318         12         11        318        319         13         12        319        320         14         13        320        321         15         14        321        322         16         15        323        324        307        306        324        325        308        307        325        326        309        308        326        327        310        309        327        328        311        310        328        329        312        311        329        330        313        312        330        331        314        313        331        332        315        314        332        333        316        315        333        334        317        316        334        335        318        317        335        336        319        318        336        337        320        319        337        338        321        320        338        339        322        321        340        341        324        323        341        342        325        324        342        343        326        325        343        344        327        326        344        345        328        327        345        346        329        328        346        347        330        329        347        348        331        330        348        349        332        331        349        350        333        332        350        351        334        333        351        352        335        334        352        353        336        335        353        354        337        336        354        355        338        337        355        356        339        338        357        358        341        340        358        359        342        341        359        360        343        342        360        361        344        343        361        362        345        344        362        363        346        345        363        364        347        346        364        365        348        347        365        366        349        348        366        367        350        349        367        368        351        350        368        369        352        351        369        370        353        352        370        371        354        353        371        372        355        354        372        373        356        355        374        375        358        357        375        376        359        358        376        377        360        359        377        378        361        360        378        379        362        361        379        380        363        362        380        381        364        363        381        382        365        364        382        383        366        365        383        384        367        366        384        385        368        367        385        386        369        368        386        387        370        369        387        388        371        370        388        389        372        371        389        390        373        372        391        392        375        374        392        393        376        375        393        394        377        376        394        395        378        377        395        396        379        378        396        397        380        379        397        398        381        380        398        399        382        381        399        400        383        382        400        401        384        383        401        402        385        384        402        403        386        385        403        404        387        386        404        405        388        387        405        406        389        388        406        407        390        389        408        409        392        391        409        410        393        392        410        411        394        393        411        412        395        394        412        413        396        395        413        414        397        396        414        415        398        397        415        416        399        398        416        417        400        399        417        418        401        400        418        419        402        401        419        420        403        402        420        421        404        403        421        422        405        404        422        423        406        405        423        424        407        406        425        426        409        408        426        427        410        409        427        428        411        410        428        429        412        411        429        430        413        412        430        431        414        413        431        432        415        414        432        433        416        415        433        434        417        416        434        435        418        417        435        436        419        418        436        437        420        419        437        438        421        420        438        439        422        421        439        440        423        422        440        441        424        423        442        443        426        425        443        444        427        426        444        445        428        427        445        446        429        428        446        447        430        429        447        448        431        430        448        449        432        431        449        450        433        432        450        451        434        433        451        452        435        434        452        453        436        435        453        454        437        436        454        455        438        437        455        456        439        438        456        457        440        439        457        458        441        440        459        460        443        442        460        461        444        443        461        462        445        444        462        463        446        445        463        464        447        446        464        465        448        447        465        466        449        448        466        467        450        449        467        468        451        450        468        469        452        451        469        470        453        452        470        471        454        453        471        472        455        454        472        473        456        455        473        474        457        456        474        475        458        457        476        477        460        459        477        478        461        460        478        479        462        461        479        480        463        462        480        481        464        463        481        482        465        464        482        483        466        465        483        484        467        466        484        485        468        467        485        486        469        468        486        487        470        469        487        488        471        470        488        489        472        471        489        490        473        472        490        491        474        473        491        492        475        474        493        494        477        476        494        495        478        477        495        496        479        478        496        497        480        479        497        498        481        480        498        499        482        481        499        500        483        482        500        501        484        483        501        502        485        484        502        503        486        485        503        504        487        486        504        505        488        487        505        506        489        488        506        507        490        489        507        508        491        490        508        509        492        491        510        511        494        493        511        512        495        494        512        513        496        495        513        514        497        496        514        515        498        497        515        516        499        498        516        517        500        499        517        518        501        500        518        519        502        501        519        520        503        502        520        521        504        503        521        522        505        504        522        523        506        505        523        524        507        506        524        525        508        507        525        526        509        508        527        528        511        510        528        529        512        511        529        530        513        512        530        531        514        513        531        532        515        514        532        533        516        515        533        534        517        516        534        535        518        517        535        536        519        518        536        537        520        519        537        538        521        520        538        539        522        521        539        540        523        522        540        541        524        523        541        542        525        524        542        543        526        525        544        545        528        527        545        546        529        528        546        547        530        529        547        548        531        530        548        549        532        531        549        550        533        532        550        551        534        533        551        552        535        534        552        553        536        535        553        554        537        536        554        555        538        537        555        556        539        538        556        557        540        539        557        558        541        540        558        559        542        541        559        560        543        542        561        562        545        544        562        563        546        545        563        564        547        546        564        565        548        547        565        566        549        548        566        567        550        549        567        568        551        550        568        569        552        551        569        570        553        552        570        571        554        553        571        572        555        554        572        573        556        555        573        574        557        556        574        575        558        557        575        576        559        558        576        577        560        559        578        579        596        595        579        580        597        596        580        581        598        597        581        582        599        598        582        583        600        599        583        584        601        600        584        585        602        601        585        586        603        602        586        587        604        603        587        588        605        604        588        589        606        605        589        590        607        606        590        591        608        607        591        592        609        608        592        593        610        609        593        594        611        610        595        596        613        612        596        597        614        613        597        598        615        614        598        599        616        615        599        600        617        616        600        601        618        617        601        602        619        618        602        603        620        619        603        604        621        620        604        605        622        621        605        606        623        622        606        607        624        623        607        608        625        624        608        609        626        625        609        610        627        626        610        611        628        627        612        613        630        629        613        614        631        630        614        615        632        631        615        616        633        632        616        617        634        633        617        618        635        634        618        619        636        635        619        620        637        636        620        621        638        637        621        622        639        638        622        623        640        639        623        624        641        640        624        625        642        641        625        626        643        642        626        627        644        643        627        628        645        644        629        630        647        646        630        631        648        647        631        632        649        648        632        633        650        649        633        634        651        650        634        635        652        651        635        636        653        652        636        637        654        653        637        638        655        654        638        639        656        655        639        640        657        656        640        641        658        657        641        642        659        658        642        643        660        659        643        644        661        660        644        645        662        661        646        647        664        663        647        648        665        664        648        649        666        665        649        650        667        666        650        651        668        667        651        652        669        668        652        653        670        669        653        654        671        670        654        655        672        671        655        656        673        672        656        657        674        673        657        658        675        674        658        659        676        675        659        660        677        676        660        661        678        677        661        662        679        678        663        664        681        680        664        665        682        681        665        666        683        682        666        667        684        683        667        668        685        684        668        669        686        685        669        670        687        686        670        671        688        687        671        672        689        688        672        673        690        689        673        674        691        690        674        675        692        691        675        676        693        692        676        677        694        693        677        678        695        694        678        679        696        695        680        681        698        697        681        682        699        698        682        683        700        699        683        684        701        700        684        685        702        701        685        686        703        702        686        687        704        703        687        688        705        704        688        689        706        705        689        690        707        706        690        691        708        707        691        692        709        708        692        693        710        709        693        694        711        710        694        695        712        711        695        696        713        712        697        698        715        714        698        699        716        715        699        700        717        716        700        701        718        717        701        702        719        718        702        703        720        719        703        704        721        720        704        705        722        721        705        706        723        722        706        707        724        723        707        708        725        724        708        709        726        725        709        710        727        726        710        711        728        727        711        712        729        728        712        713        730        729        714        715        732        731        715        716        733        732        716        717        734        733        717        718        735        734        718        719        736        735        719        720        737        736        720        721        738        737        721        722        739        738        722        723        740        739        723        724        741        740        724        725        742        741        725        726        743        742        726        727        744        743        727        728        745        744        728        729        746        745        729        730        747        746        731        732        749        748        732        733        750        749        733        734        751        750        734        735        752        751        735        736        753        752        736        737        754        753        737        738        755        754        738        739        756        755        739        740        757        756        740        741        758        757        741        742        759        758        742        743        760        759        743        744        761        760        744        745        762        761        745        746        763        762        746        747        764        763        748        749        766        765        749        750        767        766        750        751        768        767        751        752        769        768        752        753        770        769        753        754        771        770        754        755        772        771        755        756        773        772        756        757        774        773        757        758        775        774        758        759        776        775        759        760        777        776        760        761        778        777        761        762        779        778        762        763        780        779        763        764        781        780        765        766        783        782        766        767        784        783        767        768        785        784        768        769        786        785        769        770        787        786        770        771        788        787        771        772        789        788        772        773        790        789        773        774        791        790        774        775        792        791        775        776        793        792        776        777        794        793        777        778        795        794        778        779        796        795        779        780        797        796        780        781        798        797        782        783        800        799        783        784        801        800        784        785        802        801        785        786        803        802        786        787        804        803        787        788        805        804        788        789        806        805        789        790        807        806        790        791        808        807        791        792        809        808        792        793        810        809        793        794        811        810        794        795        812        811        795        796        813        812        796        797        814        813        797        798        815        814        799        800        817        816        800        801        818        817        801        802        819        818        802        803        820        819        803        804        821        820        804        805        822        821        805        806        823        822        806        807        824        823        807        808        825        824        808        809        826        825        809        810        827        826        810        811        828        827        811        812        829        828        812        813        830        829        813        814        831        830        814        815        832        831        816        817        834        833        817        818        835        834        818        819        836        835        819        820        837        836        820        821        838        837        821        822        839        838        822        823        840        839        823        824        841        840        824        825        842        841        825        826        843        842        826        827        844        843        827        828        845        844        828        829        846        845        829        830        847        846        830        831        848        847        831        832        849        848        833        834        562        561        834        835        563        562        835        836        564        563        836        837        565        564        837        838        566        565        838        839        567        566        839        840        568        567        840        841        569        568        841        842        570        569        842        843        571        570        843        844        572        571        844        845        573        572        845        846        574        573        846        847        575        574        847        848        576        575        848        849        577        576        884        885        579        578        885        886        580        579        886        887        581        580        887        888        582        581        888        889        583        582        889        890        584        583        890        891        585        584        891        892        586        585        892        893        587        586        893        894        588        587        894        895        589        588        895        896        590        589        896        897        591        590        897        898        592        591        898        899        593        592        899        900        594        593        901        902        885        884        902        903        886        885        903        904        887        886        904        905        888        887        905        906        889        888        906        907        890        889        907        908        891        890        908        909        892        891        909        910        893        892        910        911        894        893        911        912        895        894        912        913        896        895        913        914        897        896        914        915        898        897        915        916        899        898        916        917        900        899        918        919        902        901        919        920        903        902        920        921        904        903        921        922        905        904        922        923        906        905        923        924        907        906        924        925        908        907        925        926        909        908        926        927        910        909        927        928        911        910        928        929        912        911        929        930        913        912        930        931        914        913        931        932        915        914        932        933        916        915        933        934        917        916        935        936        919        918        936        937        920        919        937        938        921        920        938        939        922        921        939        940        923        922        940        941        924        923        941        942        925        924        942        943        926        925        943        944        927        926        944        945        928        927        945        946        929        928        946        947        930        929        947        948        931        930        948        949        932        931        949        950        933        932        950        951        934        933        952        953        936        935        953        954        937        936        954        955        938        937        955        956        939        938        956        957        940        939        957        958        941        940        958        959        942        941        959        960        943        942        960        961        944        943        961        962        945        944        962        963        946        945        963        964        947        946        964        965        948        947        965        966        949        948        966        967        950        949        967        968        951        950        969        970        953        952        970        971        954        953        971        972        955        954        972        973        956        955        973        974        957        956        974        975        958        957        975        976        959        958        976        977        960        959        977        978        961        960        978        979        962        961        979        980        963        962        980        981        964        963        981        982        965        964        982        983        966        965        983        984        967        966        984        985        968        967        986        987        970        969        987        988        971        970        988        989        972        971        989        990        973        972        990        991        974        973        991        992        975        974        992        993        976        975        993        994        977        976        994        995        978        977        995        996        979        978        996        997        980        979        997        998        981        980        998        999        982        981        999       1000        983        982       1000       1001        984        983       1001       1002        985        984       1003       1004        987        986       1004       1005        988        987       1005       1006        989        988       1006       1007        990        989       1007       1008        991        990       1008       1009        992        991       1009       1010        993        992       1010       1011        994        993       1011       1012        995        994       1012       1013        996        995       1013       1014        997        996       1014       1015        998        997       1015       1016        999        998       1016       1017       1000        999       1017       1018       1001       1000       1018       1019       1002       1001       1020       1021       1004       1003       1021       1022       1005       1004       1022       1023       1006       1005       1023       1024       1007       1006       1024       1025       1008       1007       1025       1026       1009       1008       1026       1027       1010       1009       1027       1028       1011       1010       1028       1029       1012       1011       1029       1030       1013       1012       1030       1031       1014       1013       1031       1032       1015       1014       1032       1033       1016       1015       1033       1034       1017       1016       1034       1035       1018       1017       1035       1036       1019       1018       1037       1038       1021       1020       1038       1039       1022       1021       1039       1040       1023       1022       1040       1041       1024       1023       1041       1042       1025       1024       1042       1043       1026       1025       1043       1044       1027       1026       1044       1045       1028       1027       1045       1046       1029       1028       1046       1047       1030       1029       1047       1048       1031       1030       1048       1049       1032       1031       1049       1050       1033       1032       1050       1051       1034       1033       1051       1052       1035       1034       1052       1053       1036       1035       1054       1055       1038       1037       1055       1056       1039       1038       1056       1057       1040       1039       1057       1058       1041       1040       1058       1059       1042       1041       1059       1060       1043       1042       1060       1061       1044       1043       1061       1062       1045       1044       1062       1063       1046       1045       1063       1064       1047       1046       1064       1065       1048       1047       1065       1066       1049       1048       1066       1067       1050       1049       1067       1068       1051       1050       1068       1069       1052       1051       1069       1070       1053       1052       1071       1072       1055       1054       1072       1073       1056       1055       1073       1074       1057       1056       1074       1075       1058       1057       1075       1076       1059       1058       1076       1077       1060       1059       1077       1078       1061       1060       1078       1079       1062       1061       1079       1080       1063       1062       1080       1081       1064       1063       1081       1082       1065       1064       1082       1083       1066       1065       1083       1084       1067       1066       1084       1085       1068       1067       1085       1086       1069       1068       1086       1087       1070       1069       1088       1089       1072       1071       1089       1090       1073       1072       1090       1091       1074       1073       1091       1092       1075       1074       1092       1093       1076       1075       1093       1094       1077       1076       1094       1095       1078       1077       1095       1096       1079       1078       1096       1097       1080       1079       1097       1098       1081       1080       1098       1099       1082       1081       1099       1100       1083       1082       1100       1101       1084       1083       1101       1102       1085       1084       1102       1103       1086       1085       1103       1104       1087       1086       1105       1106       1089       1088       1106       1107       1090       1089       1107       1108       1091       1090       1108       1109       1092       1091       1109       1110       1093       1092       1110       1111       1094       1093       1111       1112       1095       1094       1112       1113       1096       1095       1113       1114       1097       1096       1114       1115       1098       1097       1115       1116       1099       1098       1116       1117       1100       1099       1117       1118       1101       1100       1118       1119       1102       1101       1119       1120       1103       1102       1120       1121       1104       1103       1122       1123       1106       1105       1123       1124       1107       1106       1124       1125       1108       1107       1125       1126       1109       1108       1126       1127       1110       1109       1127       1128       1111       1110       1128       1129       1112       1111       1129       1130       1113       1112       1130       1131       1114       1113       1131       1132       1115       1114       1132       1133       1116       1115       1133       1134       1117       1116       1134       1135       1118       1117       1135       1136       1119       1118       1136       1137       1120       1119       1137       1138       1121       1120        272        273       1123       1122        273        274       1124       1123        274        275       1125       1124        275        276       1126       1125        276        277       1127       1126        277        278       1128       1127        278        279       1129       1128        279        280       1130       1129        280        281       1131       1130        281        282       1132       1131        282        283       1133       1132        283        284       1134       1133        284        285       1135       1134        285        286       1136       1135        286        287       1137       1136        287        288       1138       1137 </DataArray>
<DataArray type="Int32"                                    Name="offsets"                                                      NumberOfComponents=" 1" format="ascii">
         4          8         12         16         20         24         28         32         36         40         44         48         52         56         60         64         68         72         76         80         84         88         92         96        100        104        108        112        116        120        124        128        132        136        140        144        148        152        156        160        164        168        172        176        180        184        188        192        196        200        204        208        212        216        220        224        228        232        236        240        244        248        252        256        260        264        268        272        276        280        284        288        292        296        300        304        308        312        316        320        324        328        332        336        340        344        348        352        356        360        364        368        372        376        380        384        388        392        396        400        404        408        412        416        420        424        428        432        436        440        444        448        452        456        460        464        468        472        476        480        484        488        492        496        500        504        508        512        516        520        524        528        532        536        540        544        548        552        556        560        564        568        572        576        580        584        588        592        596        600        604        608        612        616        620        624        628        632        636        640        644        648        652        656        660        664        668        672        676        680        684        688        692        696        700        704        708        712        716        720        724        728        732        736        740        744        748        752        756        760        764        768        772        776        780        784        788        792        796        800        804        808        812        816        820        824        828        832        836        840        844        848        852        856        860        864        868        872        876        880        884        888        892        896        900        904        908        912        916        920        924        928        932        936        940        944        948        952        956        960        964        968        972        976        980        984        988        992        996       1000       1004       1008       1012       1016       1020       1024       1028       1032       1036       1040       1044       1048       1052       1056       1060       1064       1068       1072       1076       1080       1084       1088       1092       1096       1100       1104       1108       1112       1116       1120       1124       1128       1132       1136       1140       1144       1148       1152       1156       1160       1164       1168       1172       1176       1180       1184       1188       1192       1196       1200       1204       1208       1212       1216       1220       1224       1228       1232       1236       1240       1244       1248       1252       1256       1260       1264       1268       1272       1276       1280       1284       1288       1292       1296       1300       1304       1308       1312       1316       1320       1324       1328       1332       1336       1340       1344       1348       1352       1356       1360       1364       1368       1372       1376       1380       1384       1388       1392       1396       1400       1404       1408       1412       1416       1420       1424       1428       1432       1436       1440       1444       1448       1452       1456       1460       1464       1468       1472       1476       1480       1484       1488       1492       1496       1500       1504       1508       1512       1516       1520       1524       1528       1532       1536       1540       1544       1548       1552       1556       1560       1564       1568       1572       1576       1580       1584       1588       1592       1596       1600       1604       1608       1612       1616       1620       1624       1628       1632       1636       1640       1644       1648       1652       1656       1660       1664       1668       1672       1676       1680       1684       1688       1692       1696       1700       1704       1708       1712       1716       1720       1724       1728       1732       1736       1740       1744       1748       1752       1756       1760       1764       1768       1772       1776       1780       1784       1788       1792       1796       1800       1804       1808       1812       1816       1820       1824       1828       1832       1836       1840       1844       1848       1852       1856       1860       1864       1868       1872       1876       1880       1884       1888       1892       1896       1900       1904       1908       1912       1916       1920       1924       1928       1932       1936       1940       1944       1948       1952       1956       1960       1964       1968       1972       1976       1980       1984       1988       1992       1996       2000       2004       2008       2012       2016       2020       2024       2028       2032       2036       2040       2044       2048       2052       2056       2060       2064       2068       2072       2076       2080       2084       2088       2092       2096       2100       2104       2108       2112       2116       2120       2124       2128       2132       2136       2140       2144       2148       2152       2156       2160       2164       2168       2172       2176       2180       2184       2188       2192       2196       2200       2204       2208       2212       2216       2220       2224       2228       2232       2236       2240       2244       2248       2252       2256       2260       2264       2268       2272       2276       2280       2284       2288       2292       2296       2300       2304       2308       2312       2316       2320       2324       2328       2332       2336       2340       2344       2348       2352       2356       2360       2364       2368       2372       2376       2380       2384       2388       2392       2396       2400       2404       2408       2412       2416       2420       2424       2428       2432       2436       2440       2444       2448       2452       2456       2460       2464       2468       2472       2476       2480       2484       2488       2492       2496       2500       2504       2508       2512       2516       2520       2524       2528       2532       2536       2540       2544       2548       2552       2556       2560       2564       2568       2572       2576       2580       2584       2588       2592       2596       2600       2604       2608       2612       2616       2620       2624       2628       2632       2636       2640       2644       2648       2652       2656       2660       2664       2668       2672       2676       2680       2684       2688       2692       2696       2700       2704       2708       2712       2716       2720       2724       2728       2732       2736       2740       2744       2748       2752       2756       2760       2764       2768       2772       2776       2780       2784       2788       2792       2796       2800       2804       2808       2812       2816       2820       2824       2828       2832       2836       2840       2844       2848       2852       2856       2860       2864       2868       2872       2876       2880       2884       2888       2892       2896       2900       2904       2908       2912       2916       2920       2924       2928       2932       2936       2940       2944       2948       2952       2956       2960       2964       2968       2972       2976       2980       2984       2988       2992       2996       3000       3004       3008       3012       3016       3020       3024       3028       3032       3036       3040       3044       3048       3052       3056       3060       3064       3068       3072       3076       3080       3084       3088       3092       3096       3100       3104       3108       3112       3116       3120       3124       3128       3132       3136       3140       3144       3148       3152       3156       3160       3164       3168       3172       3176       3180       3184       3188       3192       3196       3200       3204       3208       3212       3216       3220       3224       3228       3232       3236       3240       3244       3248       3252       3256       3260       3264       3268       3272       3276       3280       3284       3288       3292       3296       3300       3304       3308       3312       3316       3320       3324       3328       3332       3336       3340       3344       3348       3352       3356       3360       3364       3368       3372       3376       3380       3384       3388       3392       3396       3400       3404       3408       3412       3416       3420       3424       3428       3432       3436       3440       3444       3448       3452       3456       3460       3464       3468       3472       3476       3480       3484       3488       3492       3496       3500       3504       3508       3512       3516       3520       3524       3528       3532       3536       3540       3544       3548       3552       3556       3560       3564       3568       3572       3576       3580       3584       3588       3592       3596       3600       3604       3608       3612       3616       3620       3624       3628       3632       3636       3640       3644       3648       3652       3656       3660       3664       3668       3672       3676       3680       3684       3688       3692       3696       3700       3704       3708       3712       3716       3720       3724       3728       3732       3736       3740       3744       3748       3752       3756       3760       3764       3768       3772       3776       3780       3784       3788       3792       3796       3800       3804       3808       3812       3816       3820       3824       3828       3832       3836       3840       3844       3848       3852       3856       3860       3864       3868       3872       3876       3880       3884       3888       3892       3896       3900       3904       3908       3912       3916       3920       3924       3928       3932       3936       3940       3944       3948       3952       3956       3960       3964       3968       3972       3976       3980       3984       3988       3992       3996       4000       4004       4008       4012       4016       4020       4024       4028       4032       4036       4040       4044       4048       4052       4056       4060       4064       4068       4072       4076       4080       4084       4088       4092       4096 </DataArray>
<DataArray type="UInt8"                                    Name="types"                                                      NumberOfComponents=" 1" format="ascii">
         9          9          9          9          9          9          9          9          9          9          9          9          9          9          9          9          9          9          9          9          9          9          9          9          9          9          9          9          9          9          9          9          9          9          9          9          9          9          9          9          9          9          9          9          9          9          9          9          9          9          9          9          9          9          9          9          9          9          9          9          9          9          9          9          9          9          9          9          9          9          9          9          9          9          9          9          9          9          9          9          9          9          9          9          9          9          9          9          9          9          9          9          9          9          9          9          9          9          9          9          9          9          9          9          9          9          9          9          9          9          9          9          9          9          9          9          9          9          9          9          9          9          9          9          9          9          9          9          9          9          9          9          9          9          9          9          9          9          9          9          9          9          9          9          9          9          9          9          9          9          9          9          9          9          9          9          9          9          9          9          9          9          9          9          9          9          9          9          9          9          9          9          9          9          9          9          9          9          9          9          9          9          9          9          9          9          9          9          9          9          9          9          9          9          9          9          9          9          9          9          9          9          9          9          9          9          9          9          9          9          9          9          9          9          9          9          9          9          9          9          9          9          9          9          9          9          9          9          9          9          9          9          9          9          9          9          9          9          9          9          9          9          9          9          9          9          9          9          9          9          9          9          9          9          9          9          9          9          9          9          9          9          9          9          9          9          9          9          9          9          9          9          9          9          9          9          9          9          9          9          9          9          9          9          9          9          9          9          9          9          9          9          9          9          9          9          9          9          9          9          9          9          9          9          9          9          9          9          9          9          9          9          9          9          9          9          9          9          9          9          9          9          9          9          9          9          9          9          9          9          9          9          9          9          9          9          9          9          9          9          9          9          9          9          9          9          9          9          9          9          9          9          9          9          9          9          9          9          9          9          9          9          9          9          9          9          9          9          9          9          9          9          9          9          9          9          9          9          9          9          9          9          9          9          9          9          9          9          9          9          9          9          9          9          9          9          9          9          9          9          9          9          9          9          9          9          9          9          9          9          9          9          9          9          9          9          9          9          9          9          9          9          9          9          9          9          9          9          9          9          9          9          9          9          9          9          9          9          9          9          9          9          9          9          9          9          9          9          9          9          9          9          9          9          9          9          9          9          9          9          9          9          9          9          9          9          9          9          9          9          9          9          9          9          9          9          9          9          9          9          9          9          9          9          9          9          9          9          9          9          9          9          9          9          9          9          9          9          9          9          9          9          9          9          9          9          9          9          9          9          9          9          9          9          9          9          9          9          9          9          9          9          9          9          9          9          9          9          9          9          9          9          9          9          9          9          9          9          9          9          9          9          9          9          9          9          9          9          9          9          9          9          9          9          9          9          9          9          9          9          9          9          9          9          9          9          9          9          9          9          9          9          9          9          9          9          9          9          9          9          9          9          9          9          9          9          9          9          9          9          9          9          9          9          9          9          9          9          9          9          9          9          9          9          9          9          9          9          9          9          9          9          9          9          9          9          9          9          9          9          9          9          9          9          9          9          9          9          9          9          9          9          9          9          9          9          9          9          9          9          9          9          9          9          9          9          9          9          9          9          9          9          9          9          9          9          9          9          9          9          9          9          9          9          9          9          9          9          9          9          9          9          9          9          9          9          9          9          9          9          9          9          9          9          9          9          9          9          9          9          9          9          9          9          9          9          9          9          9          9          9          9          9          9          9          9          9          9          9          9          9          9          9          9          9          9          9          9          9          9          9          9          9          9          9          9          9          9          9          9          9          9          9          9          9          9          9          9          9          9          9          9          9          9          9          9          9          9          9          9          9          9          9          9          9          9          9          9          9          9          9          9          9          9          9          9          9          9          9          9          9          9          9          9          9          9          9          9          9          9          9          9          9          9          9          9          9          9          9          9          9          9          9          9          9          9          9          9          9          9          9          9          9          9          9          9          9          9          9          9          9          9          9          9          9          9          9          9          9          9          9          9          9          9          9          9          9          9          9          9          9          9          9          9          9          9          9          9          9          9          9          9          9          9          9          9          9          9          9          9          9          9          9          9          9          9          9          9          9          9          9          9          9          9          9          9          9          9          9          9          9          9          9          9          9          9          9          9          9          9          9          9          9          9          9          9          9          9          9          9          9          9          9          9          9          9          9          9          9          9          9          9          9          9          9          9          9          9          9          9          9          9          9          9          9          9          9          9          9          9          9          9          9          9          9          9          9          9          9          9          9          9          9          9          9          9          9          9          9          9          9          9          9          9          9          9          9          9          9          9          9          9          9          9          9          9          9          9          9          9          9          9          9          9          9          9          9          9          9          9          9          9          9          9          9          9          9          9          9          9          9          9          9          9          9          9          9          9          9          9          9          9          9          9          9          9          9          9          9          9          9          9          9          9          9          9          9          9          9          9          9          9          9          9          9          9          9          9          9          9          9          9          9          9 </DataArray>
</Cells>
<CellData>
<DataArray type="Int32"                                    Name="material"                                                      NumberOfComponents=" 1" format="ascii">
         1          1          1          1          1          1          1          1          1          1          1          1          1          1          1          1          1          1          1          1          1          1          1          1          1          1          1          1          1          1          1          1          1          1          1          1          1          1          1          1          1          1          1          1          1          1          1          1          1          1          1          1          1          1          1          1          1          1          1          1          1          1          1          1          1          1          1          1          1          1          1          1          1          1          1          1          1          1          1          1          1          1          1          1          1          1          1          1          1          1          1          1          1          1          1          1          1          1          1          1          1          1          1          1          1          1          1          1          1          1          1          1          1          1          1          1          1          1          1          1          1          1          1          1          1          1          1          1          1          1          1          1          1          1          1          1          1          1          1          1          1          1          1          1          1          1          1          1          1          1          1          1          1          1          1          1          1          1          1          1          1          1          1          1          1          1          1          1          1          1          1          1          1          1          1          1          1          1          1          1          1          1          1          1          1          1          1          1          1          1          1          1          1          1          1          1          1          1          1          1          1          1          1          1          1          1          1          1          1          1          1          1          1          1          1          1          1          1          1          1          1          1          1          1          1          1          1          1          1          1          1          1          1          1          1          1          1          1          1          1          1          1          1          1          1          1          1          1          1          1          1          1          1          1          1          1          1          1          1          1          1          1          1          1          1          1          1          1          1          1          1          1          1          1          1          1          1          1          1          1          1          1          1          1          1          1          1          1          1          1          1          1          1          1          1          1          1          1          1          1          1          1          1          1          1          1          1          1          1          1          1          1          1          1          1          1          1          1          1          1          1          1          1          1          1          1          1          1          1          1          1          1          1          1          1          1          1          1          1          1          1          1          1          1          1          1          1          1          1          1          1          1          1          1          1          1          1          1          1          1          1          1          1          1          1          1          1          1          1          1          1          1          1          1          1          1          1          1          1          1          1          1          1          1          1          1          1          1          1          1          1          1          1          1          1          1          1          1          1          1          1          1          1          1          1          1          1          1          1          1          1          1          1          1          1          1          1          1          1          1          1          1          1          1          1          1          1          1          1          1          1          1          1          1          1          1          1          1          1          1          1          1          1          1          1          1          1          1          1          1          1          1          1          1          1          1          1          1          1          1          1          1          1          1          1          1          1          1          1          1          1          1          1          1          1          1          1          1          1          1          1          1          1          1          1          1          1          1          1          1          1          1          1          1          1          1          1          1          1          1          1          1          1          1          1          1          1          1          1          1          1          1          1          1          1          1          1          1          1          1          1          1          1          1          1          1          1          1          1          1          1          1          1          1          1          1          1          1          1          1          1          1          1          1          1          1          1          1          1          1          1          1          1          1          1          1          1          1          1          1          1          1          1          1          1          1          1          1          1          1          1          1          1          1          1          1          1          1          1          1          1          1          1          1          1          1          1          1          1          1          1          1          1          1          1          1          1          1          1          1          1          1          1          1          1          1          1          1          1          1          1          1          1          1          1          1          1          1          1          1          1          1          1          1          1          1          1          1          1          1          1          1          1          1          1          1          1          1          1          1          1          1          1          1          1          1          1          1          1          1          1          1          1          1          1          1          1          1          1          1          1          1          1          1          1          1          1          1          1          1          1          1          1          1          1          1          1          1          1          1          1          1          1          1          1          1          1          1          1          1          1          1          1          1          1          1          1          1          1          1          1          1          1          1          1          1          1          1          1          1          1          1          1          1          1          1          1          1          1          1          1          1          1          1          1          1          1          1          1          1          1          1          1          1          1          1          1          1          1          1          1          1          1          1          1          1          1          1          1          1          1          1          1          1          1          1          1          1          1          1          1          1          1          1          1          1          1          1          1          1          1          1          1          1          1          1          1          1          1          1          1          1          1          1          1          1          1          1          1          1          1          1          1          1          1          1          1          1          1          1          1          1          1          1          1          1          1          1          1          1          1          1          1          1          1          1          1          1          1          1          1          1          1          1          1          1          1          1          1          1          1          1          1          1          1          1          1          1          1          1          1          1          1          1          1          1          1          1          1          1          1          1          1          1          1          1          1          1          1          1          1          1          1          1          1          1          1          1          1          1          1          1          1          1          1          1          1          1          1          1          1          1          1          1          1          1          1          1          1          1          1          1          1          1          1          1          1          1          1          1          1          1          1          1          1          1          1          1          1          1          1          1          1          1          1          1          1          1          1          1          1          1          1          1          1          1          1          1          1          1          1          1          1          1          1          1          1          1          1          1          1          1          1          1          1          1          1          1          1          1          1          1          1          1          1          1          1          1          1          1          1          1          1          1          1          1          1          1          1          1          1          1          1          1          1          1          1          1          1          1          1          1          1          1          1          1          1          1          1          1          1          1          1          1          1          1          1          1          1          1          1          1          1          1          1          1          1          1          1          1          1          1          1          1          1          1          1          1          1          1          1          1          1          1 </DataArray>
</CellData>
<PointData>
<DataArray type="Float64"                                    Name="u"                                                      NumberOfComponents=" 3" format="ascii">
             -0.000812611               0.000000000               0.999999989              -0.000856911               0.000000000               0.999999989              -0.000875546              -0.000000000               0.999999989              -0.000885851               0.000000000               0.999999989              -0.000894136               0.000000000               0.999999989              -0.000902536               0.000000000               0.999999989              -0.000911716               0.000000000               0.999999989              -0.000921547               0.000000000               0.999999989              -0.000931882               0.000000000               0.999999989              -0.000942430               0.000000000               0.999999989              -0.000953007               0.000000000               0.999999989              -0.000963233               0.000000000               0.999999989              -0.000972737               0.000000000               0.999999989              -0.000981205               0.000000000               0.999999989              -0.000988209               0.000000000               0.999999989              -0.000993288              -0.000000000               0.999999989              -0.000995701               0.000000000               0.999999989              -0.000808105               0.000115869               0.999999989              -0.000848621               0.000091728               0.999999989              -0.000864854               0.000080420               0.999999989              -0.000873622               0.000075354               0.999999989              -0.000880750               0.000073523               0.999999989              -0.000888214               0.000073249               0.999999989              -0.000896590               0.000073337               0.999999989              -0.000905687               0.000073181               0.999999989              -0.000915185               0.000072419               0.999999989              -0.000924747               0.000070839               0.999999989              -0.000934029               0.000068150               0.999999989              -0.000942746               0.000064028               0.999999989              -0.000950586               0.000058129               0.999999989              -0.000957164               0.000050085               0.999999989              -0.000962164               0.000039347               0.999999989              -0.000965025               0.000025151               0.999999989              -0.000965218               0.000006239               0.999999989              -0.000794779               0.000230733               0.999999989              -0.000824215               0.000183165               0.999999989              -0.000833561               0.000161699               0.999999989              -0.000837950               0.000152630               0.999999989              -0.000842053               0.000149611               0.999999989              -0.000847191               0.000149494               0.999999989              -0.000853423               0.000150080               0.999999989              -0.000860283               0.000150042               0.999999989              -0.000867267               0.000148674               0.999999989              -0.000873890               0.000145504               0.999999989              -0.000879684               0.000140052               0.999999989              -0.000884372               0.000131943               0.999999989              -0.000887611               0.000120583               0.999999989              -0.000889031               0.000105192               0.999999989              -0.000888336               0.000084900               0.999999989              -0.000885160               0.000058530               0.999999989              -0.000879353               0.000024933               0.999999989              -0.000772814               0.000343606               0.999999989              -0.000784816               0.000274106               0.999999989              -0.000784178               0.000244619               0.999999989              -0.000782612               0.000233182               0.999999989              -0.000782837               0.000230096               0.999999989              -0.000784907               0.000230814               0.999999989              -0.000788213               0.000232289               0.999999989              -0.000791801               0.000232528               0.999999989              -0.000795014               0.000230634               0.999999989              -0.000797273               0.000225919               0.999999989              -0.000798027               0.000217881               0.999999989              -0.000796888               0.000205934               0.999999989              -0.000793424               0.000189500               0.999999989              -0.000787318               0.000167585               0.999999989              -0.000778367               0.000139442               0.999999989              -0.000766584               0.000104347               0.999999989              -0.000752341               0.000061783               0.999999989              -0.000742631               0.000453496               0.999999989              -0.000732542               0.000364545               0.999999989              -0.000720762               0.000329718               0.999999989              -0.000713226               0.000317718               0.999999989              -0.000709807               0.000315727               0.999999989              -0.000708881               0.000317720               0.999999989              -0.000709000               0.000320178               0.999999989              -0.000708824               0.000320683               0.999999989              -0.000707431               0.000318254               0.999999989              -0.000704136               0.000312089               0.999999989              -0.000698410               0.000301533               0.999999989              -0.000689646               0.000285989               0.999999989              -0.000677582               0.000264835               0.999999989              -0.000662016               0.000237643               0.999999989              -0.000643209               0.000203933               0.999999989              -0.000621668               0.000163856               0.999999989              -0.000598206               0.000117959               0.999999989              -0.000704967               0.000559385               0.999999989              -0.000670038               0.000454639               0.999999989              -0.000647831               0.000417100               0.999999989              -0.000635707               0.000406031               0.999999989              -0.000629696               0.000405703               0.999999989              -0.000626316               0.000409056               0.999999989              -0.000623238               0.000412335               0.999999989              -0.000618879               0.000413100               0.999999989              -0.000612240               0.000410075               0.999999989              -0.000602458               0.000402289               0.999999989              -0.000588829               0.000389175               0.999999989              -0.000571004               0.000370212               0.999999989              -0.000548993               0.000345278               0.999999989              -0.000523175               0.000314219               0.999999989              -0.000494115               0.000277462               0.999999989              -0.000462782               0.000235711               0.999999989              -0.000430347               0.000190777               0.999999989              -0.000660525               0.000660291               0.999999989              -0.000600224               0.000544501               0.999999989              -0.000570020               0.000506396               0.999999989              -0.000555460               0.000497076               0.999999989              -0.000548081               0.000498524               0.999999989              -0.000542809               0.000502940               0.999999989              -0.000536617               0.000506887               0.999999989              -0.000527758               0.000507687               0.999999989              -0.000515062               0.000503771               0.999999989              -0.000497652               0.000494311               0.999999989              -0.000474985               0.000478607               0.999999989              -0.000447189               0.000456809               0.999999989              -0.000414654               0.000429127               0.999999989              -0.000378162               0.000396110               0.999999989              -0.000338722               0.000358360               0.999999989              -0.000297688               0.000317507               0.999999989              -0.000256149               0.000275704               0.999999989              -0.000609992               0.000755291               0.999999989              -0.000526353               0.000633955               0.999999989              -0.000491625               0.000596825               0.999999989              -0.000477049               0.000589215               0.999999989              -0.000469444               0.000592080               0.999999989              -0.000462574               0.000597351               0.999999989              -0.000453200               0.000601597               0.999999989              -0.000439285               0.000602158               0.999999989              -0.000419437               0.000597137               0.999999989              -0.000393118               0.000585823               0.999999989              -0.000360246               0.000568113               0.999999989              -0.000321332               0.000544534               0.999999989              -0.000277248               0.000515768               0.999999989              -0.000229334               0.000482543               0.999999989              -0.000178970               0.000446226               0.999999989              -0.000127669               0.000408780               0.999999989              -0.000076652               0.000371688               0.999999989              -0.000555024               0.000842663               0.999999989              -0.000451006               0.000722892               0.999999989              -0.000416560               0.000687065               0.999999989              -0.000403709               0.000680543               0.999999989              -0.000396501               0.000684404               0.999999989              -0.000388095               0.000690472               0.999999989              -0.000375023               0.000694798               0.999999989              -0.000354954               0.000694712               0.999999989              -0.000326695               0.000688525               0.999999989              -0.000290124               0.000675812               0.999999989              -0.000245662               0.000656806               0.999999989              -0.000194389               0.000632614               0.999999989              -0.000137726               0.000604306               0.999999989              -0.000077533               0.000573405               0.999999989              -0.000015644               0.000541458               0.999999989               0.000046354               0.000509951               0.999999989               0.000107690               0.000479749               0.999999989              -0.000497872               0.000925794               0.999999989              -0.000387532               0.000823561               0.999999989              -0.000350914               0.000784701               0.999999989              -0.000337618               0.000774194               0.999999989              -0.000330960               0.000775667               0.999999989              -0.000324306               0.000781536               0.999999989              -0.000313904               0.000787822               0.999999989              -0.000297761               0.000791988               0.999999989              -0.000274343               0.000792467               0.999999989              -0.000243281               0.000788252               0.999999989              -0.000204397               0.000779165               0.999999989              -0.000158157               0.000765554               0.999999989              -0.000105644               0.000748451               0.999999989              -0.000047996               0.000728772               0.999999989               0.000013173               0.000707654               0.999999989               0.000076243               0.000686280               0.999999989               0.000139785               0.000665789               0.999999989              -0.000435400               0.001001929               0.999999989              -0.000326248               0.000921507               0.999999989              -0.000287589               0.000885553               0.999999989              -0.000273197               0.000873189               0.999999989              -0.000266480               0.000873195               0.999999989              -0.000260753               0.000879071               0.999999989              -0.000252539               0.000887100               0.999999989              -0.000239648               0.000894882               0.999999989              -0.000220716               0.000900765               0.999999989              -0.000194946               0.000903751               0.999999989              -0.000162032               0.000903203               0.999999989              -0.000121683               0.000899094               0.999999989              -0.000074397               0.000891844               0.999999989              -0.000020908               0.000882240               0.999999989               0.000037621               0.000871032               0.999999989               0.000099569               0.000859234               0.999999989               0.000163411               0.000847797               0.999999989              -0.000368934               0.001069038               0.999999989              -0.000267291               0.001013600               0.999999989              -0.000228373               0.000984696               0.999999989              -0.000212785               0.000973651               0.999999989              -0.000205457               0.000973700               0.999999989              -0.000199968               0.000980259               0.999999989              -0.000193281               0.000990212               0.999999989              -0.000183194               0.001001316               0.999999989              -0.000168175               0.001012037               0.999999989              -0.000147232               0.001021366               0.999999989              -0.000120013               0.001028519               0.999999989              -0.000085976               0.001033069               0.999999989              -0.000045185               0.001034831               0.999999989               0.000002437               0.001034197               0.999999989               0.000056453               0.001031868               0.999999989               0.000115832               0.001028774               0.999999989               0.000179125               0.001025723               0.999999989              -0.000299184               0.001125739               0.999999989              -0.000210749               0.001095928               0.999999989              -0.000174107               0.001077016               0.999999989              -0.000158100               0.001070033               0.999999989              -0.000150136               0.001072043               0.999999989              -0.000144697               0.001080245               0.999999989              -0.000139037               0.001092486               0.999999989              -0.000131149               0.001106895               0.999999989              -0.000119525               0.001122199               0.999999989              -0.000103157               0.001137289               0.999999989              -0.000081468               0.001151342               0.999999989              -0.000054168               0.001163848               0.999999989              -0.000020503               0.001174349               0.999999989               0.000020013               0.001182761               0.999999989               0.000067875               0.001189388               0.999999989               0.000122943               0.001194812               0.999999989               0.000184591               0.001199924               0.999999989              -0.000226787               0.001170969               0.999999989              -0.000156355               0.001164544               0.999999989              -0.000124937               0.001156929               0.999999989              -0.000110062               0.001155699               0.999999989              -0.000102237               0.001161040               0.999999989              -0.000097111               0.001171805               0.999999989              -0.000092431               0.001186624               0.999999989              -0.000086266               0.001204421               0.999999989              -0.000077601               0.001224046               0.999999989              -0.000065557               0.001244469               0.999999989              -0.000049423               0.001264829               0.999999989              -0.000028810               0.001284580               0.999999989              -0.000002949               0.001303304               0.999999989               0.000029290               0.001320614               0.999999989               0.000068947               0.001336450               0.999999989               0.000116733               0.001350827               0.999999989               0.000173378               0.001364241               0.999999989              -0.000152346               0.001203969               0.999999989              -0.000103492               0.001216151               0.999999989              -0.000080346               0.001218834               0.999999989              -0.000068772               0.001223469               0.999999989              -0.000062400               0.001232505               0.999999989              -0.000058228               0.001246104               0.999999989              -0.000054645               0.001263603               0.999999989              -0.000050331               0.001284385               0.999999989              -0.000044478               0.001307612               0.999999989              -0.000036487               0.001332491               0.999999989              -0.000025785               0.001358279               0.999999989              -0.000012052               0.001384418               0.999999989               0.000005478               0.001410390               0.999999989               0.000028021               0.001435719               0.999999989               0.000056643               0.001460023               0.999999989               0.000092731               0.001482992               0.999999989               0.000137697               0.001504495               0.999999989              -0.000076504               0.001224054               0.999999989              -0.000051541               0.001248179               0.999999989              -0.000039240               0.001258029               0.999999989              -0.000032888               0.001267077               0.999999989              -0.000029279               0.001279086               0.999999989              -0.000026884               0.001294932               0.999999989              -0.000024917               0.001314429               0.999999989              -0.000022710               0.001337267               0.999999989              -0.000019756               0.001362896               0.999999989              -0.000015691               0.001390710               0.999999989              -0.000010356               0.001420090               0.999999989              -0.000003535               0.001450571               0.999999989               0.000005262               0.001481714               0.999999989               0.000016783               0.001512976               0.999999989               0.000031916               0.001543669               0.999999989               0.000051502               0.001573235               0.999999989               0.000076920               0.001601004               0.999999989              -0.000000000               0.001230722               0.999999989              -0.000000000               0.001258944               0.999999989              -0.000000000               0.001271447               0.999999989               0.000000000               0.001282212               0.999999989              -0.000000000               0.001295278               0.999999989              -0.000000000               0.001311938               0.999999989               0.000000000               0.001332212               0.999999989               0.000000000               0.001355817               0.999999989              -0.000000000               0.001382309               0.999999989               0.000000000               0.001411072               0.999999989               0.000000000               0.001441641               0.999999989               0.000000000               0.001473746               0.999999989              -0.000000000               0.001506925               0.999999989               0.000000000               0.001540617               0.999999989               0.000000000               0.001574007               0.999999989              -0.000000000               0.001606277               0.999999989              -0.000000000               0.001636529               0.999999989              -0.000812611               0.000000000               0.999999989              -0.000856911               0.000000000               0.999999989              -0.000875546              -0.000000000               0.999999989              -0.000885851               0.000000000               0.999999989              -0.000894136               0.000000000               0.999999989              -0.000902536               0.000000000               0.999999989              -0.000911716               0.000000000               0.999999989              -0.000921547               0.000000000               0.999999989              -0.000931882               0.000000000               0.999999989              -0.000942430               0.000000000               0.999999989              -0.000953007               0.000000000               0.999999989              -0.000963233               0.000000000               0.999999989              -0.000972737               0.000000000               0.999999989              -0.000981205               0.000000000               0.999999989              -0.000988209               0.000000000               0.999999989              -0.000993288              -0.000000000               0.999999989              -0.000995701               0.000000000               0.999999989              -0.000808105              -0.000115869               0.999999989              -0.000848621              -0.000091728               0.999999989              -0.000864854              -0.000080420               0.999999989              -0.000873622              -0.000075354               0.999999989              -0.000880750              -0.000073523               0.999999989              -0.000888214              -0.000073249               0.999999989              -0.000896590              -0.000073337               0.999999989              -0.000905687              -0.000073181               0.999999989              -0.000915185              -0.000072419               0.999999989              -0.000924747              -0.000070839               0.999999989              -0.000934029              -0.000068150               0.999999989              -0.000942746              -0.000064028               0.999999989              -0.000950586              -0.000058129               0.999999989              -0.000957164              -0.000050085               0.999999989              -0.000962164              -0.000039347               0.999999989              -0.000965025              -0.000025151               0.999999989              -0.000965218              -0.000006239               0.999999989              -0.000794779              -0.000230733               0.999999989              -0.000824215              -0.000183165               0.999999989              -0.000833561              -0.000161699               0.999999989              -0.000837950              -0.000152630               0.999999989              -0.000842053              -0.000149611               0.999999989              -0.000847191              -0.000149494               0.999999989              -0.000853423              -0.000150080               0.999999989              -0.000860283              -0.000150042               0.999999989              -0.000867267              -0.000148674               0.999999989              -0.000873890              -0.000145504               0.999999989              -0.000879684              -0.000140052               0.999999989              -0.000884372              -0.000131943               0.999999989              -0.000887611              -0.000120583               0.999999989              -0.000889031              -0.000105192               0.999999989              -0.000888336              -0.000084900               0.999999989              -0.000885160              -0.000058530               0.999999989              -0.000879353              -0.000024933               0.999999989              -0.000772814              -0.000343606               0.999999989              -0.000784816              -0.000274106               0.999999989              -0.000784178              -0.000244619               0.999999989              -0.000782612              -0.000233182               0.999999989              -0.000782837              -0.000230096               0.999999989              -0.000784907              -0.000230814               0.999999989              -0.000788213              -0.000232289               0.999999989              -0.000791801              -0.000232528               0.999999989              -0.000795014              -0.000230634               0.999999989              -0.000797273              -0.000225919               0.999999989              -0.000798027              -0.000217881               0.999999989              -0.000796888              -0.000205934               0.999999989              -0.000793424              -0.000189500               0.999999989              -0.000787318              -0.000167585               0.999999989              -0.000778367              -0.000139442               0.999999989              -0.000766584              -0.000104347               0.999999989              -0.000752341              -0.000061783               0.999999989              -0.000742631              -0.000453496               0.999999989              -0.000732542              -0.000364545               0.999999989              -0.000720762              -0.000329718               0.999999989              -0.000713226              -0.000317718               0.999999989              -0.000709807              -0.000315727               0.999999989              -0.000708881              -0.000317720               0.999999989              -0.000709000              -0.000320178               0.999999989              -0.000708824              -0.000320683               0.999999989              -0.000707431              -0.000318254               0.999999989              -0.000704136              -0.000312089               0.999999989              -0.000698410              -0.000301533               0.999999989              -0.000689646              -0.000285989               0.999999989              -0.000677582              -0.000264835               0.999999989              -0.000662016              -0.000237643               0.999999989              -0.000643209              -0.000203933               0.999999989              -0.000621668              -0.000163856               0.999999989              -0.000598206              -0.000117959               0.999999989              -0.000704967              -0.000559385               0.999999989              -0.000670038              -0.000454639               0.999999989              -0.000647831              -0.000417100               0.999999989              -0.000635707              -0.000406031               0.999999989              -0.000629696              -0.000405703               0.999999989              -0.000626316              -0.000409056               0.999999989              -0.000623238              -0.000412335               0.999999989              -0.000618879              -0.000413100               0.999999989              -0.000612240              -0.000410075               0.999999989              -0.000602458              -0.000402289               0.999999989              -0.000588829              -0.000389175               0.999999989              -0.000571004              -0.000370212               0.999999989              -0.000548993              -0.000345278               0.999999989              -0.000523175              -0.000314219               0.999999989              -0.000494115              -0.000277462               0.999999989              -0.000462782              -0.000235711               0.999999989              -0.000430347              -0.000190777               0.999999989              -0.000660525              -0.000660291               0.999999989              -0.000600224              -0.000544501               0.999999989              -0.000570020              -0.000506396               0.999999989              -0.000555460              -0.000497076               0.999999989              -0.000548081              -0.000498524               0.999999989              -0.000542809              -0.000502940               0.999999989              -0.000536617              -0.000506887               0.999999989              -0.000527758              -0.000507687               0.999999989              -0.000515062              -0.000503771               0.999999989              -0.000497652              -0.000494311               0.999999989              -0.000474985              -0.000478607               0.999999989              -0.000447189              -0.000456809               0.999999989              -0.000414654              -0.000429127               0.999999989              -0.000378162              -0.000396110               0.999999989              -0.000338722              -0.000358360               0.999999989              -0.000297688              -0.000317507               0.999999989              -0.000256149              -0.000275704               0.999999989              -0.000609992              -0.000755291               0.999999989              -0.000526353              -0.000633955               0.999999989              -0.000491625              -0.000596825               0.999999989              -0.000477049              -0.000589215               0.999999989              -0.000469444              -0.000592080               0.999999989              -0.000462574              -0.000597351               0.999999989              -0.000453200              -0.000601597               0.999999989              -0.000439285              -0.000602158               0.999999989              -0.000419437              -0.000597137               0.999999989              -0.000393118              -0.000585823               0.999999989              -0.000360246              -0.000568113               0.999999989              -0.000321332              -0.000544534               0.999999989              -0.000277248              -0.000515768               0.999999989              -0.000229334              -0.000482543               0.999999989              -0.000178970              -0.000446226               0.999999989              -0.000127669              -0.000408780               0.999999989              -0.000076652              -0.000371688               0.999999989              -0.000555024              -0.000842663               0.999999989              -0.000451006              -0.000722892               0.999999989              -0.000416560              -0.000687065               0.999999989              -0.000403709              -0.000680543               0.999999989              -0.000396501              -0.000684404               0.999999989              -0.000388095              -0.000690472               0.999999989              -0.000375023              -0.000694798               0.999999989              -0.000354954              -0.000694712               0.999999989              -0.000326695              -0.000688525               0.999999989              -0.000290124              -0.000675812               0.999999989              -0.000245662              -0.000656806               0.999999989              -0.000194389              -0.000632614               0.999999989              -0.000137726              -0.000604306               0.999999989              -0.000077533              -0.000573405               0.999999989              -0.000015644              -0.000541458               0.999999989               0.000046354              -0.000509951               0.999999989               0.000107690              -0.000479749               0.999999989              -0.000497872              -0.000925794               0.999999989              -0.000387532              -0.000823561               0.999999989              -0.000350914              -0.000784701               0.999999989              -0.000337618              -0.000774194               0.999999989              -0.000330960              -0.000775667               0.999999989              -0.000324306              -0.000781536               0.999999989              -0.000313904              -0.000787822               0.999999989              -0.000297761              -0.000791988               0.999999989              -0.000274343              -0.000792467               0.999999989              -0.000243281              -0.000788252               0.999999989              -0.000204397              -0.000779165               0.999999989              -0.000158157              -0.000765554               0.999999989              -0.000105644              -0.000748451               0.999999989              -0.000047996              -0.000728772               0.999999989               0.000013173              -0.000707654               0.999999989               0.000076243              -0.000686280               0.999999989               0.000139785              -0.000665789               0.999999989              -0.000435400              -0.001001929               0.999999989              -0.000326248              -0.000921507               0.999999989              -0.000287589              -0.000885553               0.999999989              -0.000273197              -0.000873189               0.999999989              -0.000266480              -0.000873195               0.999999989              -0.000260753              -0.000879071               0.999999989              -0.000252539              -0.000887100               0.999999989              -0.000239648              -0.000894882               0.999999989              -0.000220716              -0.000900765               0.999999989              -0.000194946              -0.000903751               0.999999989              -0.000162032              -0.000903203               0.999999989              -0.000121683              -0.000899094               0.999999989              -0.000074397              -0.000891844               0.999999989              -0.000020908              -0.000882240               0.999999989               0.000037621              -0.000871032               0.999999989               0.000099569              -0.000859234               0.999999989               0.000163411              -0.000847797               0.999999989              -0.000368934              -0.001069038               0.999999989              -0.000267291              -0.001013600               0.999999989              -0.000228373              -0.000984696               0.999999989              -0.000212785              -0.000973651               0.999999989              -0.000205457              -0.000973700               0.999999989              -0.000199968              -0.000980259               0.999999989              -0.000193281              -0.000990212               0.999999989              -0.000183194              -0.001001316               0.999999989              -0.000168175              -0.001012037               0.999999989              -0.000147232              -0.001021366               0.999999989              -0.000120013              -0.001028519               0.999999989              -0.000085976              -0.001033069               0.999999989              -0.000045185              -0.001034831               0.999999989               0.000002437              -0.001034197               0.999999989               0.000056453              -0.001031868               0.999999989               0.000115832              -0.001028774               0.999999989               0.000179125              -0.001025723               0.999999989              -0.000299184              -0.001125739               0.999999989              -0.000210749              -0.001095928               0.999999989              -0.000174107              -0.001077016               0.999999989              -0.000158100              -0.001070033               0.999999989              -0.000150136              -0.001072043               0.999999989              -0.000144697              -0.001080245               0.999999989              -0.000139037              -0.001092486               0.999999989              -0.000131149              -0.001106895               0.999999989              -0.000119525              -0.001122199               0.999999989              -0.000103157              -0.001137289               0.999999989              -0.000081468              -0.001151342               0.999999989              -0.000054168              -0.001163848               0.999999989              -0.000020503              -0.001174349               0.999999989               0.000020013              -0.001182761               0.999999989               0.000067875              -0.001189388               0.999999989               0.000122943              -0.001194812               0.999999989               0.000184591              -0.001199924               0.999999989              -0.000226787              -0.001170969               0.999999989              -0.000156355              -0.001164544               0.999999989              -0.000124937              -0.001156929               0.999999989              -0.000110062              -0.001155699               0.999999989              -0.000102237              -0.001161040               0.999999989              -0.000097111              -0.001171805               0.999999989              -0.000092431              -0.001186624               0.999999989              -0.000086266              -0.001204421               0.999999989              -0.000077601              -0.001224046               0.999999989              -0.000065557              -0.001244469               0.999999989              -0.000049423              -0.001264829               0.999999989              -0.000028810              -0.001284580               0.999999989              -0.000002949              -0.001303304               0.999999989               0.000029290              -0.001320614               0.999999989               0.000068947              -0.001336450               0.999999989               0.000116733              -0.001350827               0.999999989               0.000173378              -0.001364241               0.999999989              -0.000152346              -0.001203969               0.999999989              -0.000103492              -0.001216151               0.999999989              -0.000080346              -0.001218834               0.999999989              -0.000068772              -0.001223469               0.999999989              -0.000062400              -0.001232505               0.999999989              -0.000058228              -0.001246104               0.999999989              -0.000054645              -0.001263603               0.999999989              -0.000050331              -0.001284385               0.999999989              -0.000044478              -0.001307612               0.999999989              -0.000036487              -0.001332491               0.999999989              -0.000025785              -0.001358279               0.999999989              -0.000012052              -0.001384418               0.999999989               0.000005478              -0.001410390               0.999999989               0.000028021              -0.001435719               0.999999989               0.000056643              -0.001460023               0.999999989               0.000092731              -0.001482992               0.999999989               0.000137697              -0.001504495               0.999999989              -0.000076504              -0.001224054               0.999999989              -0.000051541              -0.001248179               0.999999989              -0.000039240              -0.001258029               0.999999989              -0.000032888              -0.001267077               0.999999989              -0.000029279              -0.001279086               0.999999989              -0.000026884              -0.001294932               0.999999989              -0.000024917              -0.001314429               0.999999989              -0.000022710              -0.001337267               0.999999989              -0.000019756              -0.001362896               0.999999989              -0.000015691              -0.001390710               0.999999989              -0.000010356              -0.001420090               0.999999989              -0.000003535              -0.001450571               0.999999989               0.000005262              -0.001481714               0.999999989               0.000016783              -0.001512976               0.999999989               0.000031916              -0.001543669               0.999999989               0.000051502              -0.001573235               0.999999989               0.000076920              -0.001601004               0.999999989              -0.000000000              -0.001230722               0.999999989              -0.000000000              -0.001258944               0.999999989               0.000000000              -0.001271447               0.999999989               0.000000000              -0.001282212               0.999999989               0.000000000              -0.001295278               0.999999989               0.000000000              -0.001311938               0.999999989               0.000000000              -0.001332212               0.999999989              -0.000000000              -0.001355817               0.999999989               0.000000000              -0.001382309               0.999999989              -0.000000000              -0.001411072               0.999999989              -0.000000000              -0.001441641               0.999999989              -0.000000000              -0.001473746               0.999999989               0.000000000              -0.001506925               0.999999989              -0.000000000              -0.001540617               0.999999989              -0.000000000              -0.001574007               0.999999989               0.000000000              -0.001606277               0.999999989               0.000000000              -0.001636529               0.999999989               0.000812611              -0.000000000               0.999999989               0.000856911               0.000000000               0.999999989               0.000875546               0.000000000               0.999999989               0.000885851               0.000000000               0.999999989               0.000894136               0.000000000               0.999999989               0.000902536               0.000000000               0.999999989               0.000911716               0.000000000               0.999999989               0.000921547              -0.000000000               0.999999989               0.000931882              -0.000000000               0.999999989               0.000942430               0.000000000               0.999999989               0.000953007               0.000000000               0.999999989               0.000963233               0.000000000               0.999999989               0.000972737              -0.000000000               0.999999989               0.000981205              -0.000000000               0.999999989               0.000988209               0.000000000               0.999999989               0.000993288              -0.000000000               0.999999989               0.000995701               0.000000000               0.999999989               0.000808105              -0.000115869               0.999999989               0.000848621              -0.000091728               0.999999989               0.000864854              -0.000080420               0.999999989               0.000873622              -0.000075354               0.999999989               0.000880750              -0.000073523               0.999999989               0.000888214              -0.000073249               0.999999989               0.000896590              -0.000073337               0.999999989               0.000905687              -0.000073181               0.999999989               0.000915185              -0.000072419               0.999999989               0.000924747              -0.000070839               0.999999989               0.000934029              -0.000068150               0.999999989               0.000942746              -0.000064028               0.999999989               0.000950586              -0.000058129               0.999999989               0.000957164              -0.000050085               0.999999989               0.000962164              -0.000039347               0.999999989               0.000965025              -0.000025151               0.999999989               0.000965218              -0.000006239               0.999999989               0.000794779              -0.000230733               0.999999989               0.000824215              -0.000183165               0.999999989               0.000833561              -0.000161699               0.999999989               0.000837950              -0.000152630               0.999999989               0.000842053              -0.000149611               0.999999989               0.000847191              -0.000149494               0.999999989               0.000853423              -0.000150080               0.999999989               0.000860283              -0.000150042               0.999999989               0.000867267              -0.000148674               0.999999989               0.000873890              -0.000145504               0.999999989               0.000879684              -0.000140052               0.999999989               0.000884372              -0.000131943               0.999999989               0.000887611              -0.000120583               0.999999989               0.000889031              -0.000105192               0.999999989               0.000888336              -0.000084900               0.999999989               0.000885160              -0.000058530               0.999999989               0.000879353              -0.000024933               0.999999989               0.000772814              -0.000343606               0.999999989               0.000784816              -0.000274106               0.999999989               0.000784178              -0.000244619               0.999999989               0.000782612              -0.000233182               0.999999989               0.000782837              -0.000230096               0.999999989               0.000784907              -0.000230814               0.999999989               0.000788213              -0.000232289               0.999999989               0.000791801              -0.000232528               0.999999989               0.000795014              -0.000230634               0.999999989               0.000797273              -0.000225919               0.999999989               0.000798027              -0.000217881               0.999999989               0.000796888              -0.000205934               0.999999989               0.000793424              -0.000189500               0.999999989               0.000787318              -0.000167585               0.999999989               0.000778367              -0.000139442               0.999999989               0.000766584              -0.000104347               0.999999989               0.000752341              -0.000061783               0.999999989               0.000742631              -0.000453496               0.999999989               0.000732542              -0.000364545               0.999999989               0.000720762              -0.000329718               0.999999989               0.000713226              -0.000317718               0.999999989               0.000709807              -0.000315727               0.999999989               0.000708881              -0.000317720               0.999999989               0.000709000              -0.000320178               0.999999989               0.000708824              -0.000320683               0.999999989               0.000707431              -0.000318254               0.999999989               0.000704136              -0.000312089               0.999999989               0.000698410              -0.000301533               0.999999989               0.000689646              -0.000285989               0.999999989               0.000677582              -0.000264835               0.999999989               0.000662016              -0.000237643               0.999999989               0.000643209              -0.000203933               0.999999989               0.000621668              -0.000163856               0.999999989               0.000598206              -0.000117959               0.999999989               0.000704967              -0.000559385               0.999999989               0.000670038              -0.000454639               0.999999989               0.000647831              -0.000417100               0.999999989               0.000635707              -0.000406031               0.999999989               0.000629696              -0.000405703               0.999999989               0.000626316              -0.000409056               0.999999989               0.000623238              -0.000412335               0.999999989               0.000618879              -0.000413100               0.999999989               0.000612240              -0.000410075               0.999999989               0.000602458              -0.000402289               0.999999989               0.000588829              -0.000389175               0.999999989               0.000571004              -0.000370212               0.999999989               0.000548993              -0.000345278               0.999999989               0.000523175              -0.000314219               0.999999989               0.000494115              -0.000277462               0.999999989               0.000462782              -0.000235711               0.999999989               0.000430347              -0.000190777               0.999999989               0.000660525              -0.000660291               0.999999989               0.000600224              -0.000544501               0.999999989               0.000570020              -0.000506396               0.999999989               0.000555460              -0.000497076               0.999999989               0.000548081              -0.000498524               0.999999989               0.000542809              -0.000502940               0.999999989               0.000536617              -0.000506887               0.999999989               0.000527758              -0.000507687               0.999999989               0.000515062              -0.000503771               0.999999989               0.000497652              -0.000494311               0.999999989               0.000474985              -0.000478607               0.999999989               0.000447189              -0.000456809               0.999999989               0.000414654              -0.000429127               0.999999989               0.000378162              -0.000396110               0.999999989               0.000338722              -0.000358360               0.999999989               0.000297688              -0.000317507               0.999999989               0.000256149              -0.000275704               0.999999989               0.000609992              -0.000755291               0.999999989               0.000526353              -0.000633955               0.999999989               0.000491625              -0.000596825               0.999999989               0.000477049              -0.000589215               0.999999989               0.000469444              -0.000592080               0.999999989               0.000462574              -0.000597351               0.999999989               0.000453200              -0.000601597               0.999999989               0.000439285              -0.000602158               0.999999989               0.000419437              -0.000597137               0.999999989               0.000393118              -0.000585823               0.999999989               0.000360246              -0.000568113               0.999999989               0.000321332              -0.000544534               0.999999989               0.000277248              -0.000515768               0.999999989               0.000229334              -0.000482543               0.999999989               0.000178970              -0.000446226               0.999999989               0.000127669              -0.000408780               0.999999989               0.000076652              -0.000371688               0.999999989               0.000555024              -0.000842663               0.999999989               0.000451006              -0.000722892               0.999999989               0.000416560              -0.000687065               0.999999989               0.000403709              -0.000680543               0.999999989               0.000396501              -0.000684404               0.999999989               0.000388095              -0.000690472               0.999999989               0.000375023              -0.000694798               0.999999989               0.000354954              -0.000694712               0.999999989               0.000326695              -0.000688525               0.999999989               0.000290124              -0.000675812               0.999999989               0.000245662              -0.000656806               0.999999989               0.000194389              -0.000632614               0.999999989               0.000137726              -0.000604306               0.999999989               0.000077533              -0.000573405               0.999999989               0.000015644              -0.000541458               0.999999989              -0.000046354              -0.000509951               0.999999989              -0.000107690              -0.000479749               0.999999989               0.000497872              -0.000925794               0.999999989               0.000387532              -0.000823561               0.999999989               0.000350914              -0.000784701               0.999999989               0.000337618              -0.000774194               0.999999989               0.000330960              -0.000775667               0.999999989               0.000324306              -0.000781536               0.999999989               0.000313904              -0.000787822               0.999999989               0.000297761              -0.000791988               0.999999989               0.000274343              -0.000792467               0.999999989               0.000243281              -0.000788252               0.999999989               0.000204397              -0.000779165               0.999999989               0.000158157              -0.000765554               0.999999989               0.000105644              -0.000748451               0.999999989               0.000047996              -0.000728772               0.999999989              -0.000013173              -0.000707654               0.999999989              -0.000076243              -0.000686280               0.999999989              -0.000139785              -0.000665789               0.999999989               0.000435400              -0.001001929               0.999999989               0.000326248              -0.000921507               0.999999989               0.000287589              -0.000885553               0.999999989               0.000273197              -0.000873189               0.999999989               0.000266480              -0.000873195               0.999999989               0.000260753              -0.000879071               0.999999989               0.000252539              -0.000887100               0.999999989               0.000239648              -0.000894882               0.999999989               0.000220716              -0.000900765               0.999999989               0.000194946              -0.000903751               0.999999989               0.000162032              -0.000903203               0.999999989               0.000121683              -0.000899094               0.999999989               0.000074397              -0.000891844               0.999999989               0.000020908              -0.000882240               0.999999989              -0.000037621              -0.000871032               0.999999989              -0.000099569              -0.000859234               0.999999989              -0.000163411              -0.000847797               0.999999989               0.000368934              -0.001069038               0.999999989               0.000267291              -0.001013600               0.999999989               0.000228373              -0.000984696               0.999999989               0.000212785              -0.000973651               0.999999989               0.000205457              -0.000973700               0.999999989               0.000199968              -0.000980259               0.999999989               0.000193281              -0.000990212               0.999999989               0.000183194              -0.001001316               0.999999989               0.000168175              -0.001012037               0.999999989               0.000147232              -0.001021366               0.999999989               0.000120013              -0.001028519               0.999999989               0.000085976              -0.001033069               0.999999989               0.000045185              -0.001034831               0.999999989              -0.000002437              -0.001034197               0.999999989              -0.000056453              -0.001031868               0.999999989              -0.000115832              -0.001028774               0.999999989              -0.000179125              -0.001025723               0.999999989               0.000299184              -0.001125739               0.999999989               0.000210749              -0.001095928               0.999999989               0.000174107              -0.001077016               0.999999989               0.000158100              -0.001070033               0.999999989               0.000150136              -0.001072043               0.999999989               0.000144697              -0.001080245               0.999999989               0.000139037              -0.001092486               0.999999989               0.000131149              -0.001106895               0.999999989               0.000119525              -0.001122199               0.999999989               0.000103157              -0.001137289               0.999999989               0.000081468              -0.001151342               0.999999989               0.000054168              -0.001163848               0.999999989               0.000020503              -0.001174349               0.999999989              -0.000020013              -0.001182761               0.999999989              -0.000067875              -0.001189388               0.999999989              -0.000122943              -0.001194812               0.999999989              -0.000184591              -0.001199924               0.999999989               0.000226787              -0.001170969               0.999999989               0.000156355              -0.001164544               0.999999989               0.000124937              -0.001156929               0.999999989               0.000110062              -0.001155699               0.999999989               0.000102237              -0.001161040               0.999999989               0.000097111              -0.001171805               0.999999989               0.000092431              -0.001186624               0.999999989               0.000086266              -0.001204421               0.999999989               0.000077601              -0.001224046               0.999999989               0.000065557              -0.001244469               0.999999989               0.000049423              -0.001264829               0.999999989               0.000028810              -0.001284580               0.999999989               0.000002949              -0.001303304               0.999999989              -0.000029290              -0.001320614               0.999999989              -0.000068947              -0.001336450               0.999999989              -0.000116733              -0.001350827               0.999999989              -0.000173378              -0.001364241               0.999999989               0.000152346              -0.001203969               0.999999989               0.000103492              -0.001216151               0.999999989               0.000080346              -0.001218834               0.999999989               0.000068772              -0.001223469               0.999999989               0.000062400              -0.001232505               0.999999989               0.000058228              -0.001246104               0.999999989               0.000054645              -0.001263603               0.999999989               0.000050331              -0.001284385               0.999999989               0.000044478              -0.001307612               0.999999989               0.000036487              -0.001332491               0.999999989               0.000025785              -0.001358279               0.999999989               0.000012052              -0.001384418               0.999999989              -0.000005478              -0.001410390               0.999999989              -0.000028021              -0.001435719               0.999999989              -0.000056643              -0.001460023               0.999999989              -0.000092731              -0.001482992               0.999999989              -0.000137697              -0.001504495               0.999999989               0.000076504              -0.001224054               0.999999989               0.000051541              -0.001248179               0.999999989               0.000039240              -0.001258029               0.999999989               0.000032888              -0.001267077               0.999999989               0.000029279              -0.001279086               0.999999989               0.000026884              -0.001294932               0.999999989               0.000024917              -0.001314429               0.999999989               0.000022710              -0.001337267               0.999999989               0.000019756              -0.001362896               0.999999989               0.000015691              -0.001390710               0.999999989               0.000010356              -0.001420090               0.999999989               0.000003535              -0.001450571               0.999999989              -0.000005262              -0.001481714               0.999999989              -0.000016783              -0.001512976               0.999999989              -0.000031916              -0.001543669               0.999999989              -0.000051502              -0.001573235               0.999999989              -0.000076920              -0.001601004               0.999999989              -0.000000000              -0.001230722               0.999999989              -0.000000000              -0.001258944               0.999999989               0.000000000              -0.001271447               0.999999989               0.000000000              -0.001282212               0.999999989               0.000000000              -0.001295278               0.999999989               0.000000000              -0.001311938               0.999999989               0.000000000              -0.001332212               0.999999989              -0.000000000              -0.001355817               0.999999989               0.000000000              -0.001382309               0.999999989              -0.000000000              -0.001411072               0.999999989              -0.000000000              -0.001441641               0.999999989              -0.000000000              -0.001473746               0.999999989               0.000000000              -0.001506925               0.999999989              -0.000000000              -0.001540617               0.999999989              -0.000000000              -0.001574007               0.999999989               0.000000000              -0.001606277               0.999999989               0.000000000              -0.001636529               0.999999989               0.000812611              -0.000000000               0.999999989               0.000856911               0.000000000               0.999999989               0.000875546               0.000000000               0.999999989               0.000885851               0.000000000               0.999999989               0.000894136               0.000000000               0.999999989               0.000902536               0.000000000               0.999999989               0.000911716               0.000000000               0.999999989               0.000921547              -0.000000000               0.999999989               0.000931882              -0.000000000               0.999999989               0.000942430               0.000000000               0.999999989               0.000953007               0.000000000               0.999999989               0.000963233               0.000000000               0.999999989               0.000972737              -0.000000000               0.999999989               0.000981205              -0.000000000               0.999999989               0.000988209               0.000000000               0.999999989               0.000993288              -0.000000000               0.999999989               0.000995701               0.000000000               0.999999989               0.000808105               0.000115869               0.999999989               0.000848621               0.000091728               0.999999989               0.000864854               0.000080420               0.999999989               0.000873622               0.000075354               0.999999989               0.000880750               0.000073523               0.999999989               0.000888214               0.000073249               0.999999989               0.000896590               0.000073337               0.999999989               0.000905687               0.000073181               0.999999989               0.000915185               0.000072419               0.999999989               0.000924747               0.000070839               0.999999989               0.000934029               0.000068150               0.999999989               0.000942746               0.000064028               0.999999989               0.000950586               0.000058129               0.999999989               0.000957164               0.000050085               0.999999989               0.000962164               0.000039347               0.999999989               0.000965025               0.000025151               0.999999989               0.000965218               0.000006239               0.999999989               0.000794779               0.000230733               0.999999989               0.000824215               0.000183165               0.999999989               0.000833561               0.000161699               0.999999989               0.000837950               0.000152630               0.999999989               0.000842053               0.000149611               0.999999989               0.000847191               0.000149494               0.999999989               0.000853423               0.000150080               0.999999989               0.000860283               0.000150042               0.999999989               0.000867267               0.000148674               0.999999989               0.000873890               0.000145504               0.999999989               0.000879684               0.000140052               0.999999989               0.000884372               0.000131943               0.999999989               0.000887611               0.000120583               0.999999989               0.000889031               0.000105192               0.999999989               0.000888336               0.000084900               0.999999989               0.000885160               0.000058530               0.999999989               0.000879353               0.000024933               0.999999989               0.000772814               0.000343606               0.999999989               0.000784816               0.000274106               0.999999989               0.000784178               0.000244619               0.999999989               0.000782612               0.000233182               0.999999989               0.000782837               0.000230096               0.999999989               0.000784907               0.000230814               0.999999989               0.000788213               0.000232289               0.999999989               0.000791801               0.000232528               0.999999989               0.000795014               0.000230634               0.999999989               0.000797273               0.000225919               0.999999989               0.000798027               0.000217881               0.999999989               0.000796888               0.000205934               0.999999989               0.000793424               0.000189500               0.999999989               0.000787318               0.000167585               0.999999989               0.000778367               0.000139442               0.999999989               0.000766584               0.000104347               0.999999989               0.000752341               0.000061783               0.999999989               0.000742631               0.000453496               0.999999989               0.000732542               0.000364545               0.999999989               0.000720762               0.000329718               0.999999989               0.000713226               0.000317718               0.999999989               0.000709807               0.000315727               0.999999989               0.000708881               0.000317720               0.999999989               0.000709000               0.000320178               0.999999989               0.000708824               0.000320683               0.999999989               0.000707431               0.000318254               0.999999989               0.000704136               0.000312089               0.999999989               0.000698410               0.000301533               0.999999989               0.000689646               0.000285989               0.999999989               0.000677582               0.000264835               0.999999989               0.000662016               0.000237643               0.999999989               0.000643209               0.000203933               0.999999989               0.000621668               0.000163856               0.999999989               0.000598206               0.000117959               0.999999989               0.000704967               0.000559385               0.999999989               0.000670038               0.000454639               0.999999989               0.000647831               0.000417100               0.999999989               0.000635707               0.000406031               0.999999989               0.000629696               0.000405703               0.999999989               0.000626316               0.000409056               0.999999989               0.000623238               0.000412335               0.999999989               0.000618879               0.000413100               0.999999989               0.000612240               0.000410075               0.999999989               0.000602458               0.000402289               0.999999989               0.000588829               0.000389175               0.999999989               0.000571004               0.000370212               0.999999989               0.000548993               0.000345278               0.999999989               0.000523175               0.000314219               0.999999989               0.000494115               0.000277462               0.999999989               0.000462782               0.000235711               0.999999989               0.000430347               0.000190777               0.999999989               0.000660525               0.000660291               0.999999989               0.000600224               0.000544501               0.999999989               0.000570020               0.000506396               0.999999989               0.000555460               0.000497076               0.999999989               0.000548081               0.000498524               0.999999989               0.000542809               0.000502940               0.999999989               0.000536617               0.000506887               0.999999989               0.000527758               0.000507687               0.999999989               0.000515062               0.000503771               0.999999989               0.000497652               0.000494311               0.999999989               0.000474985               0.000478607               0.999999989               0.000447189               0.000456809               0.999999989               0.000414654               0.000429127               0.999999989               0.000378162               0.000396110               0.999999989               0.000338722               0.000358360               0.999999989               0.000297688               0.000317507               0.999999989               0.000256149               0.000275704               0.999999989               0.000609992               0.000755291               0.999999989               0.000526353               0.000633955               0.999999989               0.000491625               0.000596825               0.999999989               0.000477049               0.000589215               0.999999989               0.000469444               0.000592080               0.999999989               0.000462574               0.000597351               0.999999989               0.000453200               0.000601597               0.999999989               0.000439285               0.000602158               0.999999989               0.000419437               0.000597137               0.999999989               0.000393118               0.000585823               0.999999989               0.000360246               0.000568113               0.999999989               0.000321332               0.000544534               0.999999989               0.000277248               0.000515768               0.999999989               0.000229334               0.000482543               0.999999989               0.000178970               0.000446226               0.999999989               0.000127669               0.000408780               0.999999989               0.000076652               0.000371688               0.999999989               0.000555024               0.000842663               0.999999989               0.000451006               0.000722892               0.999999989               0.000416560               0.000687065               0.999999989               0.000403709               0.000680543               0.999999989               0.000396501               0.000684404               0.999999989               0.000388095               0.000690472               0.999999989               0.000375023               0.000694798               0.999999989               0.000354954               0.000694712               0.999999989               0.000326695               0.000688525               0.999999989               0.000290124               0.000675812               0.999999989               0.000245662               0.000656806               0.999999989               0.000194389               0.000632614               0.999999989               0.000137726               0.000604306               0.999999989               0.000077533               0.000573405               0.999999989               0.000015644               0.000541458               0.999999989              -0.000046354               0.000509951               0.999999989              -0.000107690               0.000479749               0.999999989               0.000497872               0.000925794               0.999999989               0.000387532               0.000823561               0.999999989               0.000350914               0.000784701               0.999999989               0.000337618               0.000774194               0.999999989               0.000330960               0.000775667               0.999999989               0.000324306               0.000781536               0.999999989               0.000313904               0.000787822               0.999999989               0.000297761               0.000791988               0.999999989               0.000274343               0.000792467               0.999999989               0.000243281               0.000788252               0.999999989               0.000204397               0.000779165               0.999999989               0.000158157               0.000765554               0.999999989               0.000105644               0.000748451               0.999999989               0.000047996               0.000728772               0.999999989              -0.000013173               0.000707654               0.999999989              -0.000076243               0.000686280               0.999999989              -0.000139785               0.000665789               0.999999989               0.000435400               0.001001929               0.999999989               0.000326248               0.000921507               0.999999989               0.000287589               0.000885553               0.999999989               0.000273197               0.000873189               0.999999989               0.000266480               0.000873195               0.999999989               0.000260753               0.000879071               0.999999989               0.000252539               0.000887100               0.999999989               0.000239648               0.000894882               0.999999989               0.000220716               0.000900765               0.999999989               0.000194946               0.000903751               0.999999989               0.000162032               0.000903203               0.999999989               0.000121683               0.000899094               0.999999989               0.000074397               0.000891844               0.999999989               0.000020908               0.000882240               0.999999989              -0.000037621               0.000871032               0.999999989              -0.000099569               0.000859234               0.999999989              -0.000163411               0.000847797               0.999999989               0.000368934               0.001069038               0.999999989               0.000267291               0.001013600               0.999999989               0.000228373               0.000984696               0.999999989               0.000212785               0.000973651               0.999999989               0.000205457               0.000973700               0.999999989               0.000199968               0.000980259               0.999999989               0.000193281               0.000990212               0.999999989               0.000183194               0.001001316               0.999999989               0.000168175               0.001012037               0.999999989               0.000147232               0.001021366               0.999999989               0.000120013               0.001028519               0.999999989               0.000085976               0.001033069               0.999999989               0.000045185               0.001034831               0.999999989              -0.000002437               0.001034197               0.999999989              -0.000056453               0.001031868               0.999999989              -0.000115832               0.001028774               0.999999989              -0.000179125               0.001025723               0.999999989               0.000299184               0.001125739               0.999999989               0.000210749               0.001095928               0.999999989               0.000174107               0.001077016               0.999999989               0.000158100               0.001070033               0.999999989               0.000150136               0.001072043               0.999999989               0.000144697               0.001080245               0.999999989               0.000139037               0.001092486               0.999999989               0.000131149               0.001106895               0.999999989               0.000119525               0.001122199               0.999999989               0.000103157               0.001137289               0.999999989               0.000081468               0.001151342               0.999999989               0.000054168               0.001163848               0.999999989               0.000020503               0.001174349               0.999999989              -0.000020013               0.001182761               0.999999989              -0.000067875               0.001189388               0.999999989              -0.000122943               0.001194812               0.999999989              -0.000184591               0.001199924               0.999999989               0.000226787               0.001170969               0.999999989               0.000156355               0.001164544               0.999999989               0.000124937               0.001156929               0.999999989               0.000110062               0.001155699               0.999999989               0.000102237               0.001161040               0.999999989               0.000097111               0.001171805               0.999999989               0.000092431               0.001186624               0.999999989               0.000086266               0.001204421               0.999999989               0.000077601               0.001224046               0.999999989               0.000065557               0.001244469               0.999999989               0.000049423               0.001264829               0.999999989               0.000028810               0.001284580               0.999999989               0.000002949               0.001303304               0.999999989              -0.000029290               0.001320614               0.999999989              -0.000068947               0.001336450               0.999999989              -0.000116733               0.001350827               0.999999989              -0.000173378               0.001364241               0.999999989               0.000152346               0.001203969               0.999999989               0.000103492               0.001216151               0.999999989               0.000080346               0.001218834               0.999999989               0.000068772               0.001223469               0.999999989               0.000062400               0.001232505               0.999999989               0.000058228               0.001246104               0.999999989               0.000054645               0.001263603               0.999999989               0.000050331               0.001284385               0.999999989               0.000044478               0.001307612               0.999999989               0.000036487               0.001332491               0.999999989               0.000025785               0.001358279               0.999999989               0.000012052               0.001384418               0.999999989              -0.000005478               0.001410390               0.999999989              -0.000028021               0.001435719               0.999999989              -0.000056643               0.001460023               0.999999989              -0.000092731               0.001482992               0.999999989              -0.000137697               0.001504495               0.999999989               0.000076504               0.001224054               0.999999989               0.000051541               0.001248179               0.999999989               0.000039240               0.001258029               0.999999989               0.000032888               0.001267077               0.999999989               0.000029279               0.001279086               0.999999989               0.000026884               0.001294932               0.999999989               0.000024917               0.001314429               0.999999989               0.000022710               0.001337267               0.999999989               0.000019756               0.001362896               0.999999989               0.000015691               0.001390710               0.999999989               0.000010356               0.001420090               0.999999989               0.000003535               0.001450571               0.999999989              -0.000005262               0.001481714               0.999999989              -0.000016783               0.001512976               0.999999989              -0.000031916               0.001543669               0.999999989              -0.000051502               0.001573235               0.999999989              -0.000076920               0.001601004               0.999999989              -0.000000000               0.001230722               0.999999989              -0.000000000               0.001258944               0.999999989              -0.000000000               0.001271447               0.999999989               0.000000000               0.001282212               0.999999989              -0.000000000               0.001295278               0.999999989              -0.000000000               0.001311938               0.999999989               0.000000000               0.001332212               0.999999989               0.000000000               0.001355817               0.999999989              -0.000000000               0.001382309               0.999999989               0.000000000               0.001411072               0.999999989               0.000000000               0.001441641               0.999999989               0.000000000               0.001473746               0.999999989              -0.000000000               0.001506925               0.999999989               0.000000000               0.001540617               0.999999989               0.000000000               0.001574007               0.999999989              -0.000000000               0.001606277               0.999999989              -0.000000000               0.001636529               0.999999989 </DataArray>
<DataArray type="Float64"                                    Name="defo"                                                      NumberOfComponents=" 3" format="ascii">
             -0.000812611               0.000000000               0.999999989              -0.000856911               0.000000000               0.999999989              -0.000875546              -0.000000000               0.999999989              -0.000885851               0.000000000               0.999999989              -0.000894136               0.000000000               0.999999989              -0.000902536               0.000000000               0.999999989              -0.000911716               0.000000000               0.999999989              -0.000921547               0.000000000               0.999999989              -0.000931882               0.000000000               0.999999989              -0.000942430               0.000000000               0.999999989              -0.000953007               0.000000000               0.999999989              -0.000963233               0.000000000               0.999999989              -0.000972737               0.000000000               0.999999989              -0.000981205               0.000000000               0.999999989              -0.000988209               0.000000000               0.999999989              -0.000993288              -0.000000000               0.999999989              -0.000995701               0.000000000               0.999999989              -0.000808105               0.000115869               0.999999989              -0.000848621               0.000091728               0.999999989              -0.000864854               0.000080420               0.999999989              -0.000873622               0.000075354               0.999999989              -0.000880750               0.000073523               0.999999989              -0.000888214               0.000073249               0.999999989              -0.000896590               0.000073337               0.999999989              -0.000905687               0.000073181               0.999999989              -0.000915185               0.000072419               0.999999989              -0.000924747               0.000070839               0.999999989              -0.000934029               0.000068150               0.999999989              -0.000942746               0.000064028               0.999999989              -0.000950586               0.000058129               0.999999989              -0.000957164               0.000050085               0.999999989              -0.000962164               0.000039347               0.999999989              -0.000965025               0.000025151               0.999999989              -0.000965218               0.000006239               0.999999989              -0.000794779               0.000230733               0.999999989              -0.000824215               0.000183165               0.999999989              -0.000833561               0.000161699               0.999999989              -0.000837950               0.000152630               0.999999989              -0.000842053               0.000149611               0.999999989              -0.000847191               0.000149494               0.999999989              -0.000853423               0.000150080               0.999999989              -0.000860283               0.000150042               0.999999989              -0.000867267               0.000148674               0.999999989              -0.000873890               0.000145504               0.999999989              -0.000879684               0.000140052               0.999999989              -0.000884372               0.000131943               0.999999989              -0.000887611               0.000120583               0.999999989              -0.000889031               0.000105192               0.999999989              -0.000888336               0.000084900               0.999999989              -0.000885160               0.000058530               0.999999989              -0.000879353               0.000024933               0.999999989              -0.000772814               0.000343606               0.999999989              -0.000784816               0.000274106               0.999999989              -0.000784178               0.000244619               0.999999989              -0.000782612               0.000233182               0.999999989              -0.000782837               0.000230096               0.999999989              -0.000784907               0.000230814               0.999999989              -0.000788213               0.000232289               0.999999989              -0.000791801               0.000232528               0.999999989              -0.000795014               0.000230634               0.999999989              -0.000797273               0.000225919               0.999999989              -0.000798027               0.000217881               0.999999989              -0.000796888               0.000205934               0.999999989              -0.000793424               0.000189500               0.999999989              -0.000787318               0.000167585               0.999999989              -0.000778367               0.000139442               0.999999989              -0.000766584               0.000104347               0.999999989              -0.000752341               0.000061783               0.999999989              -0.000742631               0.000453496               0.999999989              -0.000732542               0.000364545               0.999999989              -0.000720762               0.000329718               0.999999989              -0.000713226               0.000317718               0.999999989              -0.000709807               0.000315727               0.999999989              -0.000708881               0.000317720               0.999999989              -0.000709000               0.000320178               0.999999989              -0.000708824               0.000320683               0.999999989              -0.000707431               0.000318254               0.999999989              -0.000704136               0.000312089               0.999999989              -0.000698410               0.000301533               0.999999989              -0.000689646               0.000285989               0.999999989              -0.000677582               0.000264835               0.999999989              -0.000662016               0.000237643               0.999999989              -0.000643209               0.000203933               0.999999989              -0.000621668               0.000163856               0.999999989              -0.000598206               0.000117959               0.999999989              -0.000704967               0.000559385               0.999999989              -0.000670038               0.000454639               0.999999989              -0.000647831               0.000417100               0.999999989              -0.000635707               0.000406031               0.999999989              -0.000629696               0.000405703               0.999999989              -0.000626316               0.000409056               0.999999989              -0.000623238               0.000412335               0.999999989              -0.000618879               0.000413100               0.999999989              -0.000612240               0.000410075               0.999999989              -0.000602458               0.000402289               0.999999989              -0.000588829               0.000389175               0.999999989              -0.000571004               0.000370212               0.999999989              -0.000548993               0.000345278               0.999999989              -0.000523175               0.000314219               0.999999989              -0.000494115               0.000277462               0.999999989              -0.000462782               0.000235711               0.999999989              -0.000430347               0.000190777               0.999999989              -0.000660525               0.000660291               0.999999989              -0.000600224               0.000544501               0.999999989              -0.000570020               0.000506396               0.999999989              -0.000555460               0.000497076               0.999999989              -0.000548081               0.000498524               0.999999989              -0.000542809               0.000502940               0.999999989              -0.000536617               0.000506887               0.999999989              -0.000527758               0.000507687               0.999999989              -0.000515062               0.000503771               0.999999989              -0.000497652               0.000494311               0.999999989              -0.000474985               0.000478607               0.999999989              -0.000447189               0.000456809               0.999999989              -0.000414654               0.000429127               0.999999989              -0.000378162               0.000396110               0.999999989              -0.000338722               0.000358360               0.999999989              -0.000297688               0.000317507               0.999999989              -0.000256149               0.000275704               0.999999989              -0.000609992               0.000755291               0.999999989              -0.000526353               0.000633955               0.999999989              -0.000491625               0.000596825               0.999999989              -0.000477049               0.000589215               0.999999989              -0.000469444               0.000592080               0.999999989              -0.000462574               0.000597351               0.999999989              -0.000453200               0.000601597               0.999999989              -0.000439285               0.000602158               0.999999989              -0.000419437               0.000597137               0.999999989              -0.000393118               0.000585823               0.999999989              -0.000360246               0.000568113               0.999999989              -0.000321332               0.000544534               0.999999989              -0.000277248               0.000515768               0.999999989              -0.000229334               0.000482543               0.999999989              -0.000178970               0.000446226               0.999999989              -0.000127669               0.000408780               0.999999989              -0.000076652               0.000371688               0.999999989              -0.000555024               0.000842663               0.999999989              -0.000451006               0.000722892               0.999999989              -0.000416560               0.000687065               0.999999989              -0.000403709               0.000680543               0.999999989              -0.000396501               0.000684404               0.999999989              -0.000388095               0.000690472               0.999999989              -0.000375023               0.000694798               0.999999989              -0.000354954               0.000694712               0.999999989              -0.000326695               0.000688525               0.999999989              -0.000290124               0.000675812               0.999999989              -0.000245662               0.000656806               0.999999989              -0.000194389               0.000632614               0.999999989              -0.000137726               0.000604306               0.999999989              -0.000077533               0.000573405               0.999999989              -0.000015644               0.000541458               0.999999989               0.000046354               0.000509951               0.999999989               0.000107690               0.000479749               0.999999989              -0.000497872               0.000925794               0.999999989              -0.000387532               0.000823561               0.999999989              -0.000350914               0.000784701               0.999999989              -0.000337618               0.000774194               0.999999989              -0.000330960               0.000775667               0.999999989              -0.000324306               0.000781536               0.999999989              -0.000313904               0.000787822               0.999999989              -0.000297761               0.000791988               0.999999989              -0.000274343               0.000792467               0.999999989              -0.000243281               0.000788252               0.999999989              -0.000204397               0.000779165               0.999999989              -0.000158157               0.000765554               0.999999989              -0.000105644               0.000748451               0.999999989              -0.000047996               0.000728772               0.999999989               0.000013173               0.000707654               0.999999989               0.000076243               0.000686280               0.999999989               0.000139785               0.000665789               0.999999989              -0.000435400               0.001001929               0.999999989              -0.000326248               0.000921507               0.999999989              -0.000287589               0.000885553               0.999999989              -0.000273197               0.000873189               0.999999989              -0.000266480               0.000873195               0.999999989              -0.000260753               0.000879071               0.999999989              -0.000252539               0.000887100               0.999999989              -0.000239648               0.000894882               0.999999989              -0.000220716               0.000900765               0.999999989              -0.000194946               0.000903751               0.999999989              -0.000162032               0.000903203               0.999999989              -0.000121683               0.000899094               0.999999989              -0.000074397               0.000891844               0.999999989              -0.000020908               0.000882240               0.999999989               0.000037621               0.000871032               0.999999989               0.000099569               0.000859234               0.999999989               0.000163411               0.000847797               0.999999989              -0.000368934               0.001069038               0.999999989              -0.000267291               0.001013600               0.999999989              -0.000228373               0.000984696               0.999999989              -0.000212785               0.000973651               0.999999989              -0.000205457               0.000973700               0.999999989              -0.000199968               0.000980259               0.999999989              -0.000193281               0.000990212               0.999999989              -0.000183194               0.001001316               0.999999989              -0.000168175               0.001012037               0.999999989              -0.000147232               0.001021366               0.999999989              -0.000120013               0.001028519               0.999999989              -0.000085976               0.001033069               0.999999989              -0.000045185               0.001034831               0.999999989               0.000002437               0.001034197               0.999999989               0.000056453               0.001031868               0.999999989               0.000115832               0.001028774               0.999999989               0.000179125               0.001025723               0.999999989              -0.000299184               0.001125739               0.999999989              -0.000210749               0.001095928               0.999999989              -0.000174107               0.001077016               0.999999989              -0.000158100               0.001070033               0.999999989              -0.000150136               0.001072043               0.999999989              -0.000144697               0.001080245               0.999999989              -0.000139037               0.001092486               0.999999989              -0.000131149               0.001106895               0.999999989              -0.000119525               0.001122199               0.999999989              -0.000103157               0.001137289               0.999999989              -0.000081468               0.001151342               0.999999989              -0.000054168               0.001163848               0.999999989              -0.000020503               0.001174349               0.999999989               0.000020013               0.001182761               0.999999989               0.000067875               0.001189388               0.999999989               0.000122943               0.001194812               0.999999989               0.000184591               0.001199924               0.999999989              -0.000226787               0.001170969               0.999999989              -0.000156355               0.001164544               0.999999989              -0.000124937               0.001156929               0.999999989              -0.000110062               0.001155699               0.999999989              -0.000102237               0.001161040               0.999999989              -0.000097111               0.001171805               0.999999989              -0.000092431               0.001186624               0.999999989              -0.000086266               0.001204421               0.999999989              -0.000077601               0.001224046               0.999999989              -0.000065557               0.001244469               0.999999989              -0.000049423               0.001264829               0.999999989              -0.000028810               0.001284580               0.999999989              -0.000002949               0.001303304               0.999999989               0.000029290               0.001320614               0.999999989               0.000068947               0.001336450               0.999999989               0.000116733               0.001350827               0.999999989               0.000173378               0.001364241               0.999999989              -0.000152346               0.001203969               0.999999989              -0.000103492               0.001216151               0.999999989              -0.000080346               0.001218834               0.999999989              -0.000068772               0.001223469               0.999999989              -0.000062400               0.001232505               0.999999989              -0.000058228               0.001246104               0.999999989              -0.000054645               0.001263603               0.999999989              -0.000050331               0.001284385               0.999999989              -0.000044478               0.001307612               0.999999989              -0.000036487               0.001332491               0.999999989              -0.000025785               0.001358279               0.999999989              -0.000012052               0.001384418               0.999999989               0.000005478               0.001410390               0.999999989               0.000028021               0.001435719               0.999999989               0.000056643               0.001460023               0.999999989               0.000092731               0.001482992               0.999999989               0.000137697               0.001504495               0.999999989              -0.000076504               0.001224054               0.999999989              -0.000051541               0.001248179               0.999999989              -0.000039240               0.001258029               0.999999989              -0.000032888               0.001267077               0.999999989              -0.000029279               0.001279086               0.999999989              -0.000026884               0.001294932               0.999999989              -0.000024917               0.001314429               0.999999989              -0.000022710               0.001337267               0.999999989              -0.000019756               0.001362896               0.999999989              -0.000015691               0.001390710               0.999999989              -0.000010356               0.001420090               0.999999989              -0.000003535               0.001450571               0.999999989               0.000005262               0.001481714               0.999999989               0.000016783               0.001512976               0.999999989               0.000031916               0.001543669               0.999999989               0.000051502               0.001573235               0.999999989               0.000076920               0.001601004               0.999999989              -0.000000000               0.001230722               0.999999989              -0.000000000               0.001258944               0.999999989              -0.000000000               0.001271447               0.999999989               0.000000000               0.001282212               0.999999989              -0.000000000               0.001295278               0.999999989              -0.000000000               0.001311938               0.999999989               0.000000000               0.001332212               0.999999989               0.000000000               0.001355817               0.999999989              -0.000000000               0.001382309               0.999999989               0.000000000               0.001411072               0.999999989               0.000000000               0.001441641               0.999999989               0.000000000               0.001473746               0.999999989              -0.000000000               0.001506925               0.999999989               0.000000000               0.001540617               0.999999989               0.000000000               0.001574007               0.999999989              -0.000000000               0.001606277               0.999999989              -0.000000000               0.001636529               0.999999989              -0.000812611               0.000000000               0.999999989              -0.000856911               0.000000000               0.999999989              -0.000875546              -0.000000000               0.999999989              -0.000885851               0.000000000               0.999999989              -0.000894136               0.000000000               0.999999989              -0.000902536               0.000000000               0.999999989              -0.000911716               0.000000000               0.999999989              -0.000921547               0.000000000               0.999999989              -0.000931882               0.000000000               0.999999989              -0.000942430               0.000000000               0.999999989              -0.000953007               0.000000000               0.999999989              -0.000963233               0.000000000               0.999999989              -0.000972737               0.000000000               0.999999989              -0.000981205               0.000000000               0.999999989              -0.000988209               0.000000000               0.999999989              -0.000993288              -0.000000000               0.999999989              -0.000995701               0.000000000               0.999999989              -0.000808105              -0.000115869               0.999999989              -0.000848621              -0.000091728               0.999999989              -0.000864854              -0.000080420               0.999999989              -0.000873622              -0.000075354               0.999999989              -0.000880750              -0.000073523               0.999999989              -0.000888214              -0.000073249               0.999999989              -0.000896590              -0.000073337               0.999999989              -0.000905687              -0.000073181               0.999999989              -0.000915185              -0.000072419               0.999999989              -0.000924747              -0.000070839               0.999999989              -0.000934029              -0.000068150               0.999999989              -0.000942746              -0.000064028               0.999999989              -0.000950586              -0.000058129               0.999999989              -0.000957164              -0.000050085               0.999999989              -0.000962164              -0.000039347               0.999999989              -0.000965025              -0.000025151               0.999999989              -0.000965218              -0.000006239               0.999999989              -0.000794779              -0.000230733               0.999999989              -0.000824215              -0.000183165               0.999999989              -0.000833561              -0.000161699               0.999999989              -0.000837950              -0.000152630               0.999999989              -0.000842053              -0.000149611               0.999999989              -0.000847191              -0.000149494               0.999999989              -0.000853423              -0.000150080               0.999999989              -0.000860283              -0.000150042               0.999999989              -0.000867267              -0.000148674               0.999999989              -0.000873890              -0.000145504               0.999999989              -0.000879684              -0.000140052               0.999999989              -0.000884372              -0.000131943               0.999999989              -0.000887611              -0.000120583               0.999999989              -0.000889031              -0.000105192               0.999999989              -0.000888336              -0.000084900               0.999999989              -0.000885160              -0.000058530               0.999999989              -0.000879353              -0.000024933               0.999999989              -0.000772814              -0.000343606               0.999999989              -0.000784816              -0.000274106               0.999999989              -0.000784178              -0.000244619               0.999999989              -0.000782612              -0.000233182               0.999999989              -0.000782837              -0.000230096               0.999999989              -0.000784907              -0.000230814               0.999999989              -0.000788213              -0.000232289               0.999999989              -0.000791801              -0.000232528               0.999999989              -0.000795014              -0.000230634               0.999999989              -0.000797273              -0.000225919               0.999999989              -0.000798027              -0.000217881               0.999999989              -0.000796888              -0.000205934               0.999999989              -0.000793424              -0.000189500               0.999999989              -0.000787318              -0.000167585               0.999999989              -0.000778367              -0.000139442               0.999999989              -0.000766584              -0.000104347               0.999999989              -0.000752341              -0.000061783               0.999999989              -0.000742631              -0.000453496               0.999999989              -0.000732542              -0.000364545               0.999999989              -0.000720762              -0.000329718               0.999999989              -0.000713226              -0.000317718               0.999999989              -0.000709807              -0.000315727               0.999999989              -0.000708881              -0.000317720               0.999999989              -0.000709000              -0.000320178               0.999999989              -0.000708824              -0.000320683               0.999999989              -0.000707431              -0.000318254               0.999999989              -0.000704136              -0.000312089               0.999999989              -0.000698410              -0.000301533               0.999999989              -0.000689646              -0.000285989               0.999999989              -0.000677582              -0.000264835               0.999999989              -0.000662016              -0.000237643               0.999999989              -0.000643209              -0.000203933               0.999999989              -0.000621668              -0.000163856               0.999999989              -0.000598206              -0.000117959               0.999999989              -0.000704967              -0.000559385               0.999999989              -0.000670038              -0.000454639               0.999999989              -0.000647831              -0.000417100               0.999999989              -0.000635707              -0.000406031               0.999999989              -0.000629696              -0.000405703               0.999999989              -0.000626316              -0.000409056               0.999999989              -0.000623238              -0.000412335               0.999999989              -0.000618879              -0.000413100               0.999999989              -0.000612240              -0.000410075               0.999999989              -0.000602458              -0.000402289               0.999999989              -0.000588829              -0.000389175               0.999999989              -0.000571004              -0.000370212               0.999999989              -0.000548993              -0.000345278               0.999999989              -0.000523175              -0.000314219               0.999999989              -0.000494115              -0.000277462               0.999999989              -0.000462782              -0.000235711               0.999999989              -0.000430347              -0.000190777               0.999999989              -0.000660525              -0.000660291               0.999999989              -0.000600224              -0.000544501               0.999999989              -0.000570020              -0.000506396               0.999999989              -0.000555460              -0.000497076               0.999999989              -0.000548081              -0.000498524               0.999999989              -0.000542809              -0.000502940               0.999999989              -0.000536617              -0.000506887               0.999999989              -0.000527758              -0.000507687               0.999999989              -0.000515062              -0.000503771               0.999999989              -0.000497652              -0.000494311               0.999999989              -0.000474985              -0.000478607               0.999999989              -0.000447189              -0.000456809               0.999999989              -0.000414654              -0.000429127               0.999999989              -0.000378162              -0.000396110               0.999999989              -0.000338722              -0.000358360               0.999999989              -0.000297688              -0.000317507               0.999999989              -0.000256149              -0.000275704               0.999999989              -0.000609992              -0.000755291               0.999999989              -0.000526353              -0.000633955               0.999999989              -0.000491625              -0.000596825               0.999999989              -0.000477049              -0.000589215               0.999999989              -0.000469444              -0.000592080               0.999999989              -0.000462574              -0.000597351               0.999999989              -0.000453200              -0.000601597               0.999999989              -0.000439285              -0.000602158               0.999999989              -0.000419437              -0.000597137               0.999999989              -0.000393118              -0.000585823               0.999999989              -0.000360246              -0.000568113               0.999999989              -0.000321332              -0.000544534               0.999999989              -0.000277248              -0.000515768               0.999999989              -0.000229334              -0.000482543               0.999999989              -0.000178970              -0.000446226               0.999999989              -0.000127669              -0.000408780               0.999999989              -0.000076652              -0.000371688               0.999999989              -0.000555024              -0.000842663               0.999999989              -0.000451006              -0.000722892               0.999999989              -0.000416560              -0.000687065               0.999999989              -0.000403709              -0.000680543               0.999999989              -0.000396501              -0.000684404               0.999999989              -0.000388095              -0.000690472               0.999999989              -0.000375023              -0.000694798               0.999999989              -0.000354954              -0.000694712               0.999999989              -0.000326695              -0.000688525               0.999999989              -0.000290124              -0.000675812               0.999999989              -0.000245662              -0.000656806               0.999999989              -0.000194389              -0.000632614               0.999999989              -0.000137726              -0.000604306               0.999999989              -0.000077533              -0.000573405               0.999999989              -0.000015644              -0.000541458               0.999999989               0.000046354              -0.000509951               0.999999989               0.000107690              -0.000479749               0.999999989              -0.000497872              -0.000925794               0.999999989              -0.000387532              -0.000823561               0.999999989              -0.000350914              -0.000784701               0.999999989              -0.000337618              -0.000774194               0.999999989              -0.000330960              -0.000775667               0.999999989              -0.000324306              -0.000781536               0.999999989              -0.000313904              -0.000787822               0.999999989              -0.000297761              -0.000791988               0.999999989              -0.000274343              -0.000792467               0.999999989              -0.000243281              -0.000788252               0.999999989              -0.000204397              -0.000779165               0.999999989              -0.000158157              -0.000765554               0.999999989              -0.000105644              -0.000748451               0.999999989              -0.000047996              -0.000728772               0.999999989               0.000013173              -0.000707654               0.999999989               0.000076243              -0.000686280               0.999999989               0.000139785              -0.000665789               0.999999989              -0.000435400              -0.001001929               0.999999989              -0.000326248              -0.000921507               0.999999989              -0.000287589              -0.000885553               0.999999989              -0.000273197              -0.000873189               0.999999989              -0.000266480              -0.000873195               0.999999989              -0.000260753              -0.000879071               0.999999989              -0.000252539              -0.000887100               0.999999989              -0.000239648              -0.000894882               0.999999989              -0.000220716              -0.000900765               0.999999989              -0.000194946              -0.000903751               0.999999989              -0.000162032              -0.000903203               0.999999989              -0.000121683              -0.000899094               0.999999989              -0.000074397              -0.000891844               0.999999989              -0.000020908              -0.000882240               0.999999989               0.000037621              -0.000871032               0.999999989               0.000099569              -0.000859234               0.999999989               0.000163411              -0.000847797               0.999999989              -0.000368934              -0.001069038               0.999999989              -0.000267291              -0.001013600               0.999999989              -0.000228373              -0.000984696               0.999999989              -0.000212785              -0.000973651               0.999999989              -0.000205457              -0.000973700               0.999999989              -0.000199968              -0.000980259               0.999999989              -0.000193281              -0.000990212               0.999999989              -0.000183194              -0.001001316               0.999999989              -0.000168175              -0.001012037               0.999999989              -0.000147232              -0.001021366               0.999999989              -0.000120013              -0.001028519               0.999999989              -0.000085976              -0.001033069               0.999999989              -0.000045185              -0.001034831               0.999999989               0.000002437              -0.001034197               0.999999989               0.000056453              -0.001031868               0.999999989               0.000115832              -0.001028774               0.999999989               0.000179125              -0.001025723               0.999999989              -0.000299184              -0.001125739               0.999999989              -0.000210749              -0.001095928               0.999999989              -0.000174107              -0.001077016               0.999999989              -0.000158100              -0.001070033               0.999999989              -0.000150136              -0.001072043               0.999999989              -0.000144697              -0.001080245               0.999999989              -0.000139037              -0.001092486               0.999999989              -0.000131149              -0.001106895               0.999999989              -0.000119525              -0.001122199               0.999999989              -0.000103157              -0.001137289               0.999999989              -0.000081468              -0.001151342               0.999999989              -0.000054168              -0.001163848               0.999999989              -0.000020503              -0.001174349               0.999999989               0.000020013              -0.001182761               0.999999989               0.000067875              -0.001189388               0.999999989               0.000122943              -0.001194812               0.999999989               0.000184591              -0.001199924               0.999999989              -0.000226787              -0.001170969               0.999999989              -0.000156355              -0.001164544               0.999999989              -0.000124937              -0.001156929               0.999999989              -0.000110062              -0.001155699               0.999999989              -0.000102237              -0.001161040               0.999999989              -0.000097111              -0.001171805               0.999999989              -0.000092431              -0.001186624               0.999999989              -0.000086266              -0.001204421               0.999999989              -0.000077601              -0.001224046               0.999999989              -0.000065557              -0.001244469               0.999999989              -0.000049423              -0.001264829               0.999999989              -0.000028810              -0.001284580               0.999999989              -0.000002949              -0.001303304               0.999999989               0.000029290              -0.001320614               0.999999989               0.000068947              -0.001336450               0.999999989               0.000116733              -0.001350827               0.999999989               0.000173378              -0.001364241               0.999999989              -0.000152346              -0.001203969               0.999999989              -0.000103492              -0.001216151               0.999999989              -0.000080346              -0.001218834               0.999999989              -0.000068772              -0.001223469               0.999999989              -0.000062400              -0.001232505               0.999999989              -0.000058228              -0.001246104               0.999999989              -0.000054645              -0.001263603               0.999999989              -0.000050331              -0.001284385               0.999999989              -0.000044478              -0.001307612               0.999999989              -0.000036487              -0.001332491               0.999999989              -0.000025785              -0.001358279               0.999999989              -0.000012052              -0.001384418               0.999999989               0.000005478              -0.001410390               0.999999989               0.000028021              -0.001435719               0.999999989               0.000056643              -0.001460023               0.999999989               0.000092731              -0.001482992               0.999999989               0.000137697              -0.001504495               0.999999989              -0.000076504              -0.001224054               0.999999989              -0.000051541              -0.001248179               0.999999989              -0.000039240              -0.001258029               0.999999989              -0.000032888              -0.001267077               0.999999989              -0.000029279              -0.001279086               0.999999989              -0.000026884              -0.001294932               0.999999989              -0.000024917              -0.001314429               0.999999989              -0.000022710              -0.001337267               0.999999989              -0.000019756              -0.001362896               0.999999989              -0.000015691              -0.001390710               0.999999989              -0.000010356              -0.001420090               0.999999989              -0.000003535              -0.001450571               0.999999989               0.000005262              -0.001481714               0.999999989               0.000016783              -0.001512976               0.999999989               0.000031916              -0.001543669               0.999999989               0.000051502              -0.001573235               0.999999989               0.000076920              -0.001601004               0.999999989              -0.000000000              -0.001230722               0.999999989              -0.000000000              -0.001258944               0.999999989               0.000000000              -0.001271447               0.999999989               0.000000000              -0.001282212               0.999999989               0.000000000              -0.001295278               0.999999989               0.000000000              -0.001311938               0.999999989               0.000000000              -0.001332212               0.999999989              -0.000000000              -0.001355817               0.999999989               0.000000000              -0.001382309               0.999999989              -0.000000000              -0.001411072               0.999999989              -0.000000000              -0.001441641               0.999999989              -0.000000000              -0.001473746               0.999999989               0.000000000              -0.001506925               0.999999989              -0.000000000              -0.001540617               0.999999989              -0.000000000              -0.001574007               0.999999989               0.000000000              -0.001606277               0.999999989               0.000000000              -0.001636529               0.999999989               0.000812611              -0.000000000               0.999999989               0.000856911               0.000000000               0.999999989               0.000875546               0.000000000               0.999999989               0.000885851               0.000000000               0.999999989               0.000894136               0.000000000               0.999999989               0.000902536               0.000000000               0.999999989               0.000911716               0.000000000               0.999999989               0.000921547              -0.000000000               0.999999989               0.000931882              -0.000000000               0.999999989               0.000942430               0.000000000               0.999999989               0.000953007               0.000000000               0.999999989               0.000963233               0.000000000               0.999999989               0.000972737              -0.000000000               0.999999989               0.000981205              -0.000000000               0.999999989               0.000988209               0.000000000               0.999999989               0.000993288              -0.000000000               0.999999989               0.000995701               0.000000000               0.999999989               0.000808105              -0.000115869               0.999999989               0.000848621              -0.000091728               0.999999989               0.000864854              -0.000080420               0.999999989               0.000873622              -0.000075354               0.999999989               0.000880750              -0.000073523               0.999999989               0.000888214              -0.000073249               0.999999989               0.000896590              -0.000073337               0.999999989               0.000905687              -0.000073181               0.999999989               0.000915185              -0.000072419               0.999999989               0.000924747              -0.000070839               0.999999989               0.000934029              -0.000068150               0.999999989               0.000942746              -0.000064028               0.999999989               0.000950586              -0.000058129               0.999999989               0.000957164              -0.000050085               0.999999989               0.000962164              -0.000039347               0.999999989               0.000965025              -0.000025151               0.999999989               0.000965218              -0.000006239               0.999999989               0.000794779              -0.000230733               0.999999989               0.000824215              -0.000183165               0.999999989               0.000833561              -0.000161699               0.999999989               0.000837950              -0.000152630               0.999999989               0.000842053              -0.000149611               0.999999989               0.000847191              -0.000149494               0.999999989               0.000853423              -0.000150080               0.999999989               0.000860283              -0.000150042               0.999999989               0.000867267              -0.000148674               0.999999989               0.000873890              -0.000145504               0.999999989               0.000879684              -0.000140052               0.999999989               0.000884372              -0.000131943               0.999999989               0.000887611              -0.000120583               0.999999989               0.000889031              -0.000105192               0.999999989               0.000888336              -0.000084900               0.999999989               0.000885160              -0.000058530               0.999999989               0.000879353              -0.000024933               0.999999989               0.000772814              -0.000343606               0.999999989               0.000784816              -0.000274106               0.999999989               0.000784178              -0.000244619               0.999999989               0.000782612              -0.000233182               0.999999989               0.000782837              -0.000230096               0.999999989               0.000784907              -0.000230814               0.999999989               0.000788213              -0.000232289               0.999999989               0.000791801              -0.000232528               0.999999989               0.000795014              -0.000230634               0.999999989               0.000797273              -0.000225919               0.999999989               0.000798027              -0.000217881               0.999999989               0.000796888              -0.000205934               0.999999989               0.000793424              -0.000189500               0.999999989               0.000787318              -0.000167585               0.999999989               0.000778367              -0.000139442               0.999999989               0.000766584              -0.000104347               0.999999989               0.000752341              -0.000061783               0.999999989               0.000742631              -0.000453496               0.999999989               0.000732542              -0.000364545               0.999999989               0.000720762              -0.000329718               0.999999989               0.000713226              -0.000317718               0.999999989               0.000709807              -0.000315727               0.999999989               0.000708881              -0.000317720               0.999999989               0.000709000              -0.000320178               0.999999989               0.000708824              -0.000320683               0.999999989               0.000707431              -0.000318254               0.999999989               0.000704136              -0.000312089               0.999999989               0.000698410              -0.000301533               0.999999989               0.000689646              -0.000285989               0.999999989               0.000677582              -0.000264835               0.999999989               0.000662016              -0.000237643               0.999999989               0.000643209              -0.000203933               0.999999989               0.000621668              -0.000163856               0.999999989               0.000598206              -0.000117959               0.999999989               0.000704967              -0.000559385               0.999999989               0.000670038              -0.000454639               0.999999989               0.000647831              -0.000417100               0.999999989               0.000635707              -0.000406031               0.999999989               0.000629696              -0.000405703               0.999999989               0.000626316              -0.000409056               0.999999989               0.000623238              -0.000412335               0.999999989               0.000618879              -0.000413100               0.999999989               0.000612240              -0.000410075               0.999999989               0.000602458              -0.000402289               0.999999989               0.000588829              -0.000389175               0.999999989               0.000571004              -0.000370212               0.999999989               0.000548993              -0.000345278               0.999999989               0.000523175              -0.000314219               0.999999989               0.000494115              -0.000277462               0.999999989               0.000462782              -0.000235711               0.999999989               0.000430347              -0.000190777               0.999999989               0.000660525              -0.000660291               0.999999989               0.000600224              -0.000544501               0.999999989               0.000570020              -0.000506396               0.999999989               0.000555460              -0.000497076               0.999999989               0.000548081              -0.000498524               0.999999989               0.000542809              -0.000502940               0.999999989               0.000536617              -0.000506887               0.999999989               0.000527758              -0.000507687               0.999999989               0.000515062              -0.000503771               0.999999989               0.000497652              -0.000494311               0.999999989               0.000474985              -0.000478607               0.999999989               0.000447189              -0.000456809               0.999999989               0.000414654              -0.000429127               0.999999989               0.000378162              -0.000396110               0.999999989               0.000338722              -0.000358360               0.999999989               0.000297688              -0.000317507               0.999999989               0.000256149              -0.000275704               0.999999989               0.000609992              -0.000755291               0.999999989               0.000526353              -0.000633955               0.999999989               0.000491625              -0.000596825               0.999999989               0.000477049              -0.000589215               0.999999989               0.000469444              -0.000592080               0.999999989               0.000462574              -0.000597351               0.999999989               0.000453200              -0.000601597               0.999999989               0.000439285              -0.000602158               0.999999989               0.000419437              -0.000597137               0.999999989               0.000393118              -0.000585823               0.999999989               0.000360246              -0.000568113               0.999999989               0.000321332              -0.000544534               0.999999989               0.000277248              -0.000515768               0.999999989               0.000229334              -0.000482543               0.999999989               0.000178970              -0.000446226               0.999999989               0.000127669              -0.000408780               0.999999989               0.000076652              -0.000371688               0.999999989               0.000555024              -0.000842663               0.999999989               0.000451006              -0.000722892               0.999999989               0.000416560              -0.000687065               0.999999989               0.000403709              -0.000680543               0.999999989               0.000396501              -0.000684404               0.999999989               0.000388095              -0.000690472               0.999999989               0.000375023              -0.000694798               0.999999989               0.000354954              -0.000694712               0.999999989               0.000326695              -0.000688525               0.999999989               0.000290124              -0.000675812               0.999999989               0.000245662              -0.000656806               0.999999989               0.000194389              -0.000632614               0.999999989               0.000137726              -0.000604306               0.999999989               0.000077533              -0.000573405               0.999999989               0.000015644              -0.000541458               0.999999989              -0.000046354              -0.000509951               0.999999989              -0.000107690              -0.000479749               0.999999989               0.000497872              -0.000925794               0.999999989               0.000387532              -0.000823561               0.999999989               0.000350914              -0.000784701               0.999999989               0.000337618              -0.000774194               0.999999989               0.000330960              -0.000775667               0.999999989               0.000324306              -0.000781536               0.999999989               0.000313904              -0.000787822               0.999999989               0.000297761              -0.000791988               0.999999989               0.000274343              -0.000792467               0.999999989               0.000243281              -0.000788252               0.999999989               0.000204397              -0.000779165               0.999999989               0.000158157              -0.000765554               0.999999989               0.000105644              -0.000748451               0.999999989               0.000047996              -0.000728772               0.999999989              -0.000013173              -0.000707654               0.999999989              -0.000076243              -0.000686280               0.999999989              -0.000139785              -0.000665789               0.999999989               0.000435400              -0.001001929               0.999999989               0.000326248              -0.000921507               0.999999989               0.000287589              -0.000885553               0.999999989               0.000273197              -0.000873189               0.999999989               0.000266480              -0.000873195               0.999999989               0.000260753              -0.000879071               0.999999989               0.000252539              -0.000887100               0.999999989               0.000239648              -0.000894882               0.999999989               0.000220716              -0.000900765               0.999999989               0.000194946              -0.000903751               0.999999989               0.000162032              -0.000903203               0.999999989               0.000121683              -0.000899094               0.999999989               0.000074397              -0.000891844               0.999999989               0.000020908              -0.000882240               0.999999989              -0.000037621              -0.000871032               0.999999989              -0.000099569              -0.000859234               0.999999989              -0.000163411              -0.000847797               0.999999989               0.000368934              -0.001069038               0.999999989               0.000267291              -0.001013600               0.999999989               0.000228373              -0.000984696               0.999999989               0.000212785              -0.000973651               0.999999989               0.000205457              -0.000973700               0.999999989               0.000199968              -0.000980259               0.999999989               0.000193281              -0.000990212               0.999999989               0.000183194              -0.001001316               0.999999989               0.000168175              -0.001012037               0.999999989               0.000147232              -0.001021366               0.999999989               0.000120013              -0.001028519               0.999999989               0.000085976              -0.001033069               0.999999989               0.000045185              -0.001034831               0.999999989              -0.000002437              -0.001034197               0.999999989              -0.000056453              -0.001031868               0.999999989              -0.000115832              -0.001028774               0.999999989              -0.000179125              -0.001025723               0.999999989               0.000299184              -0.001125739               0.999999989               0.000210749              -0.001095928               0.999999989               0.000174107              -0.001077016               0.999999989               0.000158100              -0.001070033               0.999999989               0.000150136              -0.001072043               0.999999989               0.000144697              -0.001080245               0.999999989               0.000139037              -0.001092486               0.999999989               0.000131149              -0.001106895               0.999999989               0.000119525              -0.001122199               0.999999989               0.000103157              -0.001137289               0.999999989               0.000081468              -0.001151342               0.999999989               0.000054168              -0.001163848               0.999999989               0.000020503              -0.001174349               0.999999989              -0.000020013              -0.001182761               0.999999989              -0.000067875              -0.001189388               0.999999989              -0.000122943              -0.001194812               0.999999989              -0.000184591              -0.001199924               0.999999989               0.000226787              -0.001170969               0.999999989               0.000156355              -0.001164544               0.999999989               0.000124937              -0.001156929               0.999999989               0.000110062              -0.001155699               0.999999989               0.000102237              -0.001161040               0.999999989               0.000097111              -0.001171805               0.999999989               0.000092431              -0.001186624               0.999999989               0.000086266              -0.001204421               0.999999989               0.000077601              -0.001224046               0.999999989               0.000065557              -0.001244469               0.999999989               0.000049423              -0.001264829               0.999999989               0.000028810              -0.001284580               0.999999989               0.000002949              -0.001303304               0.999999989              -0.000029290              -0.001320614               0.999999989              -0.000068947              -0.001336450               0.999999989              -0.000116733              -0.001350827               0.999999989              -0.000173378              -0.001364241               0.999999989               0.000152346              -0.001203969               0.999999989               0.000103492              -0.001216151               0.999999989               0.000080346              -0.001218834               0.999999989               0.000068772              -0.001223469               0.999999989               0.000062400              -0.001232505               0.999999989               0.000058228              -0.001246104               0.999999989               0.000054645              -0.001263603               0.999999989               0.000050331              -0.001284385               0.999999989               0.000044478              -0.001307612               0.999999989               0.000036487              -0.001332491               0.999999989               0.000025785              -0.001358279               0.999999989               0.000012052              -0.001384418               0.999999989              -0.000005478              -0.001410390               0.999999989              -0.000028021              -0.001435719               0.999999989              -0.000056643              -0.001460023               0.999999989              -0.000092731              -0.001482992               0.999999989              -0.000137697              -0.001504495               0.999999989               0.000076504              -0.001224054               0.999999989               0.000051541              -0.001248179               0.999999989               0.000039240              -0.001258029               0.999999989               0.000032888              -0.001267077               0.999999989               0.000029279              -0.001279086               0.999999989               0.000026884              -0.001294932               0.999999989               0.000024917              -0.001314429               0.999999989               0.000022710              -0.001337267               0.999999989               0.000019756              -0.001362896               0.999999989               0.000015691              -0.001390710               0.999999989               0.000010356              -0.001420090               0.999999989               0.000003535              -0.001450571               0.999999989              -0.000005262              -0.001481714               0.999999989              -0.000016783              -0.001512976               0.999999989              -0.000031916              -0.001543669               0.999999989              -0.000051502              -0.001573235               0.999999989              -0.000076920              -0.001601004               0.999999989              -0.000000000              -0.001230722               0.999999989              -0.000000000              -0.001258944               0.999999989               0.000000000              -0.001271447               0.999999989               0.000000000              -0.001282212               0.999999989               0.000000000              -0.001295278               0.999999989               0.000000000              -0.001311938               0.999999989               0.000000000              -0.001332212               0.999999989              -0.000000000              -0.001355817               0.999999989               0.000000000              -0.001382309               0.999999989              -0.000000000              -0.001411072               0.999999989              -0.000000000              -0.001441641               0.999999989              -0.000000000              -0.001473746               0.999999989               0.000000000              -0.001506925               0.999999989              -0.000000000              -0.001540617               0.999999989              -0.000000000              -0.001574007               0.999999989               0.000000000              -0.001606277               0.999999989               0.000000000              -0.001636529               0.999999989               0.000812611              -0.000000000               0.999999989               0.000856911               0.000000000               0.999999989               0.000875546               0.000000000               0.999999989               0.000885851               0.000000000               0.999999989               0.000894136               0.000000000               0.999999989               0.000902536               0.000000000               0.999999989               0.000911716               0.000000000               0.999999989               0.000921547              -0.000000000               0.999999989               0.000931882              -0.000000000               0.999999989               0.000942430               0.000000000               0.999999989               0.000953007               0.000000000               0.999999989               0.000963233               0.000000000               0.999999989               0.000972737              -0.000000000               0.999999989               0.000981205              -0.000000000               0.999999989               0.000988209               0.000000000               0.999999989               0.000993288              -0.000000000               0.999999989               0.000995701               0.000000000               0.999999989               0.000808105               0.000115869               0.999999989               0.000848621               0.000091728               0.999999989               0.000864854               0.000080420               0.999999989               0.000873622               0.000075354               0.999999989               0.000880750               0.000073523               0.999999989               0.000888214               0.000073249               0.999999989               0.000896590               0.000073337               0.999999989               0.000905687               0.000073181               0.999999989               0.000915185               0.000072419               0.999999989               0.000924747               0.000070839               0.999999989               0.000934029               0.000068150               0.999999989               0.000942746               0.000064028               0.999999989               0.000950586               0.000058129               0.999999989               0.000957164               0.000050085               0.999999989               0.000962164               0.000039347               0.999999989               0.000965025               0.000025151               0.999999989               0.000965218               0.000006239               0.999999989               0.000794779               0.000230733               0.999999989               0.000824215               0.000183165               0.999999989               0.000833561               0.000161699               0.999999989               0.000837950               0.000152630               0.999999989               0.000842053               0.000149611               0.999999989               0.000847191               0.000149494               0.999999989               0.000853423               0.000150080               0.999999989               0.000860283               0.000150042               0.999999989               0.000867267               0.000148674               0.999999989               0.000873890               0.000145504               0.999999989               0.000879684               0.000140052               0.999999989               0.000884372               0.000131943               0.999999989               0.000887611               0.000120583               0.999999989               0.000889031               0.000105192               0.999999989               0.000888336               0.000084900               0.999999989               0.000885160               0.000058530               0.999999989               0.000879353               0.000024933               0.999999989               0.000772814               0.000343606               0.999999989               0.000784816               0.000274106               0.999999989               0.000784178               0.000244619               0.999999989               0.000782612               0.000233182               0.999999989               0.000782837               0.000230096               0.999999989               0.000784907               0.000230814               0.999999989               0.000788213               0.000232289               0.999999989               0.000791801               0.000232528               0.999999989               0.000795014               0.000230634               0.999999989               0.000797273               0.000225919               0.999999989               0.000798027               0.000217881               0.999999989               0.000796888               0.000205934               0.999999989               0.000793424               0.000189500               0.999999989               0.000787318               0.000167585               0.999999989               0.000778367               0.000139442               0.999999989               0.000766584               0.000104347               0.999999989               0.000752341               0.000061783               0.999999989               0.000742631               0.000453496               0.999999989               0.000732542               0.000364545               0.999999989               0.000720762               0.000329718               0.999999989               0.000713226               0.000317718               0.999999989               0.000709807               0.000315727               0.999999989               0.000708881               0.000317720               0.999999989               0.000709000               0.000320178               0.999999989               0.000708824               0.000320683               0.999999989               0.000707431               0.000318254               0.999999989               0.000704136               0.000312089               0.999999989               0.000698410               0.000301533               0.999999989               0.000689646               0.000285989               0.999999989               0.000677582               0.000264835               0.999999989               0.000662016               0.000237643               0.999999989               0.000643209               0.000203933               0.999999989               0.000621668               0.000163856               0.999999989               0.000598206               0.000117959               0.999999989               0.000704967               0.000559385               0.999999989               0.000670038               0.000454639               0.999999989               0.000647831               0.000417100               0.999999989               0.000635707               0.000406031               0.999999989               0.000629696               0.000405703               0.999999989               0.000626316               0.000409056               0.999999989               0.000623238               0.000412335               0.999999989               0.000618879               0.000413100               0.999999989               0.000612240               0.000410075               0.999999989               0.000602458               0.000402289               0.999999989               0.000588829               0.000389175               0.999999989               0.000571004               0.000370212               0.999999989               0.000548993               0.000345278               0.999999989               0.000523175               0.000314219               0.999999989               0.000494115               0.000277462               0.999999989               0.000462782               0.000235711               0.999999989               0.000430347               0.000190777               0.999999989               0.000660525               0.000660291               0.999999989               0.000600224               0.000544501               0.999999989               0.000570020               0.000506396               0.999999989               0.000555460               0.000497076               0.999999989               0.000548081               0.000498524               0.999999989               0.000542809               0.000502940               0.999999989               0.000536617               0.000506887               0.999999989               0.000527758               0.000507687               0.999999989               0.000515062               0.000503771               0.999999989               0.000497652               0.000494311               0.999999989               0.000474985               0.000478607               0.999999989               0.000447189               0.000456809               0.999999989               0.000414654               0.000429127               0.999999989               0.000378162               0.000396110               0.999999989               0.000338722               0.000358360               0.999999989               0.000297688               0.000317507               0.999999989               0.000256149               0.000275704               0.999999989               0.000609992               0.000755291               0.999999989               0.000526353               0.000633955               0.999999989               0.000491625               0.000596825               0.999999989               0.000477049               0.000589215               0.999999989               0.000469444               0.000592080               0.999999989               0.000462574               0.000597351               0.999999989               0.000453200               0.000601597               0.999999989               0.000439285               0.000602158               0.999999989               0.000419437               0.000597137               0.999999989               0.000393118               0.000585823               0.999999989               0.000360246               0.000568113               0.999999989               0.000321332               0.000544534               0.999999989               0.000277248               0.000515768               0.999999989               0.000229334               0.000482543               0.999999989               0.000178970               0.000446226               0.999999989               0.000127669               0.000408780               0.999999989               0.000076652               0.000371688               0.999999989               0.000555024               0.000842663               0.999999989               0.000451006               0.000722892               0.999999989               0.000416560               0.000687065               0.999999989               0.000403709               0.000680543               0.999999989               0.000396501               0.000684404               0.999999989               0.000388095               0.000690472               0.999999989               0.000375023               0.000694798               0.999999989               0.000354954               0.000694712               0.999999989               0.000326695               0.000688525               0.999999989               0.000290124               0.000675812               0.999999989               0.000245662               0.000656806               0.999999989               0.000194389               0.000632614               0.999999989               0.000137726               0.000604306               0.999999989               0.000077533               0.000573405               0.999999989               0.000015644               0.000541458               0.999999989              -0.000046354               0.000509951               0.999999989              -0.000107690               0.000479749               0.999999989               0.000497872               0.000925794               0.999999989               0.000387532               0.000823561               0.999999989               0.000350914               0.000784701               0.999999989               0.000337618               0.000774194               0.999999989               0.000330960               0.000775667               0.999999989               0.000324306               0.000781536               0.999999989               0.000313904               0.000787822               0.999999989               0.000297761               0.000791988               0.999999989               0.000274343               0.000792467               0.999999989               0.000243281               0.000788252               0.999999989               0.000204397               0.000779165               0.999999989               0.000158157               0.000765554               0.999999989               0.000105644               0.000748451               0.999999989               0.000047996               0.000728772               0.999999989              -0.000013173               0.000707654               0.999999989              -0.000076243               0.000686280               0.999999989              -0.000139785               0.000665789               0.999999989               0.000435400               0.001001929               0.999999989               0.000326248               0.000921507               0.999999989               0.000287589               0.000885553               0.999999989               0.000273197               0.000873189               0.999999989               0.000266480               0.000873195               0.999999989               0.000260753               0.000879071               0.999999989               0.000252539               0.000887100               0.999999989               0.000239648               0.000894882               0.999999989               0.000220716               0.000900765               0.999999989               0.000194946               0.000903751               0.999999989               0.000162032               0.000903203               0.999999989               0.000121683               0.000899094               0.999999989               0.000074397               0.000891844               0.999999989               0.000020908               0.000882240               0.999999989              -0.000037621               0.000871032               0.999999989              -0.000099569               0.000859234               0.999999989              -0.000163411               0.000847797               0.999999989               0.000368934               0.001069038               0.999999989               0.000267291               0.001013600               0.999999989               0.000228373               0.000984696               0.999999989               0.000212785               0.000973651               0.999999989               0.000205457               0.000973700               0.999999989               0.000199968               0.000980259               0.999999989               0.000193281               0.000990212               0.999999989               0.000183194               0.001001316               0.999999989               0.000168175               0.001012037               0.999999989               0.000147232               0.001021366               0.999999989               0.000120013               0.001028519               0.999999989               0.000085976               0.001033069               0.999999989               0.000045185               0.001034831               0.999999989              -0.000002437               0.001034197               0.999999989              -0.000056453               0.001031868               0.999999989              -0.000115832               0.001028774               0.999999989              -0.000179125               0.001025723               0.999999989               0.000299184               0.001125739               0.999999989               0.000210749               0.001095928               0.999999989               0.000174107               0.001077016               0.999999989               0.000158100               0.001070033               0.999999989               0.000150136               0.001072043               0.999999989               0.000144697               0.001080245               0.999999989               0.000139037               0.001092486               0.999999989               0.000131149               0.001106895               0.999999989               0.000119525               0.001122199               0.999999989               0.000103157               0.001137289               0.999999989               0.000081468               0.001151342               0.999999989               0.000054168               0.001163848               0.999999989               0.000020503               0.001174349               0.999999989              -0.000020013               0.001182761               0.999999989              -0.000067875               0.001189388               0.999999989              -0.000122943               0.001194812               0.999999989              -0.000184591               0.001199924               0.999999989               0.000226787               0.001170969               0.999999989               0.000156355               0.001164544               0.999999989               0.000124937               0.001156929               0.999999989               0.000110062               0.001155699               0.999999989               0.000102237               0.001161040               0.999999989               0.000097111               0.001171805               0.999999989               0.000092431               0.001186624               0.999999989               0.000086266               0.001204421               0.999999989               0.000077601               0.001224046               0.999999989               0.000065557               0.001244469               0.999999989               0.000049423               0.001264829               0.999999989               0.000028810               0.001284580               0.999999989               0.000002949               0.001303304               0.999999989              -0.000029290               0.001320614               0.999999989              -0.000068947               0.001336450               0.999999989              -0.000116733               0.001350827               0.999999989              -0.000173378               0.001364241               0.999999989               0.000152346               0.001203969               0.999999989               0.000103492               0.001216151               0.999999989               0.000080346               0.001218834               0.999999989               0.000068772               0.001223469               0.999999989               0.000062400               0.001232505               0.999999989               0.000058228               0.001246104               0.999999989               0.000054645               0.001263603               0.999999989               0.000050331               0.001284385               0.999999989               0.000044478               0.001307612               0.999999989               0.000036487               0.001332491               0.999999989               0.000025785               0.001358279               0.999999989               0.000012052               0.001384418               0.999999989              -0.000005478               0.001410390               0.999999989              -0.000028021               0.001435719               0.999999989              -0.000056643               0.001460023               0.999999989              -0.000092731               0.001482992               0.999999989              -0.000137697               0.001504495               0.999999989               0.000076504               0.001224054               0.999999989               0.000051541               0.001248179               0.999999989               0.000039240               0.001258029               0.999999989               0.000032888               0.001267077               0.999999989               0.000029279               0.001279086               0.999999989               0.000026884               0.001294932               0.999999989               0.000024917               0.001314429               0.999999989               0.000022710               0.001337267               0.999999989               0.000019756               0.001362896               0.999999989               0.000015691               0.001390710               0.999999989               0.000010356               0.001420090               0.999999989               0.000003535               0.001450571               0.999999989              -0.000005262               0.001481714               0.999999989              -0.000016783               0.001512976               0.999999989              -0.000031916               0.001543669               0.999999989              -0.000051502               0.001573235               0.999999989              -0.000076920               0.001601004               0.999999989              -0.000000000               0.001230722               0.999999989              -0.000000000               0.001258944               0.999999989              -0.000000000               0.001271447               0.999999989               0.000000000               0.001282212               0.999999989              -0.000000000               0.001295278               0.999999989              -0.000000000               0.001311938               0.999999989               0.000000000               0.001332212               0.999999989               0.000000000               0.001355817               0.999999989              -0.000000000               0.001382309               0.999999989               0.000000000               0.001411072               0.999999989               0.000000000               0.001441641               0.999999989               0.000000000               0.001473746               0.999999989              -0.000000000               0.001506925               0.999999989               0.000000000               0.001540617               0.999999989               0.000000000               0.001574007               0.999999989              -0.000000000               0.001606277               0.999999989              -0.000000000               0.001636529               0.999999989 </DataArray>
<DataArray type="Float64"                                    Name="stress"                                                      NumberOfComponents="10" format="ascii">
              0.001964482               0.021012585              -0.000000000              -0.001889888               0.007634087               0.005744200               0.000000000               0.000000000               0.000000000               0.000000000               0.001866902               0.016091368              -0.000000000              -0.001311329               0.005800845               0.004489516               0.000000000               0.000000000               0.000000000               0.000000000               0.002380552               0.012072147              -0.000000000              -0.000616310               0.004229446               0.003613135               0.000000000               0.000000000               0.000000000               0.000000000               0.002174212               0.009783219              -0.000000000              -0.000407572               0.003396898               0.002989326               0.000000000               0.000000000               0.000000000               0.000000000               0.001786603               0.008333766               0.000000000              -0.000371744               0.002901809               0.002530065               0.000000000               0.000000000               0.000000000               0.000000000               0.001391220               0.007319872              -0.000000000              -0.000393276               0.002571025               0.002177749               0.000000000               0.000000000               0.000000000               0.000000000               0.001045105               0.006533127              -0.000000000              -0.000424725               0.002319262               0.001894537               0.000000000               0.000000000               0.000000000               0.000000000               0.000760711               0.005870716              -0.000000000              -0.000448572               0.002106410               0.001657838               0.000000000               0.000000000               0.000000000               0.000000000               0.000528459               0.005277478              -0.000000000              -0.000461511               0.001912979               0.001451467               0.000000000               0.000000000               0.000000000               0.000000000               0.000339579               0.004722429              -0.000000000              -0.000462960               0.001728447               0.001265487               0.000000000               0.000000000               0.000000000               0.000000000               0.000188689               0.004181623               0.000000000              -0.000451943               0.001544508               0.001092565               0.000000000               0.000000000               0.000000000               0.000000000               0.000076448               0.003636736              -0.000000000              -0.000425923               0.001354207               0.000928285               0.000000000               0.000000000               0.000000000               0.000000000              -0.000003252               0.003070560              -0.000000000              -0.000385039               0.001151856               0.000766817               0.000000000               0.000000000               0.000000000               0.000000000              -0.000053051               0.002468108              -0.000000000              -0.000328407               0.000932163               0.000603756               0.000000000               0.000000000               0.000000000               0.000000000              -0.000069543               0.001811889              -0.000000000              -0.000252564               0.000688145               0.000435581               0.000000000               0.000000000               0.000000000               0.000000000              -0.000044086               0.001078555               0.000000000              -0.000151352               0.000409965               0.000258614               0.000000000               0.000000000               0.000000000               0.000000000              -0.000079857               0.000517369               0.000000000              -0.000094618               0.000203994               0.000109376               0.000000000               0.000000000               0.000000000               0.000000000               0.002022317               0.020562338              -0.001388540              -0.001811919               0.007458017               0.005646098               0.000000000               0.000000000               0.000000000               0.000000000               0.001806755               0.015805675              -0.000619957              -0.001298173               0.005701230               0.004403057               0.000000000               0.000000000               0.000000000               0.000000000               0.002194631               0.011959405               0.000135115              -0.000671937               0.004210408               0.003538470               0.000000000               0.000000000               0.000000000               0.000000000               0.001945371               0.009763892               0.000445664              -0.000490971               0.003418255               0.002927284               0.000000000               0.000000000               0.000000000               0.000000000               0.001550790               0.008358689               0.000569299              -0.000463289               0.002940631               0.002477343               0.000000000               0.000000000               0.000000000               0.000000000               0.001162378               0.007365373               0.000602616              -0.000484779               0.002616693               0.002131914               0.000000000               0.000000000               0.000000000               0.000000000               0.000830477               0.006591075               0.000591706              -0.000512454               0.002367821               0.001855367               0.000000000               0.000000000               0.000000000               0.000000000               0.000566149               0.005935636               0.000563855              -0.000529648               0.002155075               0.001625427               0.000000000               0.000000000               0.000000000               0.000000000               0.000358123               0.005345517               0.000532282              -0.000533892               0.001959785               0.001425893               0.000000000               0.000000000               0.000000000               0.000000000               0.000197175               0.004790726               0.000500356              -0.000524899               0.001771859               0.001246960               0.000000000               0.000000000               0.000000000               0.000000000               0.000073281               0.004249968               0.000467514              -0.000503765               0.001584563               0.001080799               0.000000000               0.000000000               0.000000000               0.000000000              -0.000017666               0.003709583               0.000430515              -0.000470322               0.001393289               0.000922967               0.000000000               0.000000000               0.000000000               0.000000000              -0.000075402               0.003156096               0.000386014              -0.000422787               0.001192950               0.000770164               0.000000000               0.000000000               0.000000000               0.000000000              -0.000104665               0.002573176               0.000329623              -0.000360896               0.000978015               0.000617120               0.000000000               0.000000000               0.000000000               0.000000000              -0.000100769               0.001947513               0.000253011              -0.000281227               0.000742907               0.000461680               0.000000000               0.000000000               0.000000000               0.000000000              -0.000057810               0.001264598               0.000143320              -0.000179753               0.000481446               0.000301693               0.000000000               0.000000000               0.000000000               0.000000000              -0.000081551               0.000755744               0.000089123              -0.000125049               0.000293595               0.000168546               0.000000000               0.000000000               0.000000000               0.000000000               0.002155348               0.019273962              -0.002565265              -0.001600987               0.006958252               0.005357265               0.000000000               0.000000000               0.000000000               0.000000000               0.001618161               0.014994932              -0.001138255              -0.001267553               0.005420778               0.004153225               0.000000000               0.000000000               0.000000000               0.000000000               0.001666402               0.011643371               0.000251272              -0.000830519               0.004157924               0.003327406               0.000000000               0.000000000               0.000000000               0.000000000               0.001301444               0.009697903               0.000800229              -0.000724195               0.003474000               0.002749805               0.000000000               0.000000000               0.000000000               0.000000000               0.000891379               0.008413049               0.001005777              -0.000717363               0.003043442               0.002326080               0.000000000               0.000000000               0.000000000               0.000000000               0.000534407               0.007476651               0.001056052              -0.000734177               0.002736918               0.002002740               0.000000000               0.000000000               0.000000000               0.000000000               0.000257515               0.006731227               0.001030608              -0.000744834               0.002491998               0.001747164               0.000000000               0.000000000               0.000000000               0.000000000               0.000055370               0.006087811               0.000977213              -0.000740211               0.002275987               0.001535776               0.000000000               0.000000000               0.000000000               0.000000000              -0.000087566               0.005502462               0.000917167              -0.000720643               0.002074350               0.001353707               0.000000000               0.000000000               0.000000000               0.000000000              -0.000179982               0.004950553               0.000855282              -0.000686311               0.001878938               0.001192627               0.000000000               0.000000000               0.000000000               0.000000000              -0.000235728               0.004416706               0.000791841              -0.000640485               0.001685715               0.001045230               0.000000000               0.000000000               0.000000000               0.000000000              -0.000262551               0.003890622               0.000723082              -0.000584783               0.001491788               0.000907005               0.000000000               0.000000000               0.000000000               0.000000000              -0.000257395               0.003365891               0.000640155              -0.000517259               0.001294372               0.000777113               0.000000000               0.000000000               0.000000000               0.000000000              -0.000226179               0.002830442               0.000535917              -0.000438621               0.001089678               0.000651057               0.000000000               0.000000000               0.000000000               0.000000000              -0.000168266               0.002282955               0.000400675              -0.000348468               0.000877134               0.000528665               0.000000000               0.000000000               0.000000000               0.000000000              -0.000086744               0.001729095               0.000222068              -0.000248665               0.000659248               0.000410582               0.000000000               0.000000000               0.000000000               0.000000000              -0.000083316               0.001345307               0.000136819              -0.000199406               0.000514900               0.000315494               0.000000000               0.000000000               0.000000000               0.000000000               0.002252748               0.017315573              -0.003370321              -0.001319665               0.006211688               0.004892023               0.000000000               0.000000000               0.000000000               0.000000000               0.001274553               0.013782854              -0.001491377              -0.001244897               0.005009204               0.003764307               0.000000000               0.000000000               0.000000000               0.000000000               0.000859838               0.011175234               0.000309410              -0.001074463               0.004083195               0.003008732               0.000000000               0.000000000               0.000000000               0.000000000               0.000363265               0.009578263               0.000976594              -0.001061056               0.003546408               0.002485352               0.000000000               0.000000000               0.000000000               0.000000000              -0.000034434               0.008460324               0.001206802              -0.001070451               0.003176896               0.002106446               0.000000000               0.000000000               0.000000000               0.000000000              -0.000319645               0.007595344               0.001254342              -0.001069283               0.002888183               0.001818901               0.000000000               0.000000000               0.000000000               0.000000000              -0.000501847               0.006876438               0.001213328              -0.001047745               0.002641371               0.001593626               0.000000000               0.000000000               0.000000000               0.000000000              -0.000603729               0.006242786               0.001140137              -0.001006745               0.002416489               0.001409745               0.000000000               0.000000000               0.000000000               0.000000000              -0.000651180               0.005664062               0.001060980              -0.000952198               0.002205401               0.001253203               0.000000000               0.000000000               0.000000000               0.000000000              -0.000652597               0.005122205               0.000980425              -0.000884998               0.002002384               0.001117386               0.000000000               0.000000000               0.000000000               0.000000000              -0.000617028               0.004604862               0.000897697              -0.000806991               0.001803936               0.000996944               0.000000000               0.000000000               0.000000000               0.000000000              -0.000552945               0.004102581               0.000809898              -0.000720176               0.001607572               0.000887396               0.000000000               0.000000000               0.000000000               0.000000000              -0.000461581               0.003614695               0.000705992              -0.000624928               0.001413196               0.000788267               0.000000000               0.000000000               0.000000000               0.000000000              -0.000349890               0.003146333               0.000576923              -0.000524499               0.001223600               0.000699101               0.000000000               0.000000000               0.000000000               0.000000000              -0.000226797               0.002706527               0.000418500              -0.000423364               0.001043288               0.000619924               0.000000000               0.000000000               0.000000000               0.000000000              -0.000105874               0.002315576               0.000225197              -0.000329149               0.000881567               0.000552418               0.000000000               0.000000000               0.000000000               0.000000000              -0.000074290               0.002076444               0.000133141              -0.000287414               0.000787946               0.000500532               0.000000000               0.000000000               0.000000000               0.000000000               0.002180118               0.014921891              -0.003735767              -0.001047692               0.005323144               0.004275452               0.000000000               0.000000000               0.000000000               0.000000000               0.000754482               0.012334645              -0.001668287              -0.001258898               0.004531139               0.003272242               0.000000000               0.000000000               0.000000000               0.000000000              -0.000133192               0.010609802               0.000276472              -0.001376169               0.003995288               0.002619119               0.000000000               0.000000000               0.000000000               0.000000000              -0.000707264               0.009392449               0.000939854              -0.001439277               0.003610544               0.002171267               0.000000000               0.000000000               0.000000000               0.000000000              -0.001036008               0.008440703               0.001146973              -0.001443587               0.003294735               0.001851148               0.000000000               0.000000000               0.000000000               0.000000000              -0.001200063               0.007642473               0.001180042              -0.001405330               0.003015909               0.001610579               0.000000000               0.000000000               0.000000000               0.000000000              -0.001253568               0.006948553               0.001133410              -0.001338654               0.002762379               0.001423725               0.000000000               0.000000000               0.000000000               0.000000000              -0.001228501               0.006333077               0.001056021              -0.001252320               0.002528444               0.001276125               0.000000000               0.000000000               0.000000000               0.000000000              -0.001154762               0.005771413               0.000973876              -0.001154460               0.002308605               0.001154145               0.000000000               0.000000000               0.000000000               0.000000000              -0.001047126               0.005245699               0.000891245              -0.001048382               0.002098009               0.001049627               0.000000000               0.000000000               0.000000000               0.000000000              -0.000908576               0.004749903               0.000807754              -0.000934452               0.001894769               0.000960317               0.000000000               0.000000000               0.000000000               0.000000000              -0.000747851               0.004281970               0.000718124              -0.000815689               0.001699205               0.000883517               0.000000000               0.000000000               0.000000000               0.000000000              -0.000572913               0.003848972               0.000614022              -0.000695962               0.001514965               0.000819003               0.000000000               0.000000000               0.000000000               0.000000000              -0.000394074               0.003464270               0.000486830              -0.000580810               0.001348349               0.000767538               0.000000000               0.000000000               0.000000000               0.000000000              -0.000231004               0.003142355               0.000336813              -0.000479420               0.001207248               0.000727828               0.000000000               0.000000000               0.000000000               0.000000000              -0.000099677               0.002902542               0.000172516              -0.000400196               0.001100903               0.000700707               0.000000000               0.000000000               0.000000000               0.000000000              -0.000053334               0.002788599               0.000093951              -0.000368574               0.001052382               0.000683808               0.000000000               0.000000000               0.000000000               0.000000000               0.001833174               0.012349355              -0.003667812              -0.000856230               0.004401820               0.003545589               0.000000000               0.000000000               0.000000000               0.000000000               0.000060790               0.010809553              -0.001692368              -0.001328395               0.004045946               0.002717551               0.000000000               0.000000000               0.000000000               0.000000000              -0.001206303               0.009984775               0.000134331              -0.001700456               0.003895044               0.002194587               0.000000000               0.000000000               0.000000000               0.000000000              -0.001759310               0.009116763               0.000704908              -0.001799332               0.003638668               0.001839336               0.000000000               0.000000000               0.000000000               0.000000000              -0.001952825               0.008306162               0.000869952              -0.001770575               0.003358885               0.001588309               0.000000000               0.000000000               0.000000000               0.000000000              -0.001952031               0.007569737               0.000896483              -0.001678225               0.003082629               0.001404404               0.000000000               0.000000000               0.000000000               0.000000000              -0.001846836               0.006914273               0.000862231              -0.001556844               0.002823683               0.001266839               0.000000000               0.000000000               0.000000000               0.000000000              -0.001683748               0.006327081               0.000799868              -0.001422287               0.002583102               0.001160814               0.000000000               0.000000000               0.000000000               0.000000000              -0.001486451               0.005787381               0.000731146              -0.001280839               0.002356054               0.001075215               0.000000000               0.000000000               0.000000000               0.000000000              -0.001260653               0.005287642               0.000661690              -0.001133697               0.002140429               0.001006731               0.000000000               0.000000000               0.000000000               0.000000000              -0.001019570               0.004823814               0.000591872              -0.000985313               0.001936360               0.000951047               0.000000000               0.000000000               0.000000000               0.000000000              -0.000775192               0.004406202               0.000515030              -0.000841470               0.001749209               0.000907739               0.000000000               0.000000000               0.000000000               0.000000000              -0.000542555               0.004045397               0.000423876              -0.000709131               0.001584829               0.000875698               0.000000000               0.000000000               0.000000000               0.000000000              -0.000333025               0.003752516               0.000315101              -0.000593947               0.001448809               0.000854861               0.000000000               0.000000000               0.000000000               0.000000000              -0.000166776               0.003535983               0.000196618              -0.000504537               0.001346828               0.000842291               0.000000000               0.000000000               0.000000000               0.000000000              -0.000060800               0.003408088               0.000088279              -0.000448810               0.001285621               0.000836811               0.000000000               0.000000000               0.000000000               0.000000000              -0.000023400               0.003372408               0.000040481              -0.000430325               0.001267566               0.000837241               0.000000000               0.000000000               0.000000000               0.000000000               0.001148081               0.009821893              -0.003239052              -0.000797207               0.003539666               0.002742459               0.000000000               0.000000000               0.000000000               0.000000000              -0.000774351               0.009327414              -0.001616605              -0.001456306               0.003594542               0.002138236               0.000000000               0.000000000               0.000000000               0.000000000              -0.002241353               0.009323861              -0.000125588              -0.002005985               0.003776584               0.001770599               0.000000000               0.000000000               0.000000000               0.000000000              -0.002655272               0.008742213               0.000315630              -0.002088498               0.003610208               0.001521710               0.000000000               0.000000000               0.000000000               0.000000000              -0.002656083               0.008050452               0.000449097              -0.002002333               0.003350902               0.001348569               0.000000000               0.000000000               0.000000000               0.000000000              -0.002472792               0.007381250               0.000489364              -0.001849948               0.003077041               0.001227093               0.000000000               0.000000000               0.000000000               0.000000000              -0.002203128               0.006775433               0.000486642              -0.001673098               0.002816154               0.001143056               0.000000000               0.000000000               0.000000000               0.000000000              -0.001899217               0.006224326               0.000455213              -0.001490243               0.002571502               0.001081259               0.000000000               0.000000000               0.000000000               0.000000000              -0.001584950               0.005713845               0.000418015              -0.001308584               0.002340791               0.001032207               0.000000000               0.000000000               0.000000000               0.000000000              -0.001261595               0.005249093               0.000377107              -0.001129232               0.002126091               0.000996859               0.000000000               0.000000000               0.000000000               0.000000000              -0.000944838               0.004837659               0.000332018              -0.000959019               0.001932210               0.000973191               0.000000000               0.000000000               0.000000000               0.000000000              -0.000651404               0.004492117               0.000280435              -0.000805789               0.001765954               0.000960165               0.000000000               0.000000000               0.000000000               0.000000000              -0.000396720               0.004217435               0.000216711              -0.000675948               0.001631114               0.000955166               0.000000000               0.000000000               0.000000000               0.000000000              -0.000195428               0.004016680               0.000140307              -0.000575369               0.001530670               0.000955301               0.000000000               0.000000000               0.000000000               0.000000000              -0.000064967               0.003892518               0.000066154              -0.000510926               0.001467802               0.000956875               0.000000000               0.000000000               0.000000000               0.000000000              -0.000008766               0.003848053               0.000018297              -0.000484293               0.001444102               0.000959810               0.000000000               0.000000000               0.000000000               0.000000000               0.000006191               0.003855340               0.000001243              -0.000479595               0.001444965               0.000965371               0.000000000               0.000000000               0.000000000               0.000000000               0.000152129               0.007492798              -0.002560858              -0.000879551               0.002790758               0.001911206               0.000000000               0.000000000               0.000000000               0.000000000              -0.001698748               0.007971414              -0.001496300              -0.001633454               0.003201596               0.001568142               0.000000000               0.000000000               0.000000000               0.000000000              -0.003130812               0.008633751              -0.000492937              -0.002253268               0.003628978               0.001375710               0.000000000               0.000000000               0.000000000               0.000000000              -0.003306678               0.008269181              -0.000166015              -0.002273646               0.003514248               0.001240602               0.000000000               0.000000000               0.000000000               0.000000000              -0.003084919               0.007690731              -0.000030976              -0.002118181               0.003269612               0.001151431               0.000000000               0.000000000               0.000000000               0.000000000              -0.002721729               0.007106723               0.000041296              -0.001908984               0.003005212               0.001096228               0.000000000               0.000000000               0.000000000               0.000000000              -0.002306106               0.006557231               0.000085210              -0.001684439               0.002747202               0.001062762               0.000000000               0.000000000               0.000000000               0.000000000              -0.001876281               0.006047455               0.000102968              -0.001459534               0.002502309               0.001042776               0.000000000               0.000000000               0.000000000               0.000000000              -0.001459936               0.005580731               0.000108271              -0.001245064               0.002275246               0.001030182               0.000000000               0.000000000               0.000000000               0.000000000              -0.001067521               0.005169386               0.000107164              -0.001046491               0.002071942               0.001025451               0.000000000               0.000000000               0.000000000               0.000000000              -0.000708922               0.004829209               0.000100584              -0.000869495               0.001899552               0.001030057               0.000000000               0.000000000               0.000000000               0.000000000              -0.000401583               0.004567517               0.000087172              -0.000721531               0.001763001               0.001041469               0.000000000               0.000000000               0.000000000               0.000000000              -0.000164821               0.004383968               0.000060504              -0.000609802               0.001664575               0.001054773               0.000000000               0.000000000               0.000000000               0.000000000              -0.000007949               0.004281618               0.000023564              -0.000538182               0.001606586               0.001068404               0.000000000               0.000000000               0.000000000               0.000000000               0.000066470               0.004259359              -0.000006127              -0.000507492               0.001588936               0.001081444               0.000000000               0.000000000               0.000000000               0.000000000               0.000060366               0.004294987              -0.000014293              -0.000514235               0.001603060               0.001088825               0.000000000               0.000000000               0.000000000               0.000000000               0.000043164               0.004340699              -0.000017201              -0.000526400               0.001622352               0.001095952               0.000000000               0.000000000               0.000000000               0.000000000              -0.001028801               0.005533915              -0.001747661              -0.001077538               0.002203799               0.001126261               0.000000000               0.000000000               0.000000000               0.000000000              -0.002608592               0.006764728              -0.001371227              -0.001823809               0.002862823               0.001039014               0.000000000               0.000000000               0.000000000               0.000000000              -0.003832203               0.007943246              -0.000936897              -0.002429976               0.003457714               0.001027738               0.000000000               0.000000000               0.000000000               0.000000000              -0.003751658               0.007810733              -0.000680865              -0.002383207               0.003397954               0.001014747               0.000000000               0.000000000               0.000000000               0.000000000              -0.003341754               0.007374315              -0.000515635              -0.002174942               0.003183061               0.001008119               0.000000000               0.000000000               0.000000000               0.000000000              -0.002830863               0.006892723              -0.000398760              -0.001923159               0.002938604               0.001015445               0.000000000               0.000000000               0.000000000               0.000000000              -0.002299433               0.006413858              -0.000304108              -0.001664015               0.002692603               0.001028588               0.000000000               0.000000000               0.000000000               0.000000000              -0.001773768               0.005952977              -0.000229351              -0.001409282               0.002454066               0.001044785               0.000000000               0.000000000               0.000000000               0.000000000              -0.001279076               0.005534569              -0.000172659              -0.001171472               0.002235329               0.001063857               0.000000000               0.000000000               0.000000000               0.000000000              -0.000831994               0.005173614              -0.000127653              -0.000958697               0.002044086               0.001085389               0.000000000               0.000000000               0.000000000               0.000000000              -0.000447668               0.004884918              -0.000087645              -0.000778488               0.001887786               0.001109297               0.000000000               0.000000000               0.000000000               0.000000000              -0.000141137               0.004675305              -0.000053621              -0.000637338               0.001770865               0.001133527               0.000000000               0.000000000               0.000000000               0.000000000               0.000078676               0.004551600              -0.000032253              -0.000539445               0.001697000               0.001157555               0.000000000               0.000000000               0.000000000               0.000000000               0.000205290               0.004517109              -0.000022659              -0.000487654               0.001668239               0.001180586               0.000000000               0.000000000               0.000000000               0.000000000               0.000247312               0.004563891              -0.000019012              -0.000477743               0.001680530               0.001202786               0.000000000               0.000000000               0.000000000               0.000000000               0.000223866               0.004667421              -0.000013416              -0.000499477               0.001722284               0.001222807               0.000000000               0.000000000               0.000000000               0.000000000               0.000192058               0.004740051              -0.000010444              -0.000520483               0.001753496               0.001233012               0.000000000               0.000000000               0.000000000               0.000000000              -0.002399372               0.003724510              -0.000896936              -0.001365325               0.001696599               0.000331274               0.000000000               0.000000000               0.000000000               0.000000000              -0.003384806               0.005371526              -0.001237318              -0.001940739               0.002437403               0.000496665               0.000000000               0.000000000               0.000000000               0.000000000              -0.004266269               0.006928632              -0.001404925              -0.002465924               0.003131495               0.000665571               0.000000000               0.000000000               0.000000000               0.000000000              -0.004036522               0.007150161              -0.001228576              -0.002407460               0.003185850               0.000778390               0.000000000               0.000000000               0.000000000               0.000000000              -0.003543759               0.006960626              -0.001036860              -0.002198983               0.003053180               0.000854197               0.000000000               0.000000000               0.000000000               0.000000000              -0.002984224               0.006657371              -0.000871917              -0.001951251               0.002869518               0.000918267               0.000000000               0.000000000               0.000000000               0.000000000              -0.002417672               0.006321350              -0.000728427              -0.001696792               0.002672693               0.000975901               0.000000000               0.000000000               0.000000000               0.000000000              -0.001864958               0.005979149              -0.000602412              -0.001446749               0.002475280               0.001028530               0.000000000               0.000000000               0.000000000               0.000000000              -0.001340705               0.005649863              -0.000494335              -0.001208994               0.002286267               0.001077273               0.000000000               0.000000000               0.000000000               0.000000000              -0.000862272               0.005347698              -0.000400237              -0.000991812               0.002113152               0.001121340               0.000000000               0.000000000               0.000000000               0.000000000              -0.000441129               0.005092089              -0.000311148              -0.000801932               0.001964657               0.001162724               0.000000000               0.000000000               0.000000000               0.000000000              -0.000094002               0.004900964              -0.000227132              -0.000647870               0.001849595               0.001201725               0.000000000               0.000000000               0.000000000               0.000000000               0.000172003               0.004783913              -0.000151630              -0.000533486               0.001772450               0.001238964               0.000000000               0.000000000               0.000000000               0.000000000               0.000349323               0.004735867              -0.000087893              -0.000460986               0.001732269               0.001271283               0.000000000               0.000000000               0.000000000               0.000000000               0.000444462               0.004759907              -0.000041830              -0.000428314               0.001729391               0.001301077               0.000000000               0.000000000               0.000000000               0.000000000               0.000477978               0.004856548              -0.000014545              -0.000427826               0.001761442               0.001333616               0.000000000               0.000000000               0.000000000               0.000000000               0.000469073               0.004920006              -0.000002457              -0.000439097               0.001786351               0.001347254               0.000000000               0.000000000               0.000000000               0.000000000              -0.004127493               0.002083753              -0.000075736              -0.001808276               0.001297334              -0.000510941               0.000000000               0.000000000               0.000000000               0.000000000              -0.004249502               0.003962392              -0.001048277              -0.002088858               0.002017069              -0.000071789               0.000000000               0.000000000               0.000000000               0.000000000              -0.004616647               0.005721213              -0.001785727              -0.002446388               0.002722514               0.000276126               0.000000000               0.000000000               0.000000000               0.000000000              -0.004252995               0.006277694              -0.001756068              -0.002379579               0.002885736               0.000506157               0.000000000               0.000000000               0.000000000               0.000000000              -0.003710313               0.006371780              -0.001568757              -0.002187835               0.002853183               0.000665348               0.000000000               0.000000000               0.000000000               0.000000000              -0.003137476               0.006282341              -0.001371548              -0.001961842               0.002748040               0.000786198               0.000000000               0.000000000               0.000000000               0.000000000              -0.002558115               0.006118882              -0.001191033              -0.001724149               0.002614323               0.000890174               0.000000000               0.000000000               0.000000000               0.000000000              -0.001992958               0.005915551              -0.001025583              -0.001486800               0.002467430               0.000980631               0.000000000               0.000000000               0.000000000               0.000000000              -0.001452680               0.005694897              -0.000874722              -0.001256614               0.002317151               0.001060537               0.000000000               0.000000000               0.000000000               0.000000000              -0.000950873               0.005471932              -0.000738372              -0.001040566               0.002170815               0.001130248               0.000000000               0.000000000               0.000000000               0.000000000              -0.000489700               0.005263777              -0.000608232              -0.000841608               0.002035111               0.001193503               0.000000000               0.000000000               0.000000000               0.000000000              -0.000081527               0.005089776              -0.000480535              -0.000666793               0.001918839               0.001252046               0.000000000               0.000000000               0.000000000               0.000000000               0.000259435               0.004960780              -0.000354868              -0.000522808               0.001827846               0.001305038               0.000000000               0.000000000               0.000000000               0.000000000               0.000519774               0.004881579              -0.000233663              -0.000415281               0.001765604               0.001350323               0.000000000               0.000000000               0.000000000               0.000000000               0.000693317               0.004860767              -0.000129569              -0.000347601               0.001736107               0.001388505               0.000000000               0.000000000               0.000000000               0.000000000               0.000788608               0.004907544              -0.000051225              -0.000317714               0.001741737               0.001424022               0.000000000               0.000000000               0.000000000               0.000000000               0.000809784               0.004943506              -0.000017001              -0.000314269               0.001752575               0.001438307               0.000000000               0.000000000               0.000000000               0.000000000              -0.006090807               0.000748013               0.000635825              -0.002377552               0.001041848              -0.001335704               0.000000000               0.000000000               0.000000000               0.000000000              -0.005240491               0.002624782              -0.000794084              -0.002293278               0.001639342              -0.000653936               0.000000000               0.000000000               0.000000000               0.000000000              -0.004903418               0.004327801              -0.001975313              -0.002379752               0.002235835              -0.000143917               0.000000000               0.000000000               0.000000000               0.000000000              -0.004335372               0.005118136              -0.002126072              -0.002265526               0.002461203               0.000195676               0.000000000               0.000000000               0.000000000               0.000000000              -0.003731060               0.005473100              -0.001991539              -0.002083280               0.002518775               0.000435494               0.000000000               0.000000000               0.000000000               0.000000000              -0.003139909               0.005613837              -0.001799001              -0.001879191               0.002497657               0.000618466               0.000000000               0.000000000               0.000000000               0.000000000              -0.002560915               0.005640625              -0.001607497              -0.001665418               0.002435328               0.000769911               0.000000000               0.000000000               0.000000000               0.000000000              -0.001995012               0.005598561              -0.001422810              -0.001447946               0.002348817               0.000900871               0.000000000               0.000000000               0.000000000               0.000000000              -0.001449062               0.005518348              -0.001247349              -0.001233189               0.002250494               0.001017305               0.000000000               0.000000000               0.000000000               0.000000000              -0.000932753               0.005409735              -0.001085162              -0.001025997               0.002145226               0.001119229               0.000000000               0.000000000               0.000000000               0.000000000              -0.000447821               0.005285208              -0.000931790              -0.000828582               0.002037912               0.001209330               0.000000000               0.000000000               0.000000000               0.000000000               0.000005957               0.005157978              -0.000781933              -0.000642512               0.001933479               0.001290967               0.000000000               0.000000000               0.000000000               0.000000000               0.000409941               0.005042475              -0.000626819              -0.000476581               0.001839668               0.001363088               0.000000000               0.000000000               0.000000000               0.000000000               0.000747473               0.004960261              -0.000460093              -0.000339730               0.001766647               0.001426917               0.000000000               0.000000000               0.000000000               0.000000000               0.000998701               0.004926088              -0.000292405              -0.000241248               0.001722429               0.001481181               0.000000000               0.000000000               0.000000000               0.000000000               0.001149438               0.004943236              -0.000137494              -0.000186865               0.001710017               0.001523152               0.000000000               0.000000000               0.000000000               0.000000000               0.001191998               0.004960140              -0.000064055              -0.000173018               0.001711036               0.001538018               0.000000000               0.000000000               0.000000000               0.000000000              -0.008150825              -0.000201042               0.001130394              -0.003031427               0.000943455              -0.002087972               0.000000000               0.000000000               0.000000000               0.000000000              -0.006301262               0.001438746              -0.000516108              -0.002542813               0.001327177              -0.001215636               0.000000000               0.000000000               0.000000000               0.000000000              -0.005157881               0.002877146              -0.001943263              -0.002293845               0.001723651              -0.000570193               0.000000000               0.000000000               0.000000000               0.000000000              -0.004311449               0.003776508              -0.002248587              -0.002088853               0.001955106              -0.000133747               0.000000000               0.000000000               0.000000000               0.000000000              -0.003609828               0.004328867              -0.002197049              -0.001894790               0.002074537               0.000179747               0.000000000               0.000000000               0.000000000               0.000000000              -0.002984535               0.004677247              -0.002044345              -0.001703853               0.002127017               0.000423164               0.000000000               0.000000000               0.000000000               0.000000000              -0.002404149               0.004895045              -0.001867395              -0.001513433               0.002136143               0.000622709               0.000000000               0.000000000               0.000000000               0.000000000              -0.001851097               0.005027624              -0.001686679              -0.001322612               0.002116728               0.000794116               0.000000000               0.000000000               0.000000000               0.000000000              -0.001311383               0.005101381              -0.001512117              -0.001129439               0.002076923               0.000947483               0.000000000               0.000000000               0.000000000               0.000000000              -0.000786435               0.005123582              -0.001347914              -0.000935359               0.002019630               0.001084270               0.000000000               0.000000000               0.000000000               0.000000000              -0.000280669               0.005110015              -0.001194735              -0.000744002               0.001951322               0.001207320               0.000000000               0.000000000               0.000000000               0.000000000               0.000207652               0.005072743              -0.001042508              -0.000556222               0.001876305               0.001320082               0.000000000               0.000000000               0.000000000               0.000000000               0.000663964               0.005021242              -0.000876161              -0.000378668               0.001799953               0.001421285               0.000000000               0.000000000               0.000000000               0.000000000               0.001071551               0.004976766              -0.000685569              -0.000220264               0.001732327               0.001512063               0.000000000               0.000000000               0.000000000               0.000000000               0.001408045               0.004954347              -0.000471649              -0.000091277               0.001681858               0.001590582               0.000000000               0.000000000               0.000000000               0.000000000               0.001649059               0.004965868              -0.000243110              -0.000002337               0.001656052               0.001653715               0.000000000               0.000000000               0.000000000               0.000000000               0.001747986               0.004983667              -0.000128839               0.000032536               0.001650361               0.001682896               0.000000000               0.000000000               0.000000000               0.000000000              -0.010121089              -0.000783168               0.001308213              -0.003697510               0.000971440              -0.002726070               0.000000000               0.000000000               0.000000000               0.000000000              -0.007344751               0.000478040              -0.000268576              -0.002814034               0.001097350              -0.001716684               0.000000000               0.000000000               0.000000000               0.000000000              -0.005386066               0.001517997              -0.001684993              -0.002209521               0.001242497              -0.000967024               0.000000000               0.000000000               0.000000000               0.000000000              -0.004210432               0.002406621              -0.002070591              -0.001879737               0.001428775              -0.000450961               0.000000000               0.000000000               0.000000000               0.000000000              -0.003374552               0.003078863              -0.002094957              -0.001650312               0.001576380              -0.000073932               0.000000000               0.000000000               0.000000000               0.000000000              -0.002703330               0.003584949              -0.001998205              -0.001461864               0.001682258               0.000220394               0.000000000               0.000000000               0.000000000               0.000000000              -0.002115590               0.003973338              -0.001856715              -0.001290011               0.001754436               0.000464425               0.000000000               0.000000000               0.000000000               0.000000000              -0.001569503               0.004275017              -0.001702482              -0.001122939               0.001799304               0.000676365               0.000000000               0.000000000               0.000000000               0.000000000              -0.001042698               0.004497959              -0.001553232              -0.000953255               0.001817056               0.000863801               0.000000000               0.000000000               0.000000000               0.000000000              -0.000523019               0.004654197              -0.001411269              -0.000777905               0.001810685               0.001032779               0.000000000               0.000000000               0.000000000               0.000000000              -0.000007532               0.004762874              -0.001279014              -0.000598183               0.001787003               0.001188820               0.000000000               0.000000000               0.000000000               0.000000000               0.000505251               0.004839486              -0.001146653              -0.000415466               0.001751635               0.001336168               0.000000000               0.000000000               0.000000000               0.000000000               0.001011267               0.004887402              -0.000993266              -0.000231700               0.001706351               0.001474651               0.000000000               0.000000000               0.000000000               0.000000000               0.001497804               0.004917330              -0.000805453              -0.000052990               0.001656757               0.001603767               0.000000000               0.000000000               0.000000000               0.000000000               0.001950841               0.004939191              -0.000580363               0.000114165               0.001608325               0.001722491               0.000000000               0.000000000               0.000000000               0.000000000               0.002345522               0.004965592              -0.000312845               0.000258869               0.001568891               0.001827760               0.000000000               0.000000000               0.000000000               0.000000000               0.002569585               0.005000196              -0.000176989               0.000338567               0.001553860               0.001892426               0.000000000               0.000000000               0.000000000               0.000000000              -0.011776428              -0.001084431               0.001132906              -0.004280604               0.001065384              -0.003215220               0.000000000               0.000000000               0.000000000               0.000000000              -0.008248639              -0.000219291              -0.000098537              -0.003065826               0.000948838              -0.002116987               0.000000000               0.000000000               0.000000000               0.000000000              -0.005578207               0.000402760              -0.001234769              -0.002142171               0.000848304              -0.001293867               0.000000000               0.000000000               0.000000000               0.000000000              -0.004081236               0.001208918              -0.001591194              -0.001681576               0.000963491              -0.000718085               0.000000000               0.000000000               0.000000000               0.000000000              -0.003101439               0.001936238              -0.001652794              -0.001405067               0.001113760              -0.000291307               0.000000000               0.000000000               0.000000000               0.000000000              -0.002374646               0.002547811              -0.001604743              -0.001208966               0.001252250               0.000043284               0.000000000               0.000000000               0.000000000               0.000000000              -0.001773225               0.003060489              -0.001511584              -0.001047518               0.001369325               0.000321807               0.000000000               0.000000000               0.000000000               0.000000000              -0.001226512               0.003492187              -0.001401206              -0.000896464               0.001462872               0.000566408               0.000000000               0.000000000               0.000000000               0.000000000              -0.000708648               0.003842630              -0.001291293              -0.000746070               0.001529554               0.000783483               0.000000000               0.000000000               0.000000000               0.000000000              -0.000200254               0.004122247              -0.001186824              -0.000590375               0.001570860               0.000980485               0.000000000               0.000000000               0.000000000               0.000000000               0.000315161               0.004348977              -0.001091540              -0.000425436               0.001591456               0.001166020               0.000000000               0.000000000               0.000000000               0.000000000               0.000844017               0.004536074              -0.000996807              -0.000250503               0.001595510               0.001345007               0.000000000               0.000000000               0.000000000               0.000000000               0.001389300               0.004685008              -0.000881049              -0.000064639               0.001583200               0.001518561               0.000000000               0.000000000               0.000000000               0.000000000               0.001954701               0.004799775              -0.000732837               0.000133039               0.001555562               0.001688602               0.000000000               0.000000000               0.000000000               0.000000000               0.002538994               0.004885162              -0.000543564               0.000341474               0.001514546               0.001856021               0.000000000               0.000000000               0.000000000               0.000000000               0.003135637               0.004949404              -0.000299821               0.000557183               0.001464057               0.002021240               0.000000000               0.000000000               0.000000000               0.000000000               0.003541694               0.005016397              -0.000177534               0.000701079               0.001438423               0.002139501               0.000000000               0.000000000               0.000000000               0.000000000              -0.012882811              -0.001209928               0.000657019              -0.004679810               0.001156619              -0.003523191               0.000000000               0.000000000               0.000000000               0.000000000              -0.008868193              -0.000639191              -0.000016809              -0.003245671               0.000868821              -0.002376851               0.000000000               0.000000000               0.000000000               0.000000000              -0.005709884              -0.000326357              -0.000650774              -0.002100410               0.000591347              -0.001509063               0.000000000               0.000000000               0.000000000               0.000000000              -0.003980299               0.000392518              -0.000866400              -0.001541675               0.000644727              -0.000896949               0.000000000               0.000000000               0.000000000               0.000000000              -0.002889827               0.001131227              -0.000914098              -0.001225087               0.000785432              -0.000439655               0.000000000               0.000000000               0.000000000               0.000000000              -0.002112839               0.001797081              -0.000897053              -0.001016948               0.000938003              -0.000078945               0.000000000               0.000000000               0.000000000               0.000000000              -0.001495244               0.002380327              -0.000853086              -0.000858256               0.001079519               0.000221264               0.000000000               0.000000000               0.000000000               0.000000000              -0.000950635               0.002890625              -0.000796161              -0.000717815               0.001202803               0.000484989               0.000000000               0.000000000               0.000000000               0.000000000              -0.000438466               0.003325875              -0.000736310              -0.000580158               0.001302000               0.000721842               0.000000000               0.000000000               0.000000000               0.000000000               0.000064882               0.003691932              -0.000679712              -0.000437160               0.001376352               0.000939192               0.000000000               0.000000000               0.000000000               0.000000000               0.000578008               0.004005855              -0.000629967              -0.000283979               0.001429931               0.001145953               0.000000000               0.000000000               0.000000000               0.000000000               0.001111992               0.004279880              -0.000581438              -0.000117988               0.001465942               0.001347953               0.000000000               0.000000000               0.000000000               0.000000000               0.001680462               0.004512634              -0.000521890               0.000066093               0.001482165               0.001548258               0.000000000               0.000000000               0.000000000               0.000000000               0.002300230               0.004696651              -0.000442156               0.000275502               0.001473701               0.001749203               0.000000000               0.000000000               0.000000000               0.000000000               0.002987656               0.004834240              -0.000335907               0.000516086               0.001439369               0.001955454               0.000000000               0.000000000               0.000000000               0.000000000               0.003761547               0.004931811              -0.000190128               0.000794096               0.001379222               0.002173318               0.000000000               0.000000000               0.000000000               0.000000000               0.004338887               0.005028790              -0.000116415               0.000998474               0.001343422               0.002341896               0.000000000               0.000000000               0.000000000               0.000000000              -0.013270515              -0.001241052              -0.000000000              -0.004821309               0.001193411              -0.003627898               0.000000000               0.000000000               0.000000000               0.000000000              -0.009088037              -0.000776303              -0.000000000              -0.003310974               0.000844885              -0.002466089               0.000000000               0.000000000               0.000000000               0.000000000              -0.005755916              -0.000575090              -0.000000000              -0.002086581               0.000503827              -0.001582754               0.000000000               0.000000000               0.000000000               0.000000000              -0.003942670               0.000102450              -0.000000000              -0.001491306               0.000531248              -0.000960058               0.000000000               0.000000000               0.000000000               0.000000000              -0.002811047               0.000837019              -0.000000000              -0.001158768               0.000665258              -0.000493511               0.000000000               0.000000000               0.000000000               0.000000000              -0.002012475               0.001521593               0.000000000              -0.000944875               0.000822150              -0.000122725               0.000000000               0.000000000               0.000000000               0.000000000              -0.001388561               0.002128680               0.000000000              -0.000786794               0.000971817               0.000185024               0.000000000               0.000000000               0.000000000               0.000000000              -0.000846966               0.002664186               0.000000000              -0.000650634               0.001104931               0.000454297               0.000000000               0.000000000               0.000000000               0.000000000              -0.000338121               0.003126158               0.000000000              -0.000517564               0.001214564               0.000697000               0.000000000               0.000000000               0.000000000               0.000000000               0.000165236               0.003521841               0.000000000              -0.000378266               0.001300024               0.000921758               0.000000000               0.000000000               0.000000000               0.000000000               0.000679067               0.003872874               0.000000000              -0.000229459               0.001367431               0.001137973               0.000000000               0.000000000               0.000000000               0.000000000               0.001215088               0.004186541              -0.000000000              -0.000067660               0.001418053               0.001350393               0.000000000               0.000000000               0.000000000               0.000000000               0.001790415               0.004455538              -0.000000000               0.000114462               0.001447010               0.001561473               0.000000000               0.000000000               0.000000000               0.000000000               0.002428347               0.004668771               0.000000000               0.000327030               0.001447231               0.001774262               0.000000000               0.000000000               0.000000000               0.000000000               0.003155565               0.004824904              -0.000000000               0.000580218               0.001414879               0.001995097               0.000000000               0.000000000               0.000000000               0.000000000               0.003999013               0.004929263              -0.000000000               0.000883463               0.001348584               0.002232047               0.000000000               0.000000000               0.000000000               0.000000000               0.004648196               0.005035767               0.000000000               0.001113591               0.001307375               0.002420966               0.000000000               0.000000000               0.000000000               0.000000000               0.000000000               0.000000000               0.000000000               0.000000000               0.000000000               0.000000000               0.000000000               0.000000000               0.000000000               0.000000000               0.000000000               0.000000000               0.000000000               0.000000000               0.000000000               0.000000000               0.000000000               0.000000000               0.000000000               0.000000000               0.000000000               0.000000000               0.000000000               0.000000000               0.000000000               0.000000000               0.000000000               0.000000000               0.000000000               0.000000000               0.000000000               0.000000000               0.000000000               0.000000000               0.000000000               0.000000000               0.000000000               0.000000000               0.000000000               0.000000000               0.000000000               0.000000000               0.000000000               0.000000000               0.000000000               0.000000000               0.000000000               0.000000000               0.000000000               0.000000000               0.000000000               0.000000000               0.000000000               0.000000000               0.000000000               0.000000000               0.000000000               0.000000000               0.000000000               0.000000000               0.000000000               0.000000000               0.000000000               0.000000000               0.000000000               0.000000000               0.000000000               0.000000000               0.000000000               0.000000000               0.000000000               0.000000000               0.000000000               0.000000000               0.000000000               0.000000000               0.000000000               0.000000000               0.000000000               0.000000000               0.000000000               0.000000000               0.000000000               0.000000000               0.000000000               0.000000000               0.000000000               0.000000000               0.000000000               0.000000000               0.000000000               0.000000000               0.000000000               0.000000000               0.000000000               0.000000000               0.000000000               0.000000000               0.000000000               0.000000000               0.000000000               0.000000000               0.000000000               0.000000000               0.000000000               0.000000000               0.000000000               0.000000000               0.000000000               0.000000000               0.000000000               0.000000000               0.000000000               0.000000000               0.000000000               0.000000000               0.000000000               0.000000000               0.000000000               0.000000000               0.000000000               0.000000000               0.000000000               0.000000000               0.000000000               0.000000000               0.000000000               0.000000000               0.000000000               0.000000000               0.000000000               0.000000000               0.000000000               0.000000000               0.000000000               0.000000000               0.000000000               0.000000000               0.000000000               0.000000000               0.000000000               0.000000000               0.000000000               0.000000000               0.000000000               0.000000000               0.000000000               0.000000000               0.000000000               0.000000000               0.000000000               0.000000000               0.000000000               0.000000000               0.000000000               0.000000000               0.000000000               0.000000000               0.000000000               0.000000000               0.000000000               0.000000000               0.000000000               0.000000000               0.000000000               0.000000000               0.000000000               0.000000000               0.000000000               0.000000000               0.002022317               0.020562338               0.001388540              -0.001811919               0.007458017               0.005646098               0.000000000               0.000000000               0.000000000               0.000000000               0.001806755               0.015805675               0.000619957              -0.001298173               0.005701230               0.004403057               0.000000000               0.000000000               0.000000000               0.000000000               0.002194631               0.011959405              -0.000135115              -0.000671937               0.004210408               0.003538470               0.000000000               0.000000000               0.000000000               0.000000000               0.001945371               0.009763892              -0.000445664              -0.000490971               0.003418255               0.002927284               0.000000000               0.000000000               0.000000000               0.000000000               0.001550790               0.008358689              -0.000569299              -0.000463289               0.002940631               0.002477343               0.000000000               0.000000000               0.000000000               0.000000000               0.001162378               0.007365373              -0.000602616              -0.000484779               0.002616693               0.002131914               0.000000000               0.000000000               0.000000000               0.000000000               0.000830477               0.006591075              -0.000591706              -0.000512454               0.002367821               0.001855367               0.000000000               0.000000000               0.000000000               0.000000000               0.000566149               0.005935636              -0.000563855              -0.000529648               0.002155075               0.001625427               0.000000000               0.000000000               0.000000000               0.000000000               0.000358123               0.005345517              -0.000532282              -0.000533892               0.001959785               0.001425893               0.000000000               0.000000000               0.000000000               0.000000000               0.000197175               0.004790726              -0.000500356              -0.000524899               0.001771859               0.001246960               0.000000000               0.000000000               0.000000000               0.000000000               0.000073281               0.004249968              -0.000467514              -0.000503765               0.001584563               0.001080799               0.000000000               0.000000000               0.000000000               0.000000000              -0.000017666               0.003709583              -0.000430515              -0.000470322               0.001393289               0.000922967               0.000000000               0.000000000               0.000000000               0.000000000              -0.000075402               0.003156096              -0.000386014              -0.000422787               0.001192950               0.000770164               0.000000000               0.000000000               0.000000000               0.000000000              -0.000104665               0.002573176              -0.000329623              -0.000360896               0.000978015               0.000617120               0.000000000               0.000000000               0.000000000               0.000000000              -0.000100769               0.001947513              -0.000253011              -0.000281227               0.000742907               0.000461680               0.000000000               0.000000000               0.000000000               0.000000000              -0.000057810               0.001264598              -0.000143320              -0.000179753               0.000481446               0.000301693               0.000000000               0.000000000               0.000000000               0.000000000              -0.000081551               0.000755744              -0.000089123              -0.000125049               0.000293595               0.000168546               0.000000000               0.000000000               0.000000000               0.000000000               0.002155348               0.019273962               0.002565265              -0.001600987               0.006958252               0.005357265               0.000000000               0.000000000               0.000000000               0.000000000               0.001618161               0.014994932               0.001138255              -0.001267553               0.005420778               0.004153225               0.000000000               0.000000000               0.000000000               0.000000000               0.001666402               0.011643371              -0.000251272              -0.000830519               0.004157924               0.003327406               0.000000000               0.000000000               0.000000000               0.000000000               0.001301444               0.009697903              -0.000800229              -0.000724195               0.003474000               0.002749805               0.000000000               0.000000000               0.000000000               0.000000000               0.000891379               0.008413049              -0.001005777              -0.000717363               0.003043442               0.002326080               0.000000000               0.000000000               0.000000000               0.000000000               0.000534407               0.007476651              -0.001056052              -0.000734177               0.002736918               0.002002740               0.000000000               0.000000000               0.000000000               0.000000000               0.000257515               0.006731227              -0.001030608              -0.000744834               0.002491998               0.001747164               0.000000000               0.000000000               0.000000000               0.000000000               0.000055370               0.006087811              -0.000977213              -0.000740211               0.002275987               0.001535776               0.000000000               0.000000000               0.000000000               0.000000000              -0.000087566               0.005502462              -0.000917167              -0.000720643               0.002074350               0.001353707               0.000000000               0.000000000               0.000000000               0.000000000              -0.000179982               0.004950553              -0.000855282              -0.000686311               0.001878938               0.001192627               0.000000000               0.000000000               0.000000000               0.000000000              -0.000235728               0.004416706              -0.000791841              -0.000640485               0.001685715               0.001045230               0.000000000               0.000000000               0.000000000               0.000000000              -0.000262551               0.003890622              -0.000723082              -0.000584783               0.001491788               0.000907005               0.000000000               0.000000000               0.000000000               0.000000000              -0.000257395               0.003365891              -0.000640155              -0.000517259               0.001294372               0.000777113               0.000000000               0.000000000               0.000000000               0.000000000              -0.000226179               0.002830442              -0.000535917              -0.000438621               0.001089678               0.000651057               0.000000000               0.000000000               0.000000000               0.000000000              -0.000168266               0.002282955              -0.000400675              -0.000348468               0.000877134               0.000528665               0.000000000               0.000000000               0.000000000               0.000000000              -0.000086744               0.001729095              -0.000222068              -0.000248665               0.000659248               0.000410582               0.000000000               0.000000000               0.000000000               0.000000000              -0.000083316               0.001345307              -0.000136819              -0.000199406               0.000514900               0.000315494               0.000000000               0.000000000               0.000000000               0.000000000               0.002252748               0.017315573               0.003370321              -0.001319665               0.006211688               0.004892023               0.000000000               0.000000000               0.000000000               0.000000000               0.001274553               0.013782854               0.001491377              -0.001244897               0.005009204               0.003764307               0.000000000               0.000000000               0.000000000               0.000000000               0.000859838               0.011175234              -0.000309410              -0.001074463               0.004083195               0.003008732               0.000000000               0.000000000               0.000000000               0.000000000               0.000363265               0.009578263              -0.000976594              -0.001061056               0.003546408               0.002485352               0.000000000               0.000000000               0.000000000               0.000000000              -0.000034434               0.008460324              -0.001206802              -0.001070451               0.003176896               0.002106446               0.000000000               0.000000000               0.000000000               0.000000000              -0.000319645               0.007595344              -0.001254342              -0.001069283               0.002888183               0.001818901               0.000000000               0.000000000               0.000000000               0.000000000              -0.000501847               0.006876438              -0.001213328              -0.001047745               0.002641371               0.001593626               0.000000000               0.000000000               0.000000000               0.000000000              -0.000603729               0.006242786              -0.001140137              -0.001006745               0.002416489               0.001409745               0.000000000               0.000000000               0.000000000               0.000000000              -0.000651180               0.005664062              -0.001060980              -0.000952198               0.002205401               0.001253203               0.000000000               0.000000000               0.000000000               0.000000000              -0.000652597               0.005122205              -0.000980425              -0.000884998               0.002002384               0.001117386               0.000000000               0.000000000               0.000000000               0.000000000              -0.000617028               0.004604862              -0.000897697              -0.000806991               0.001803936               0.000996944               0.000000000               0.000000000               0.000000000               0.000000000              -0.000552945               0.004102581              -0.000809898              -0.000720176               0.001607572               0.000887396               0.000000000               0.000000000               0.000000000               0.000000000              -0.000461581               0.003614695              -0.000705992              -0.000624928               0.001413196               0.000788267               0.000000000               0.000000000               0.000000000               0.000000000              -0.000349890               0.003146333              -0.000576923              -0.000524499               0.001223600               0.000699101               0.000000000               0.000000000               0.000000000               0.000000000              -0.000226797               0.002706527              -0.000418500              -0.000423364               0.001043288               0.000619924               0.000000000               0.000000000               0.000000000               0.000000000              -0.000105874               0.002315576              -0.000225197              -0.000329149               0.000881567               0.000552418               0.000000000               0.000000000               0.000000000               0.000000000              -0.000074290               0.002076444              -0.000133141              -0.000287414               0.000787946               0.000500532               0.000000000               0.000000000               0.000000000               0.000000000               0.002180118               0.014921891               0.003735767              -0.001047692               0.005323144               0.004275452               0.000000000               0.000000000               0.000000000               0.000000000               0.000754482               0.012334645               0.001668287              -0.001258898               0.004531139               0.003272242               0.000000000               0.000000000               0.000000000               0.000000000              -0.000133192               0.010609802              -0.000276472              -0.001376169               0.003995288               0.002619119               0.000000000               0.000000000               0.000000000               0.000000000              -0.000707264               0.009392449              -0.000939854              -0.001439277               0.003610544               0.002171267               0.000000000               0.000000000               0.000000000               0.000000000              -0.001036008               0.008440703              -0.001146973              -0.001443587               0.003294735               0.001851148               0.000000000               0.000000000               0.000000000               0.000000000              -0.001200063               0.007642473              -0.001180042              -0.001405330               0.003015909               0.001610579               0.000000000               0.000000000               0.000000000               0.000000000              -0.001253568               0.006948553              -0.001133410              -0.001338654               0.002762379               0.001423725               0.000000000               0.000000000               0.000000000               0.000000000              -0.001228501               0.006333077              -0.001056021              -0.001252320               0.002528444               0.001276125               0.000000000               0.000000000               0.000000000               0.000000000              -0.001154762               0.005771413              -0.000973876              -0.001154460               0.002308605               0.001154145               0.000000000               0.000000000               0.000000000               0.000000000              -0.001047126               0.005245699              -0.000891245              -0.001048382               0.002098009               0.001049627               0.000000000               0.000000000               0.000000000               0.000000000              -0.000908576               0.004749903              -0.000807754              -0.000934452               0.001894769               0.000960317               0.000000000               0.000000000               0.000000000               0.000000000              -0.000747851               0.004281970              -0.000718124              -0.000815689               0.001699205               0.000883517               0.000000000               0.000000000               0.000000000               0.000000000              -0.000572913               0.003848972              -0.000614022              -0.000695962               0.001514965               0.000819003               0.000000000               0.000000000               0.000000000               0.000000000              -0.000394074               0.003464270              -0.000486830              -0.000580810               0.001348349               0.000767538               0.000000000               0.000000000               0.000000000               0.000000000              -0.000231004               0.003142355              -0.000336813              -0.000479420               0.001207248               0.000727828               0.000000000               0.000000000               0.000000000               0.000000000              -0.000099677               0.002902542              -0.000172516              -0.000400196               0.001100903               0.000700707               0.000000000               0.000000000               0.000000000               0.000000000              -0.000053334               0.002788599              -0.000093951              -0.000368574               0.001052382               0.000683808               0.000000000               0.000000000               0.000000000               0.000000000               0.001833174               0.012349355               0.003667812              -0.000856230               0.004401820               0.003545589               0.000000000               0.000000000               0.000000000               0.000000000               0.000060790               0.010809553               0.001692368              -0.001328395               0.004045946               0.002717551               0.000000000               0.000000000               0.000000000               0.000000000              -0.001206303               0.009984775              -0.000134331              -0.001700456               0.003895044               0.002194587               0.000000000               0.000000000               0.000000000               0.000000000              -0.001759310               0.009116763              -0.000704908              -0.001799332               0.003638668               0.001839336               0.000000000               0.000000000               0.000000000               0.000000000              -0.001952825               0.008306162              -0.000869952              -0.001770575               0.003358885               0.001588309               0.000000000               0.000000000               0.000000000               0.000000000              -0.001952031               0.007569737              -0.000896483              -0.001678225               0.003082629               0.001404404               0.000000000               0.000000000               0.000000000               0.000000000              -0.001846836               0.006914273              -0.000862231              -0.001556844               0.002823683               0.001266839               0.000000000               0.000000000               0.000000000               0.000000000              -0.001683748               0.006327081              -0.000799868              -0.001422287               0.002583102               0.001160814               0.000000000               0.000000000               0.000000000               0.000000000              -0.001486451               0.005787381              -0.000731146              -0.001280839               0.002356054               0.001075215               0.000000000               0.000000000               0.000000000               0.000000000              -0.001260653               0.005287642              -0.000661690              -0.001133697               0.002140429               0.001006731               0.000000000               0.000000000               0.000000000               0.000000000              -0.001019570               0.004823814              -0.000591872              -0.000985313               0.001936360               0.000951047               0.000000000               0.000000000               0.000000000               0.000000000              -0.000775192               0.004406202              -0.000515030              -0.000841470               0.001749209               0.000907739               0.000000000               0.000000000               0.000000000               0.000000000              -0.000542555               0.004045397              -0.000423876              -0.000709131               0.001584829               0.000875698               0.000000000               0.000000000               0.000000000               0.000000000              -0.000333025               0.003752516              -0.000315101              -0.000593947               0.001448809               0.000854861               0.000000000               0.000000000               0.000000000               0.000000000              -0.000166776               0.003535983              -0.000196618              -0.000504537               0.001346828               0.000842291               0.000000000               0.000000000               0.000000000               0.000000000              -0.000060800               0.003408088              -0.000088279              -0.000448810               0.001285621               0.000836811               0.000000000               0.000000000               0.000000000               0.000000000              -0.000023400               0.003372408              -0.000040481              -0.000430325               0.001267566               0.000837241               0.000000000               0.000000000               0.000000000               0.000000000               0.001148081               0.009821893               0.003239052              -0.000797207               0.003539666               0.002742459               0.000000000               0.000000000               0.000000000               0.000000000              -0.000774351               0.009327414               0.001616605              -0.001456306               0.003594542               0.002138236               0.000000000               0.000000000               0.000000000               0.000000000              -0.002241353               0.009323861               0.000125588              -0.002005985               0.003776584               0.001770599               0.000000000               0.000000000               0.000000000               0.000000000              -0.002655272               0.008742213              -0.000315630              -0.002088498               0.003610208               0.001521710               0.000000000               0.000000000               0.000000000               0.000000000              -0.002656083               0.008050452              -0.000449097              -0.002002333               0.003350902               0.001348569               0.000000000               0.000000000               0.000000000               0.000000000              -0.002472792               0.007381250              -0.000489364              -0.001849948               0.003077041               0.001227093               0.000000000               0.000000000               0.000000000               0.000000000              -0.002203128               0.006775433              -0.000486642              -0.001673098               0.002816154               0.001143056               0.000000000               0.000000000               0.000000000               0.000000000              -0.001899217               0.006224326              -0.000455213              -0.001490243               0.002571502               0.001081259               0.000000000               0.000000000               0.000000000               0.000000000              -0.001584950               0.005713845              -0.000418015              -0.001308584               0.002340791               0.001032207               0.000000000               0.000000000               0.000000000               0.000000000              -0.001261595               0.005249093              -0.000377107              -0.001129232               0.002126091               0.000996859               0.000000000               0.000000000               0.000000000               0.000000000              -0.000944838               0.004837659              -0.000332018              -0.000959019               0.001932210               0.000973191               0.000000000               0.000000000               0.000000000               0.000000000              -0.000651404               0.004492117              -0.000280435              -0.000805789               0.001765954               0.000960165               0.000000000               0.000000000               0.000000000               0.000000000              -0.000396720               0.004217435              -0.000216711              -0.000675948               0.001631114               0.000955166               0.000000000               0.000000000               0.000000000               0.000000000              -0.000195428               0.004016680              -0.000140307              -0.000575369               0.001530670               0.000955301               0.000000000               0.000000000               0.000000000               0.000000000              -0.000064967               0.003892518              -0.000066154              -0.000510926               0.001467802               0.000956875               0.000000000               0.000000000               0.000000000               0.000000000              -0.000008766               0.003848053              -0.000018297              -0.000484293               0.001444102               0.000959810               0.000000000               0.000000000               0.000000000               0.000000000               0.000006191               0.003855340              -0.000001243              -0.000479595               0.001444965               0.000965371               0.000000000               0.000000000               0.000000000               0.000000000               0.000152129               0.007492798               0.002560858              -0.000879551               0.002790758               0.001911206               0.000000000               0.000000000               0.000000000               0.000000000              -0.001698748               0.007971414               0.001496300              -0.001633454               0.003201596               0.001568142               0.000000000               0.000000000               0.000000000               0.000000000              -0.003130812               0.008633751               0.000492937              -0.002253268               0.003628978               0.001375710               0.000000000               0.000000000               0.000000000               0.000000000              -0.003306678               0.008269181               0.000166015              -0.002273646               0.003514248               0.001240602               0.000000000               0.000000000               0.000000000               0.000000000              -0.003084919               0.007690731               0.000030976              -0.002118181               0.003269612               0.001151431               0.000000000               0.000000000               0.000000000               0.000000000              -0.002721729               0.007106723              -0.000041296              -0.001908984               0.003005212               0.001096228               0.000000000               0.000000000               0.000000000               0.000000000              -0.002306106               0.006557231              -0.000085210              -0.001684439               0.002747202               0.001062762               0.000000000               0.000000000               0.000000000               0.000000000              -0.001876281               0.006047455              -0.000102968              -0.001459534               0.002502309               0.001042776               0.000000000               0.000000000               0.000000000               0.000000000              -0.001459936               0.005580731              -0.000108271              -0.001245064               0.002275246               0.001030182               0.000000000               0.000000000               0.000000000               0.000000000              -0.001067521               0.005169386              -0.000107164              -0.001046491               0.002071942               0.001025451               0.000000000               0.000000000               0.000000000               0.000000000              -0.000708922               0.004829209              -0.000100584              -0.000869495               0.001899552               0.001030057               0.000000000               0.000000000               0.000000000               0.000000000              -0.000401583               0.004567517              -0.000087172              -0.000721531               0.001763001               0.001041469               0.000000000               0.000000000               0.000000000               0.000000000              -0.000164821               0.004383968              -0.000060504              -0.000609802               0.001664575               0.001054773               0.000000000               0.000000000               0.000000000               0.000000000              -0.000007949               0.004281618              -0.000023564              -0.000538182               0.001606586               0.001068404               0.000000000               0.000000000               0.000000000               0.000000000               0.000066470               0.004259359               0.000006127              -0.000507492               0.001588936               0.001081444               0.000000000               0.000000000               0.000000000               0.000000000               0.000060366               0.004294987               0.000014293              -0.000514235               0.001603060               0.001088825               0.000000000               0.000000000               0.000000000               0.000000000               0.000043164               0.004340699               0.000017201              -0.000526400               0.001622352               0.001095952               0.000000000               0.000000000               0.000000000               0.000000000              -0.001028801               0.005533915               0.001747661              -0.001077538               0.002203799               0.001126261               0.000000000               0.000000000               0.000000000               0.000000000              -0.002608592               0.006764728               0.001371227              -0.001823809               0.002862823               0.001039014               0.000000000               0.000000000               0.000000000               0.000000000              -0.003832203               0.007943246               0.000936897              -0.002429976               0.003457714               0.001027738               0.000000000               0.000000000               0.000000000               0.000000000              -0.003751658               0.007810733               0.000680865              -0.002383207               0.003397954               0.001014747               0.000000000               0.000000000               0.000000000               0.000000000              -0.003341754               0.007374315               0.000515635              -0.002174942               0.003183061               0.001008119               0.000000000               0.000000000               0.000000000               0.000000000              -0.002830863               0.006892723               0.000398760              -0.001923159               0.002938604               0.001015445               0.000000000               0.000000000               0.000000000               0.000000000              -0.002299433               0.006413858               0.000304108              -0.001664015               0.002692603               0.001028588               0.000000000               0.000000000               0.000000000               0.000000000              -0.001773768               0.005952977               0.000229351              -0.001409282               0.002454066               0.001044785               0.000000000               0.000000000               0.000000000               0.000000000              -0.001279076               0.005534569               0.000172659              -0.001171472               0.002235329               0.001063857               0.000000000               0.000000000               0.000000000               0.000000000              -0.000831994               0.005173614               0.000127653              -0.000958697               0.002044086               0.001085389               0.000000000               0.000000000               0.000000000               0.000000000              -0.000447668               0.004884918               0.000087645              -0.000778488               0.001887786               0.001109297               0.000000000               0.000000000               0.000000000               0.000000000              -0.000141137               0.004675305               0.000053621              -0.000637338               0.001770865               0.001133527               0.000000000               0.000000000               0.000000000               0.000000000               0.000078676               0.004551600               0.000032253              -0.000539445               0.001697000               0.001157555               0.000000000               0.000000000               0.000000000               0.000000000               0.000205290               0.004517109               0.000022659              -0.000487654               0.001668239               0.001180586               0.000000000               0.000000000               0.000000000               0.000000000               0.000247312               0.004563891               0.000019012              -0.000477743               0.001680530               0.001202786               0.000000000               0.000000000               0.000000000               0.000000000               0.000223866               0.004667421               0.000013416              -0.000499477               0.001722284               0.001222807               0.000000000               0.000000000               0.000000000               0.000000000               0.000192058               0.004740051               0.000010444              -0.000520483               0.001753496               0.001233012               0.000000000               0.000000000               0.000000000               0.000000000              -0.002399372               0.003724510               0.000896936              -0.001365325               0.001696599               0.000331274               0.000000000               0.000000000               0.000000000               0.000000000              -0.003384806               0.005371526               0.001237318              -0.001940739               0.002437403               0.000496665               0.000000000               0.000000000               0.000000000               0.000000000              -0.004266269               0.006928632               0.001404925              -0.002465924               0.003131495               0.000665571               0.000000000               0.000000000               0.000000000               0.000000000              -0.004036522               0.007150161               0.001228576              -0.002407460               0.003185850               0.000778390               0.000000000               0.000000000               0.000000000               0.000000000              -0.003543759               0.006960626               0.001036860              -0.002198983               0.003053180               0.000854197               0.000000000               0.000000000               0.000000000               0.000000000              -0.002984224               0.006657371               0.000871917              -0.001951251               0.002869518               0.000918267               0.000000000               0.000000000               0.000000000               0.000000000              -0.002417672               0.006321350               0.000728427              -0.001696792               0.002672693               0.000975901               0.000000000               0.000000000               0.000000000               0.000000000              -0.001864958               0.005979149               0.000602412              -0.001446749               0.002475280               0.001028530               0.000000000               0.000000000               0.000000000               0.000000000              -0.001340705               0.005649863               0.000494335              -0.001208994               0.002286267               0.001077273               0.000000000               0.000000000               0.000000000               0.000000000              -0.000862272               0.005347698               0.000400237              -0.000991812               0.002113152               0.001121340               0.000000000               0.000000000               0.000000000               0.000000000              -0.000441129               0.005092089               0.000311148              -0.000801932               0.001964657               0.001162724               0.000000000               0.000000000               0.000000000               0.000000000              -0.000094002               0.004900964               0.000227132              -0.000647870               0.001849595               0.001201725               0.000000000               0.000000000               0.000000000               0.000000000               0.000172003               0.004783913               0.000151630              -0.000533486               0.001772450               0.001238964               0.000000000               0.000000000               0.000000000               0.000000000               0.000349323               0.004735867               0.000087893              -0.000460986               0.001732269               0.001271283               0.000000000               0.000000000               0.000000000               0.000000000               0.000444462               0.004759907               0.000041830              -0.000428314               0.001729391               0.001301077               0.000000000               0.000000000               0.000000000               0.000000000               0.000477978               0.004856548               0.000014545              -0.000427826               0.001761442               0.001333616               0.000000000               0.000000000               0.000000000               0.000000000               0.000469073               0.004920006               0.000002457              -0.000439097               0.001786351               0.001347254               0.000000000               0.000000000               0.000000000               0.000000000              -0.004127493               0.002083753               0.000075736              -0.001808276               0.001297334              -0.000510941               0.000000000               0.000000000               0.000000000               0.000000000              -0.004249502               0.003962392               0.001048277              -0.002088858               0.002017069              -0.000071789               0.000000000               0.000000000               0.000000000               0.000000000              -0.004616647               0.005721213               0.001785727              -0.002446388               0.002722514               0.000276126               0.000000000               0.000000000               0.000000000               0.000000000              -0.004252995               0.006277694               0.001756068              -0.002379579               0.002885736               0.000506157               0.000000000               0.000000000               0.000000000               0.000000000              -0.003710313               0.006371780               0.001568757              -0.002187835               0.002853183               0.000665348               0.000000000               0.000000000               0.000000000               0.000000000              -0.003137476               0.006282341               0.001371548              -0.001961842               0.002748040               0.000786198               0.000000000               0.000000000               0.000000000               0.000000000              -0.002558115               0.006118882               0.001191033              -0.001724149               0.002614323               0.000890174               0.000000000               0.000000000               0.000000000               0.000000000              -0.001992958               0.005915551               0.001025583              -0.001486800               0.002467430               0.000980631               0.000000000               0.000000000               0.000000000               0.000000000              -0.001452680               0.005694897               0.000874722              -0.001256614               0.002317151               0.001060537               0.000000000               0.000000000               0.000000000               0.000000000              -0.000950873               0.005471932               0.000738372              -0.001040566               0.002170815               0.001130248               0.000000000               0.000000000               0.000000000               0.000000000              -0.000489700               0.005263777               0.000608232              -0.000841608               0.002035111               0.001193503               0.000000000               0.000000000               0.000000000               0.000000000              -0.000081527               0.005089776               0.000480535              -0.000666793               0.001918839               0.001252046               0.000000000               0.000000000               0.000000000               0.000000000               0.000259435               0.004960780               0.000354868              -0.000522808               0.001827846               0.001305038               0.000000000               0.000000000               0.000000000               0.000000000               0.000519774               0.004881579               0.000233663              -0.000415281               0.001765604               0.001350323               0.000000000               0.000000000               0.000000000               0.000000000               0.000693317               0.004860767               0.000129569              -0.000347601               0.001736107               0.001388505               0.000000000               0.000000000               0.000000000               0.000000000               0.000788608               0.004907544               0.000051225              -0.000317714               0.001741737               0.001424022               0.000000000               0.000000000               0.000000000               0.000000000               0.000809784               0.004943506               0.000017001              -0.000314269               0.001752575               0.001438307               0.000000000               0.000000000               0.000000000               0.000000000              -0.006090807               0.000748013              -0.000635825              -0.002377552               0.001041848              -0.001335704               0.000000000               0.000000000               0.000000000               0.000000000              -0.005240491               0.002624782               0.000794084              -0.002293278               0.001639342              -0.000653936               0.000000000               0.000000000               0.000000000               0.000000000              -0.004903418               0.004327801               0.001975313              -0.002379752               0.002235835              -0.000143917               0.000000000               0.000000000               0.000000000               0.000000000              -0.004335372               0.005118136               0.002126072              -0.002265526               0.002461203               0.000195676               0.000000000               0.000000000               0.000000000               0.000000000              -0.003731060               0.005473100               0.001991539              -0.002083280               0.002518775               0.000435494               0.000000000               0.000000000               0.000000000               0.000000000              -0.003139909               0.005613837               0.001799001              -0.001879191               0.002497657               0.000618466               0.000000000               0.000000000               0.000000000               0.000000000              -0.002560915               0.005640625               0.001607497              -0.001665418               0.002435328               0.000769911               0.000000000               0.000000000               0.000000000               0.000000000              -0.001995012               0.005598561               0.001422810              -0.001447946               0.002348817               0.000900871               0.000000000               0.000000000               0.000000000               0.000000000              -0.001449062               0.005518348               0.001247349              -0.001233189               0.002250494               0.001017305               0.000000000               0.000000000               0.000000000               0.000000000              -0.000932753               0.005409735               0.001085162              -0.001025997               0.002145226               0.001119229               0.000000000               0.000000000               0.000000000               0.000000000              -0.000447821               0.005285208               0.000931790              -0.000828582               0.002037912               0.001209330               0.000000000               0.000000000               0.000000000               0.000000000               0.000005957               0.005157978               0.000781933              -0.000642512               0.001933479               0.001290967               0.000000000               0.000000000               0.000000000               0.000000000               0.000409941               0.005042475               0.000626819              -0.000476581               0.001839668               0.001363088               0.000000000               0.000000000               0.000000000               0.000000000               0.000747473               0.004960261               0.000460093              -0.000339730               0.001766647               0.001426917               0.000000000               0.000000000               0.000000000               0.000000000               0.000998701               0.004926088               0.000292405              -0.000241248               0.001722429               0.001481181               0.000000000               0.000000000               0.000000000               0.000000000               0.001149438               0.004943236               0.000137494              -0.000186865               0.001710017               0.001523152               0.000000000               0.000000000               0.000000000               0.000000000               0.001191998               0.004960140               0.000064055              -0.000173018               0.001711036               0.001538018               0.000000000               0.000000000               0.000000000               0.000000000              -0.008150825              -0.000201042              -0.001130394              -0.003031427               0.000943455              -0.002087972               0.000000000               0.000000000               0.000000000               0.000000000              -0.006301262               0.001438746               0.000516108              -0.002542813               0.001327177              -0.001215636               0.000000000               0.000000000               0.000000000               0.000000000              -0.005157881               0.002877146               0.001943263              -0.002293845               0.001723651              -0.000570193               0.000000000               0.000000000               0.000000000               0.000000000              -0.004311449               0.003776508               0.002248587              -0.002088853               0.001955106              -0.000133747               0.000000000               0.000000000               0.000000000               0.000000000              -0.003609828               0.004328867               0.002197049              -0.001894790               0.002074537               0.000179747               0.000000000               0.000000000               0.000000000               0.000000000              -0.002984535               0.004677247               0.002044345              -0.001703853               0.002127017               0.000423164               0.000000000               0.000000000               0.000000000               0.000000000              -0.002404149               0.004895045               0.001867395              -0.001513433               0.002136143               0.000622709               0.000000000               0.000000000               0.000000000               0.000000000              -0.001851097               0.005027624               0.001686679              -0.001322612               0.002116728               0.000794116               0.000000000               0.000000000               0.000000000               0.000000000              -0.001311383               0.005101381               0.001512117              -0.001129439               0.002076923               0.000947483               0.000000000               0.000000000               0.000000000               0.000000000              -0.000786435               0.005123582               0.001347914              -0.000935359               0.002019630               0.001084270               0.000000000               0.000000000               0.000000000               0.000000000              -0.000280669               0.005110015               0.001194735              -0.000744002               0.001951322               0.001207320               0.000000000               0.000000000               0.000000000               0.000000000               0.000207652               0.005072743               0.001042508              -0.000556222               0.001876305               0.001320082               0.000000000               0.000000000               0.000000000               0.000000000               0.000663964               0.005021242               0.000876161              -0.000378668               0.001799953               0.001421285               0.000000000               0.000000000               0.000000000               0.000000000               0.001071551               0.004976766               0.000685569              -0.000220264               0.001732327               0.001512063               0.000000000               0.000000000               0.000000000               0.000000000               0.001408045               0.004954347               0.000471649              -0.000091277               0.001681858               0.001590582               0.000000000               0.000000000               0.000000000               0.000000000               0.001649059               0.004965868               0.000243110              -0.000002337               0.001656052               0.001653715               0.000000000               0.000000000               0.000000000               0.000000000               0.001747986               0.004983667               0.000128839               0.000032536               0.001650361               0.001682896               0.000000000               0.000000000               0.000000000               0.000000000              -0.010121089              -0.000783168              -0.001308213              -0.003697510               0.000971440              -0.002726070               0.000000000               0.000000000               0.000000000               0.000000000              -0.007344751               0.000478040               0.000268576              -0.002814034               0.001097350              -0.001716684               0.000000000               0.000000000               0.000000000               0.000000000              -0.005386066               0.001517997               0.001684993              -0.002209521               0.001242497              -0.000967024               0.000000000               0.000000000               0.000000000               0.000000000              -0.004210432               0.002406621               0.002070591              -0.001879737               0.001428775              -0.000450961               0.000000000               0.000000000               0.000000000               0.000000000              -0.003374552               0.003078863               0.002094957              -0.001650312               0.001576380              -0.000073932               0.000000000               0.000000000               0.000000000               0.000000000              -0.002703330               0.003584949               0.001998205              -0.001461864               0.001682258               0.000220394               0.000000000               0.000000000               0.000000000               0.000000000              -0.002115590               0.003973338               0.001856715              -0.001290011               0.001754436               0.000464425               0.000000000               0.000000000               0.000000000               0.000000000              -0.001569503               0.004275017               0.001702482              -0.001122939               0.001799304               0.000676365               0.000000000               0.000000000               0.000000000               0.000000000              -0.001042698               0.004497959               0.001553232              -0.000953255               0.001817056               0.000863801               0.000000000               0.000000000               0.000000000               0.000000000              -0.000523019               0.004654197               0.001411269              -0.000777905               0.001810685               0.001032779               0.000000000               0.000000000               0.000000000               0.000000000              -0.000007532               0.004762874               0.001279014              -0.000598183               0.001787003               0.001188820               0.000000000               0.000000000               0.000000000               0.000000000               0.000505251               0.004839486               0.001146653              -0.000415466               0.001751635               0.001336168               0.000000000               0.000000000               0.000000000               0.000000000               0.001011267               0.004887402               0.000993266              -0.000231700               0.001706351               0.001474651               0.000000000               0.000000000               0.000000000               0.000000000               0.001497804               0.004917330               0.000805453              -0.000052990               0.001656757               0.001603767               0.000000000               0.000000000               0.000000000               0.000000000               0.001950841               0.004939191               0.000580363               0.000114165               0.001608325               0.001722491               0.000000000               0.000000000               0.000000000               0.000000000               0.002345522               0.004965592               0.000312845               0.000258869               0.001568891               0.001827760               0.000000000               0.000000000               0.000000000               0.000000000               0.002569585               0.005000196               0.000176989               0.000338567               0.001553860               0.001892426               0.000000000               0.000000000               0.000000000               0.000000000              -0.011776428              -0.001084431              -0.001132906              -0.004280604               0.001065384              -0.003215220               0.000000000               0.000000000               0.000000000               0.000000000              -0.008248639              -0.000219291               0.000098537              -0.003065826               0.000948838              -0.002116987               0.000000000               0.000000000               0.000000000               0.000000000              -0.005578207               0.000402760               0.001234769              -0.002142171               0.000848304              -0.001293867               0.000000000               0.000000000               0.000000000               0.000000000              -0.004081236               0.001208918               0.001591194              -0.001681576               0.000963491              -0.000718085               0.000000000               0.000000000               0.000000000               0.000000000              -0.003101439               0.001936238               0.001652794              -0.001405067               0.001113760              -0.000291307               0.000000000               0.000000000               0.000000000               0.000000000              -0.002374646               0.002547811               0.001604743              -0.001208966               0.001252250               0.000043284               0.000000000               0.000000000               0.000000000               0.000000000              -0.001773225               0.003060489               0.001511584              -0.001047518               0.001369325               0.000321807               0.000000000               0.000000000               0.000000000               0.000000000              -0.001226512               0.003492187               0.001401206              -0.000896464               0.001462872               0.000566408               0.000000000               0.000000000               0.000000000               0.000000000              -0.000708648               0.003842630               0.001291293              -0.000746070               0.001529554               0.000783483               0.000000000               0.000000000               0.000000000               0.000000000              -0.000200254               0.004122247               0.001186824              -0.000590375               0.001570860               0.000980485               0.000000000               0.000000000               0.000000000               0.000000000               0.000315161               0.004348977               0.001091540              -0.000425436               0.001591456               0.001166020               0.000000000               0.000000000               0.000000000               0.000000000               0.000844017               0.004536074               0.000996807              -0.000250503               0.001595510               0.001345007               0.000000000               0.000000000               0.000000000               0.000000000               0.001389300               0.004685008               0.000881049              -0.000064639               0.001583200               0.001518561               0.000000000               0.000000000               0.000000000               0.000000000               0.001954701               0.004799775               0.000732837               0.000133039               0.001555562               0.001688602               0.000000000               0.000000000               0.000000000               0.000000000               0.002538994               0.004885162               0.000543564               0.000341474               0.001514546               0.001856021               0.000000000               0.000000000               0.000000000               0.000000000               0.003135637               0.004949404               0.000299821               0.000557183               0.001464057               0.002021240               0.000000000               0.000000000               0.000000000               0.000000000               0.003541694               0.005016397               0.000177534               0.000701079               0.001438423               0.002139501               0.000000000               0.000000000               0.000000000               0.000000000              -0.012882811              -0.001209928              -0.000657019              -0.004679810               0.001156619              -0.003523191               0.000000000               0.000000000               0.000000000               0.000000000              -0.008868193              -0.000639191               0.000016809              -0.003245671               0.000868821              -0.002376851               0.000000000               0.000000000               0.000000000               0.000000000              -0.005709884              -0.000326357               0.000650774              -0.002100410               0.000591347              -0.001509063               0.000000000               0.000000000               0.000000000               0.000000000              -0.003980299               0.000392518               0.000866400              -0.001541675               0.000644727              -0.000896949               0.000000000               0.000000000               0.000000000               0.000000000              -0.002889827               0.001131227               0.000914098              -0.001225087               0.000785432              -0.000439655               0.000000000               0.000000000               0.000000000               0.000000000              -0.002112839               0.001797081               0.000897053              -0.001016948               0.000938003              -0.000078945               0.000000000               0.000000000               0.000000000               0.000000000              -0.001495244               0.002380327               0.000853086              -0.000858256               0.001079519               0.000221264               0.000000000               0.000000000               0.000000000               0.000000000              -0.000950635               0.002890625               0.000796161              -0.000717815               0.001202803               0.000484989               0.000000000               0.000000000               0.000000000               0.000000000              -0.000438466               0.003325875               0.000736310              -0.000580158               0.001302000               0.000721842               0.000000000               0.000000000               0.000000000               0.000000000               0.000064882               0.003691932               0.000679712              -0.000437160               0.001376352               0.000939192               0.000000000               0.000000000               0.000000000               0.000000000               0.000578008               0.004005855               0.000629967              -0.000283979               0.001429931               0.001145953               0.000000000               0.000000000               0.000000000               0.000000000               0.001111992               0.004279880               0.000581438              -0.000117988               0.001465942               0.001347953               0.000000000               0.000000000               0.000000000               0.000000000               0.001680462               0.004512634               0.000521890               0.000066093               0.001482165               0.001548258               0.000000000               0.000000000               0.000000000               0.000000000               0.002300230               0.004696651               0.000442156               0.000275502               0.001473701               0.001749203               0.000000000               0.000000000               0.000000000               0.000000000               0.002987656               0.004834240               0.000335907               0.000516086               0.001439369               0.001955454               0.000000000               0.000000000               0.000000000               0.000000000               0.003761547               0.004931811               0.000190128               0.000794096               0.001379222               0.002173318               0.000000000               0.000000000               0.000000000               0.000000000               0.004338887               0.005028790               0.000116415               0.000998474               0.001343422               0.002341896               0.000000000               0.000000000               0.000000000               0.000000000              -0.013270515              -0.001241052               0.000000000              -0.004821309               0.001193411              -0.003627898               0.000000000               0.000000000               0.000000000               0.000000000              -0.009088037              -0.000776303               0.000000000              -0.003310974               0.000844885              -0.002466089               0.000000000               0.000000000               0.000000000               0.000000000              -0.005755916              -0.000575090              -0.000000000              -0.002086581               0.000503827              -0.001582754               0.000000000               0.000000000               0.000000000               0.000000000              -0.003942670               0.000102450               0.000000000              -0.001491306               0.000531248              -0.000960058               0.000000000               0.000000000               0.000000000               0.000000000              -0.002811047               0.000837019               0.000000000              -0.001158768               0.000665258              -0.000493511               0.000000000               0.000000000               0.000000000               0.000000000              -0.002012475               0.001521593              -0.000000000              -0.000944875               0.000822150              -0.000122725               0.000000000               0.000000000               0.000000000               0.000000000              -0.001388561               0.002128680               0.000000000              -0.000786794               0.000971817               0.000185024               0.000000000               0.000000000               0.000000000               0.000000000              -0.000846966               0.002664186               0.000000000              -0.000650634               0.001104931               0.000454297               0.000000000               0.000000000               0.000000000               0.000000000              -0.000338121               0.003126158               0.000000000              -0.000517564               0.001214564               0.000697000               0.000000000               0.000000000               0.000000000               0.000000000               0.000165236               0.003521841               0.000000000              -0.000378266               0.001300024               0.000921758               0.000000000               0.000000000               0.000000000               0.000000000               0.000679067               0.003872874              -0.000000000              -0.000229459               0.001367431               0.001137973               0.000000000               0.000000000               0.000000000               0.000000000               0.001215088               0.004186541              -0.000000000              -0.000067660               0.001418053               0.001350393               0.000000000               0.000000000               0.000000000               0.000000000               0.001790415               0.004455538               0.000000000               0.000114462               0.001447010               0.001561473               0.000000000               0.000000000               0.000000000               0.000000000               0.002428347               0.004668771               0.000000000               0.000327030               0.001447231               0.001774262               0.000000000               0.000000000               0.000000000               0.000000000               0.003155565               0.004824904              -0.000000000               0.000580218               0.001414879               0.001995097               0.000000000               0.000000000               0.000000000               0.000000000               0.003999013               0.004929263              -0.000000000               0.000883463               0.001348584               0.002232047               0.000000000               0.000000000               0.000000000               0.000000000               0.004648196               0.005035767               0.000000000               0.001113591               0.001307375               0.002420966               0.000000000               0.000000000               0.000000000               0.000000000               0.001964482               0.021012585              -0.000000000              -0.001889888               0.007634087               0.005744200               0.000000000               0.000000000               0.000000000               0.000000000               0.001866902               0.016091368               0.000000000              -0.001311329               0.005800845               0.004489516               0.000000000               0.000000000               0.000000000               0.000000000               0.002380552               0.012072147               0.000000000              -0.000616310               0.004229446               0.003613135               0.000000000               0.000000000               0.000000000               0.000000000               0.002174212               0.009783219               0.000000000              -0.000407572               0.003396898               0.002989326               0.000000000               0.000000000               0.000000000               0.000000000               0.001786603               0.008333766               0.000000000              -0.000371744               0.002901809               0.002530065               0.000000000               0.000000000               0.000000000               0.000000000               0.001391220               0.007319872              -0.000000000              -0.000393276               0.002571025               0.002177749               0.000000000               0.000000000               0.000000000               0.000000000               0.001045105               0.006533127               0.000000000              -0.000424725               0.002319262               0.001894537               0.000000000               0.000000000               0.000000000               0.000000000               0.000760711               0.005870716               0.000000000              -0.000448572               0.002106410               0.001657838               0.000000000               0.000000000               0.000000000               0.000000000               0.000528459               0.005277478              -0.000000000              -0.000461511               0.001912979               0.001451467               0.000000000               0.000000000               0.000000000               0.000000000               0.000339579               0.004722429              -0.000000000              -0.000462960               0.001728447               0.001265487               0.000000000               0.000000000               0.000000000               0.000000000               0.000188689               0.004181623               0.000000000              -0.000451943               0.001544508               0.001092565               0.000000000               0.000000000               0.000000000               0.000000000               0.000076448               0.003636736               0.000000000              -0.000425923               0.001354207               0.000928285               0.000000000               0.000000000               0.000000000               0.000000000              -0.000003252               0.003070560               0.000000000              -0.000385039               0.001151856               0.000766817               0.000000000               0.000000000               0.000000000               0.000000000              -0.000053051               0.002468108               0.000000000              -0.000328407               0.000932163               0.000603756               0.000000000               0.000000000               0.000000000               0.000000000              -0.000069543               0.001811889               0.000000000              -0.000252564               0.000688145               0.000435581               0.000000000               0.000000000               0.000000000               0.000000000              -0.000044086               0.001078555              -0.000000000              -0.000151352               0.000409965               0.000258614               0.000000000               0.000000000               0.000000000               0.000000000              -0.000079857               0.000517369              -0.000000000              -0.000094618               0.000203994               0.000109376               0.000000000               0.000000000               0.000000000               0.000000000               0.002022317               0.020562338              -0.001388540              -0.001811919               0.007458017               0.005646098               0.000000000               0.000000000               0.000000000               0.000000000               0.001806755               0.015805675              -0.000619957              -0.001298173               0.005701230               0.004403057               0.000000000               0.000000000               0.000000000               0.000000000               0.002194631               0.011959405               0.000135115              -0.000671937               0.004210408               0.003538470               0.000000000               0.000000000               0.000000000               0.000000000               0.001945371               0.009763892               0.000445664              -0.000490971               0.003418255               0.002927284               0.000000000               0.000000000               0.000000000               0.000000000               0.001550790               0.008358689               0.000569299              -0.000463289               0.002940631               0.002477343               0.000000000               0.000000000               0.000000000               0.000000000               0.001162378               0.007365373               0.000602616              -0.000484779               0.002616693               0.002131914               0.000000000               0.000000000               0.000000000               0.000000000               0.000830477               0.006591075               0.000591706              -0.000512454               0.002367821               0.001855367               0.000000000               0.000000000               0.000000000               0.000000000               0.000566149               0.005935636               0.000563855              -0.000529648               0.002155075               0.001625427               0.000000000               0.000000000               0.000000000               0.000000000               0.000358123               0.005345517               0.000532282              -0.000533892               0.001959785               0.001425893               0.000000000               0.000000000               0.000000000               0.000000000               0.000197175               0.004790726               0.000500356              -0.000524899               0.001771859               0.001246960               0.000000000               0.000000000               0.000000000               0.000000000               0.000073281               0.004249968               0.000467514              -0.000503765               0.001584563               0.001080799               0.000000000               0.000000000               0.000000000               0.000000000              -0.000017666               0.003709583               0.000430515              -0.000470322               0.001393289               0.000922967               0.000000000               0.000000000               0.000000000               0.000000000              -0.000075402               0.003156096               0.000386014              -0.000422787               0.001192950               0.000770164               0.000000000               0.000000000               0.000000000               0.000000000              -0.000104665               0.002573176               0.000329623              -0.000360896               0.000978015               0.000617120               0.000000000               0.000000000               0.000000000               0.000000000              -0.000100769               0.001947513               0.000253011              -0.000281227               0.000742907               0.000461680               0.000000000               0.000000000               0.000000000               0.000000000              -0.000057810               0.001264598               0.000143320              -0.000179753               0.000481446               0.000301693               0.000000000               0.000000000               0.000000000               0.000000000              -0.000081551               0.000755744               0.000089123              -0.000125049               0.000293595               0.000168546               0.000000000               0.000000000               0.000000000               0.000000000               0.002155348               0.019273962              -0.002565265              -0.001600987               0.006958252               0.005357265               0.000000000               0.000000000               0.000000000               0.000000000               0.001618161               0.014994932              -0.001138255              -0.001267553               0.005420778               0.004153225               0.000000000               0.000000000               0.000000000               0.000000000               0.001666402               0.011643371               0.000251272              -0.000830519               0.004157924               0.003327406               0.000000000               0.000000000               0.000000000               0.000000000               0.001301444               0.009697903               0.000800229              -0.000724195               0.003474000               0.002749805               0.000000000               0.000000000               0.000000000               0.000000000               0.000891379               0.008413049               0.001005777              -0.000717363               0.003043442               0.002326080               0.000000000               0.000000000               0.000000000               0.000000000               0.000534407               0.007476651               0.001056052              -0.000734177               0.002736918               0.002002740               0.000000000               0.000000000               0.000000000               0.000000000               0.000257515               0.006731227               0.001030608              -0.000744834               0.002491998               0.001747164               0.000000000               0.000000000               0.000000000               0.000000000               0.000055370               0.006087811               0.000977213              -0.000740211               0.002275987               0.001535776               0.000000000               0.000000000               0.000000000               0.000000000              -0.000087566               0.005502462               0.000917167              -0.000720643               0.002074350               0.001353707               0.000000000               0.000000000               0.000000000               0.000000000              -0.000179982               0.004950553               0.000855282              -0.000686311               0.001878938               0.001192627               0.000000000               0.000000000               0.000000000               0.000000000              -0.000235728               0.004416706               0.000791841              -0.000640485               0.001685715               0.001045230               0.000000000               0.000000000               0.000000000               0.000000000              -0.000262551               0.003890622               0.000723082              -0.000584783               0.001491788               0.000907005               0.000000000               0.000000000               0.000000000               0.000000000              -0.000257395               0.003365891               0.000640155              -0.000517259               0.001294372               0.000777113               0.000000000               0.000000000               0.000000000               0.000000000              -0.000226179               0.002830442               0.000535917              -0.000438621               0.001089678               0.000651057               0.000000000               0.000000000               0.000000000               0.000000000              -0.000168266               0.002282955               0.000400675              -0.000348468               0.000877134               0.000528665               0.000000000               0.000000000               0.000000000               0.000000000              -0.000086744               0.001729095               0.000222068              -0.000248665               0.000659248               0.000410582               0.000000000               0.000000000               0.000000000               0.000000000              -0.000083316               0.001345307               0.000136819              -0.000199406               0.000514900               0.000315494               0.000000000               0.000000000               0.000000000               0.000000000               0.002252748               0.017315573              -0.003370321              -0.001319665               0.006211688               0.004892023               0.000000000               0.000000000               0.000000000               0.000000000               0.001274553               0.013782854              -0.001491377              -0.001244897               0.005009204               0.003764307               0.000000000               0.000000000               0.000000000               0.000000000               0.000859838               0.011175234               0.000309410              -0.001074463               0.004083195               0.003008732               0.000000000               0.000000000               0.000000000               0.000000000               0.000363265               0.009578263               0.000976594              -0.001061056               0.003546408               0.002485352               0.000000000               0.000000000               0.000000000               0.000000000              -0.000034434               0.008460324               0.001206802              -0.001070451               0.003176896               0.002106446               0.000000000               0.000000000               0.000000000               0.000000000              -0.000319645               0.007595344               0.001254342              -0.001069283               0.002888183               0.001818901               0.000000000               0.000000000               0.000000000               0.000000000              -0.000501847               0.006876438               0.001213328              -0.001047745               0.002641371               0.001593626               0.000000000               0.000000000               0.000000000               0.000000000              -0.000603729               0.006242786               0.001140137              -0.001006745               0.002416489               0.001409745               0.000000000               0.000000000               0.000000000               0.000000000              -0.000651180               0.005664062               0.001060980              -0.000952198               0.002205401               0.001253203               0.000000000               0.000000000               0.000000000               0.000000000              -0.000652597               0.005122205               0.000980425              -0.000884998               0.002002384               0.001117386               0.000000000               0.000000000               0.000000000               0.000000000              -0.000617028               0.004604862               0.000897697              -0.000806991               0.001803936               0.000996944               0.000000000               0.000000000               0.000000000               0.000000000              -0.000552945               0.004102581               0.000809898              -0.000720176               0.001607572               0.000887396               0.000000000               0.000000000               0.000000000               0.000000000              -0.000461581               0.003614695               0.000705992              -0.000624928               0.001413196               0.000788267               0.000000000               0.000000000               0.000000000               0.000000000              -0.000349890               0.003146333               0.000576923              -0.000524499               0.001223600               0.000699101               0.000000000               0.000000000               0.000000000               0.000000000              -0.000226797               0.002706527               0.000418500              -0.000423364               0.001043288               0.000619924               0.000000000               0.000000000               0.000000000               0.000000000              -0.000105874               0.002315576               0.000225197              -0.000329149               0.000881567               0.000552418               0.000000000               0.000000000               0.000000000               0.000000000              -0.000074290               0.002076444               0.000133141              -0.000287414               0.000787946               0.000500532               0.000000000               0.000000000               0.000000000               0.000000000               0.002180118               0.014921891              -0.003735767              -0.001047692               0.005323144               0.004275452               0.000000000               0.000000000               0.000000000               0.000000000               0.000754482               0.012334645              -0.001668287              -0.001258898               0.004531139               0.003272242               0.000000000               0.000000000               0.000000000               0.000000000              -0.000133192               0.010609802               0.000276472              -0.001376169               0.003995288               0.002619119               0.000000000               0.000000000               0.000000000               0.000000000              -0.000707264               0.009392449               0.000939854              -0.001439277               0.003610544               0.002171267               0.000000000               0.000000000               0.000000000               0.000000000              -0.001036008               0.008440703               0.001146973              -0.001443587               0.003294735               0.001851148               0.000000000               0.000000000               0.000000000               0.000000000              -0.001200063               0.007642473               0.001180042              -0.001405330               0.003015909               0.001610579               0.000000000               0.000000000               0.000000000               0.000000000              -0.001253568               0.006948553               0.001133410              -0.001338654               0.002762379               0.001423725               0.000000000               0.000000000               0.000000000               0.000000000              -0.001228501               0.006333077               0.001056021              -0.001252320               0.002528444               0.001276125               0.000000000               0.000000000               0.000000000               0.000000000              -0.001154762               0.005771413               0.000973876              -0.001154460               0.002308605               0.001154145               0.000000000               0.000000000               0.000000000               0.000000000              -0.001047126               0.005245699               0.000891245              -0.001048382               0.002098009               0.001049627               0.000000000               0.000000000               0.000000000               0.000000000              -0.000908576               0.004749903               0.000807754              -0.000934452               0.001894769               0.000960317               0.000000000               0.000000000               0.000000000               0.000000000              -0.000747851               0.004281970               0.000718124              -0.000815689               0.001699205               0.000883517               0.000000000               0.000000000               0.000000000               0.000000000              -0.000572913               0.003848972               0.000614022              -0.000695962               0.001514965               0.000819003               0.000000000               0.000000000               0.000000000               0.000000000              -0.000394074               0.003464270               0.000486830              -0.000580810               0.001348349               0.000767538               0.000000000               0.000000000               0.000000000               0.000000000              -0.000231004               0.003142355               0.000336813              -0.000479420               0.001207248               0.000727828               0.000000000               0.000000000               0.000000000               0.000000000              -0.000099677               0.002902542               0.000172516              -0.000400196               0.001100903               0.000700707               0.000000000               0.000000000               0.000000000               0.000000000              -0.000053334               0.002788599               0.000093951              -0.000368574               0.001052382               0.000683808               0.000000000               0.000000000               0.000000000               0.000000000               0.001833174               0.012349355              -0.003667812              -0.000856230               0.004401820               0.003545589               0.000000000               0.000000000               0.000000000               0.000000000               0.000060790               0.010809553              -0.001692368              -0.001328395               0.004045946               0.002717551               0.000000000               0.000000000               0.000000000               0.000000000              -0.001206303               0.009984775               0.000134331              -0.001700456               0.003895044               0.002194587               0.000000000               0.000000000               0.000000000               0.000000000              -0.001759310               0.009116763               0.000704908              -0.001799332               0.003638668               0.001839336               0.000000000               0.000000000               0.000000000               0.000000000              -0.001952825               0.008306162               0.000869952              -0.001770575               0.003358885               0.001588309               0.000000000               0.000000000               0.000000000               0.000000000              -0.001952031               0.007569737               0.000896483              -0.001678225               0.003082629               0.001404404               0.000000000               0.000000000               0.000000000               0.000000000              -0.001846836               0.006914273               0.000862231              -0.001556844               0.002823683               0.001266839               0.000000000               0.000000000               0.000000000               0.000000000              -0.001683748               0.006327081               0.000799868              -0.001422287               0.002583102               0.001160814               0.000000000               0.000000000               0.000000000               0.000000000              -0.001486451               0.005787381               0.000731146              -0.001280839               0.002356054               0.001075215               0.000000000               0.000000000               0.000000000               0.000000000              -0.001260653               0.005287642               0.000661690              -0.001133697               0.002140429               0.001006731               0.000000000               0.000000000               0.000000000               0.000000000              -0.001019570               0.004823814               0.000591872              -0.000985313               0.001936360               0.000951047               0.000000000               0.000000000               0.000000000               0.000000000              -0.000775192               0.004406202               0.000515030              -0.000841470               0.001749209               0.000907739               0.000000000               0.000000000               0.000000000               0.000000000              -0.000542555               0.004045397               0.000423876              -0.000709131               0.001584829               0.000875698               0.000000000               0.000000000               0.000000000               0.000000000              -0.000333025               0.003752516               0.000315101              -0.000593947               0.001448809               0.000854861               0.000000000               0.000000000               0.000000000               0.000000000              -0.000166776               0.003535983               0.000196618              -0.000504537               0.001346828               0.000842291               0.000000000               0.000000000               0.000000000               0.000000000              -0.000060800               0.003408088               0.000088279              -0.000448810               0.001285621               0.000836811               0.000000000               0.000000000               0.000000000               0.000000000              -0.000023400               0.003372408               0.000040481              -0.000430325               0.001267566               0.000837241               0.000000000               0.000000000               0.000000000               0.000000000               0.001148081               0.009821893              -0.003239052              -0.000797207               0.003539666               0.002742459               0.000000000               0.000000000               0.000000000               0.000000000              -0.000774351               0.009327414              -0.001616605              -0.001456306               0.003594542               0.002138236               0.000000000               0.000000000               0.000000000               0.000000000              -0.002241353               0.009323861              -0.000125588              -0.002005985               0.003776584               0.001770599               0.000000000               0.000000000               0.000000000               0.000000000              -0.002655272               0.008742213               0.000315630              -0.002088498               0.003610208               0.001521710               0.000000000               0.000000000               0.000000000               0.000000000              -0.002656083               0.008050452               0.000449097              -0.002002333               0.003350902               0.001348569               0.000000000               0.000000000               0.000000000               0.000000000              -0.002472792               0.007381250               0.000489364              -0.001849948               0.003077041               0.001227093               0.000000000               0.000000000               0.000000000               0.000000000              -0.002203128               0.006775433               0.000486642              -0.001673098               0.002816154               0.001143056               0.000000000               0.000000000               0.000000000               0.000000000              -0.001899217               0.006224326               0.000455213              -0.001490243               0.002571502               0.001081259               0.000000000               0.000000000               0.000000000               0.000000000              -0.001584950               0.005713845               0.000418015              -0.001308584               0.002340791               0.001032207               0.000000000               0.000000000               0.000000000               0.000000000              -0.001261595               0.005249093               0.000377107              -0.001129232               0.002126091               0.000996859               0.000000000               0.000000000               0.000000000               0.000000000              -0.000944838               0.004837659               0.000332018              -0.000959019               0.001932210               0.000973191               0.000000000               0.000000000               0.000000000               0.000000000              -0.000651404               0.004492117               0.000280435              -0.000805789               0.001765954               0.000960165               0.000000000               0.000000000               0.000000000               0.000000000              -0.000396720               0.004217435               0.000216711              -0.000675948               0.001631114               0.000955166               0.000000000               0.000000000               0.000000000               0.000000000              -0.000195428               0.004016680               0.000140307              -0.000575369               0.001530670               0.000955301               0.000000000               0.000000000               0.000000000               0.000000000              -0.000064967               0.003892518               0.000066154              -0.000510926               0.001467802               0.000956875               0.000000000               0.000000000               0.000000000               0.000000000              -0.000008766               0.003848053               0.000018297              -0.000484293               0.001444102               0.000959810               0.000000000               0.000000000               0.000000000               0.000000000               0.000006191               0.003855340               0.000001243              -0.000479595               0.001444965               0.000965371               0.000000000               0.000000000               0.000000000               0.000000000               0.000152129               0.007492798              -0.002560858              -0.000879551               0.002790758               0.001911206               0.000000000               0.000000000               0.000000000               0.000000000              -0.001698748               0.007971414              -0.001496300              -0.001633454               0.003201596               0.001568142               0.000000000               0.000000000               0.000000000               0.000000000              -0.003130812               0.008633751              -0.000492937              -0.002253268               0.003628978               0.001375710               0.000000000               0.000000000               0.000000000               0.000000000              -0.003306678               0.008269181              -0.000166015              -0.002273646               0.003514248               0.001240602               0.000000000               0.000000000               0.000000000               0.000000000              -0.003084919               0.007690731              -0.000030976              -0.002118181               0.003269612               0.001151431               0.000000000               0.000000000               0.000000000               0.000000000              -0.002721729               0.007106723               0.000041296              -0.001908984               0.003005212               0.001096228               0.000000000               0.000000000               0.000000000               0.000000000              -0.002306106               0.006557231               0.000085210              -0.001684439               0.002747202               0.001062762               0.000000000               0.000000000               0.000000000               0.000000000              -0.001876281               0.006047455               0.000102968              -0.001459534               0.002502309               0.001042776               0.000000000               0.000000000               0.000000000               0.000000000              -0.001459936               0.005580731               0.000108271              -0.001245064               0.002275246               0.001030182               0.000000000               0.000000000               0.000000000               0.000000000              -0.001067521               0.005169386               0.000107164              -0.001046491               0.002071942               0.001025451               0.000000000               0.000000000               0.000000000               0.000000000              -0.000708922               0.004829209               0.000100584              -0.000869495               0.001899552               0.001030057               0.000000000               0.000000000               0.000000000               0.000000000              -0.000401583               0.004567517               0.000087172              -0.000721531               0.001763001               0.001041469               0.000000000               0.000000000               0.000000000               0.000000000              -0.000164821               0.004383968               0.000060504              -0.000609802               0.001664575               0.001054773               0.000000000               0.000000000               0.000000000               0.000000000              -0.000007949               0.004281618               0.000023564              -0.000538182               0.001606586               0.001068404               0.000000000               0.000000000               0.000000000               0.000000000               0.000066470               0.004259359              -0.000006127              -0.000507492               0.001588936               0.001081444               0.000000000               0.000000000               0.000000000               0.000000000               0.000060366               0.004294987              -0.000014293              -0.000514235               0.001603060               0.001088825               0.000000000               0.000000000               0.000000000               0.000000000               0.000043164               0.004340699              -0.000017201              -0.000526400               0.001622352               0.001095952               0.000000000               0.000000000               0.000000000               0.000000000              -0.001028801               0.005533915              -0.001747661              -0.001077538               0.002203799               0.001126261               0.000000000               0.000000000               0.000000000               0.000000000              -0.002608592               0.006764728              -0.001371227              -0.001823809               0.002862823               0.001039014               0.000000000               0.000000000               0.000000000               0.000000000              -0.003832203               0.007943246              -0.000936897              -0.002429976               0.003457714               0.001027738               0.000000000               0.000000000               0.000000000               0.000000000              -0.003751658               0.007810733              -0.000680865              -0.002383207               0.003397954               0.001014747               0.000000000               0.000000000               0.000000000               0.000000000              -0.003341754               0.007374315              -0.000515635              -0.002174942               0.003183061               0.001008119               0.000000000               0.000000000               0.000000000               0.000000000              -0.002830863               0.006892723              -0.000398760              -0.001923159               0.002938604               0.001015445               0.000000000               0.000000000               0.000000000               0.000000000              -0.002299433               0.006413858              -0.000304108              -0.001664015               0.002692603               0.001028588               0.000000000               0.000000000               0.000000000               0.000000000              -0.001773768               0.005952977              -0.000229351              -0.001409282               0.002454066               0.001044785               0.000000000               0.000000000               0.000000000               0.000000000              -0.001279076               0.005534569              -0.000172659              -0.001171472               0.002235329               0.001063857               0.000000000               0.000000000               0.000000000               0.000000000              -0.000831994               0.005173614              -0.000127653              -0.000958697               0.002044086               0.001085389               0.000000000               0.000000000               0.000000000               0.000000000              -0.000447668               0.004884918              -0.000087645              -0.000778488               0.001887786               0.001109297               0.000000000               0.000000000               0.000000000               0.000000000              -0.000141137               0.004675305              -0.000053621              -0.000637338               0.001770865               0.001133527               0.000000000               0.000000000               0.000000000               0.000000000               0.000078676               0.004551600              -0.000032253              -0.000539445               0.001697000               0.001157555               0.000000000               0.000000000               0.000000000               0.000000000               0.000205290               0.004517109              -0.000022659              -0.000487654               0.001668239               0.001180586               0.000000000               0.000000000               0.000000000               0.000000000               0.000247312               0.004563891              -0.000019012              -0.000477743               0.001680530               0.001202786               0.000000000               0.000000000               0.000000000               0.000000000               0.000223866               0.004667421              -0.000013416              -0.000499477               0.001722284               0.001222807               0.000000000               0.000000000               0.000000000               0.000000000               0.000192058               0.004740051              -0.000010444              -0.000520483               0.001753496               0.001233012               0.000000000               0.000000000               0.000000000               0.000000000              -0.002399372               0.003724510              -0.000896936              -0.001365325               0.001696599               0.000331274               0.000000000               0.000000000               0.000000000               0.000000000              -0.003384806               0.005371526              -0.001237318              -0.001940739               0.002437403               0.000496665               0.000000000               0.000000000               0.000000000               0.000000000              -0.004266269               0.006928632              -0.001404925              -0.002465924               0.003131495               0.000665571               0.000000000               0.000000000               0.000000000               0.000000000              -0.004036522               0.007150161              -0.001228576              -0.002407460               0.003185850               0.000778390               0.000000000               0.000000000               0.000000000               0.000000000              -0.003543759               0.006960626              -0.001036860              -0.002198983               0.003053180               0.000854197               0.000000000               0.000000000               0.000000000               0.000000000              -0.002984224               0.006657371              -0.000871917              -0.001951251               0.002869518               0.000918267               0.000000000               0.000000000               0.000000000               0.000000000              -0.002417672               0.006321350              -0.000728427              -0.001696792               0.002672693               0.000975901               0.000000000               0.000000000               0.000000000               0.000000000              -0.001864958               0.005979149              -0.000602412              -0.001446749               0.002475280               0.001028530               0.000000000               0.000000000               0.000000000               0.000000000              -0.001340705               0.005649863              -0.000494335              -0.001208994               0.002286267               0.001077273               0.000000000               0.000000000               0.000000000               0.000000000              -0.000862272               0.005347698              -0.000400237              -0.000991812               0.002113152               0.001121340               0.000000000               0.000000000               0.000000000               0.000000000              -0.000441129               0.005092089              -0.000311148              -0.000801932               0.001964657               0.001162724               0.000000000               0.000000000               0.000000000               0.000000000              -0.000094002               0.004900964              -0.000227132              -0.000647870               0.001849595               0.001201725               0.000000000               0.000000000               0.000000000               0.000000000               0.000172003               0.004783913              -0.000151630              -0.000533486               0.001772450               0.001238964               0.000000000               0.000000000               0.000000000               0.000000000               0.000349323               0.004735867              -0.000087893              -0.000460986               0.001732269               0.001271283               0.000000000               0.000000000               0.000000000               0.000000000               0.000444462               0.004759907              -0.000041830              -0.000428314               0.001729391               0.001301077               0.000000000               0.000000000               0.000000000               0.000000000               0.000477978               0.004856548              -0.000014545              -0.000427826               0.001761442               0.001333616               0.000000000               0.000000000               0.000000000               0.000000000               0.000469073               0.004920006              -0.000002457              -0.000439097               0.001786351               0.001347254               0.000000000               0.000000000               0.000000000               0.000000000              -0.004127493               0.002083753              -0.000075736              -0.001808276               0.001297334              -0.000510941               0.000000000               0.000000000               0.000000000               0.000000000              -0.004249502               0.003962392              -0.001048277              -0.002088858               0.002017069              -0.000071789               0.000000000               0.000000000               0.000000000               0.000000000              -0.004616647               0.005721213              -0.001785727              -0.002446388               0.002722514               0.000276126               0.000000000               0.000000000               0.000000000               0.000000000              -0.004252995               0.006277694              -0.001756068              -0.002379579               0.002885736               0.000506157               0.000000000               0.000000000               0.000000000               0.000000000              -0.003710313               0.006371780              -0.001568757              -0.002187835               0.002853183               0.000665348               0.000000000               0.000000000               0.000000000               0.000000000              -0.003137476               0.006282341              -0.001371548              -0.001961842               0.002748040               0.000786198               0.000000000               0.000000000               0.000000000               0.000000000              -0.002558115               0.006118882              -0.001191033              -0.001724149               0.002614323               0.000890174               0.000000000               0.000000000               0.000000000               0.000000000              -0.001992958               0.005915551              -0.001025583              -0.001486800               0.002467430               0.000980631               0.000000000               0.000000000               0.000000000               0.000000000              -0.001452680               0.005694897              -0.000874722              -0.001256614               0.002317151               0.001060537               0.000000000               0.000000000               0.000000000               0.000000000              -0.000950873               0.005471932              -0.000738372              -0.001040566               0.002170815               0.001130248               0.000000000               0.000000000               0.000000000               0.000000000              -0.000489700               0.005263777              -0.000608232              -0.000841608               0.002035111               0.001193503               0.000000000               0.000000000               0.000000000               0.000000000              -0.000081527               0.005089776              -0.000480535              -0.000666793               0.001918839               0.001252046               0.000000000               0.000000000               0.000000000               0.000000000               0.000259435               0.004960780              -0.000354868              -0.000522808               0.001827846               0.001305038               0.000000000               0.000000000               0.000000000               0.000000000               0.000519774               0.004881579              -0.000233663              -0.000415281               0.001765604               0.001350323               0.000000000               0.000000000               0.000000000               0.000000000               0.000693317               0.004860767              -0.000129569              -0.000347601               0.001736107               0.001388505               0.000000000               0.000000000               0.000000000               0.000000000               0.000788608               0.004907544              -0.000051225              -0.000317714               0.001741737               0.001424022               0.000000000               0.000000000               0.000000000               0.000000000               0.000809784               0.004943506              -0.000017001              -0.000314269               0.001752575               0.001438307               0.000000000               0.000000000               0.000000000               0.000000000              -0.006090807               0.000748013               0.000635825              -0.002377552               0.001041848              -0.001335704               0.000000000               0.000000000               0.000000000               0.000000000              -0.005240491               0.002624782              -0.000794084              -0.002293278               0.001639342              -0.000653936               0.000000000               0.000000000               0.000000000               0.000000000              -0.004903418               0.004327801              -0.001975313              -0.002379752               0.002235835              -0.000143917               0.000000000               0.000000000               0.000000000               0.000000000              -0.004335372               0.005118136              -0.002126072              -0.002265526               0.002461203               0.000195676               0.000000000               0.000000000               0.000000000               0.000000000              -0.003731060               0.005473100              -0.001991539              -0.002083280               0.002518775               0.000435494               0.000000000               0.000000000               0.000000000               0.000000000              -0.003139909               0.005613837              -0.001799001              -0.001879191               0.002497657               0.000618466               0.000000000               0.000000000               0.000000000               0.000000000              -0.002560915               0.005640625              -0.001607497              -0.001665418               0.002435328               0.000769911               0.000000000               0.000000000               0.000000000               0.000000000              -0.001995012               0.005598561              -0.001422810              -0.001447946               0.002348817               0.000900871               0.000000000               0.000000000               0.000000000               0.000000000              -0.001449062               0.005518348              -0.001247349              -0.001233189               0.002250494               0.001017305               0.000000000               0.000000000               0.000000000               0.000000000              -0.000932753               0.005409735              -0.001085162              -0.001025997               0.002145226               0.001119229               0.000000000               0.000000000               0.000000000               0.000000000              -0.000447821               0.005285208              -0.000931790              -0.000828582               0.002037912               0.001209330               0.000000000               0.000000000               0.000000000               0.000000000               0.000005957               0.005157978              -0.000781933              -0.000642512               0.001933479               0.001290967               0.000000000               0.000000000               0.000000000               0.000000000               0.000409941               0.005042475              -0.000626819              -0.000476581               0.001839668               0.001363088               0.000000000               0.000000000               0.000000000               0.000000000               0.000747473               0.004960261              -0.000460093              -0.000339730               0.001766647               0.001426917               0.000000000               0.000000000               0.000000000               0.000000000               0.000998701               0.004926088              -0.000292405              -0.000241248               0.001722429               0.001481181               0.000000000               0.000000000               0.000000000               0.000000000               0.001149438               0.004943236              -0.000137494              -0.000186865               0.001710017               0.001523152               0.000000000               0.000000000               0.000000000               0.000000000               0.001191998               0.004960140              -0.000064055              -0.000173018               0.001711036               0.001538018               0.000000000               0.000000000               0.000000000               0.000000000              -0.008150825              -0.000201042               0.001130394              -0.003031427               0.000943455              -0.002087972               0.000000000               0.000000000               0.000000000               0.000000000              -0.006301262               0.001438746              -0.000516108              -0.002542813               0.001327177              -0.001215636               0.000000000               0.000000000               0.000000000               0.000000000              -0.005157881               0.002877146              -0.001943263              -0.002293845               0.001723651              -0.000570193               0.000000000               0.000000000               0.000000000               0.000000000              -0.004311449               0.003776508              -0.002248587              -0.002088853               0.001955106              -0.000133747               0.000000000               0.000000000               0.000000000               0.000000000              -0.003609828               0.004328867              -0.002197049              -0.001894790               0.002074537               0.000179747               0.000000000               0.000000000               0.000000000               0.000000000              -0.002984535               0.004677247              -0.002044345              -0.001703853               0.002127017               0.000423164               0.000000000               0.000000000               0.000000000               0.000000000              -0.002404149               0.004895045              -0.001867395              -0.001513433               0.002136143               0.000622709               0.000000000               0.000000000               0.000000000               0.000000000              -0.001851097               0.005027624              -0.001686679              -0.001322612               0.002116728               0.000794116               0.000000000               0.000000000               0.000000000               0.000000000              -0.001311383               0.005101381              -0.001512117              -0.001129439               0.002076923               0.000947483               0.000000000               0.000000000               0.000000000               0.000000000              -0.000786435               0.005123582              -0.001347914              -0.000935359               0.002019630               0.001084270               0.000000000               0.000000000               0.000000000               0.000000000              -0.000280669               0.005110015              -0.001194735              -0.000744002               0.001951322               0.001207320               0.000000000               0.000000000               0.000000000               0.000000000               0.000207652               0.005072743              -0.001042508              -0.000556222               0.001876305               0.001320082               0.000000000               0.000000000               0.000000000               0.000000000               0.000663964               0.005021242              -0.000876161              -0.000378668               0.001799953               0.001421285               0.000000000               0.000000000               0.000000000               0.000000000               0.001071551               0.004976766              -0.000685569              -0.000220264               0.001732327               0.001512063               0.000000000               0.000000000               0.000000000               0.000000000               0.001408045               0.004954347              -0.000471649              -0.000091277               0.001681858               0.001590582               0.000000000               0.000000000               0.000000000               0.000000000               0.001649059               0.004965868              -0.000243110              -0.000002337               0.001656052               0.001653715               0.000000000               0.000000000               0.000000000               0.000000000               0.001747986               0.004983667              -0.000128839               0.000032536               0.001650361               0.001682896               0.000000000               0.000000000               0.000000000               0.000000000              -0.010121089              -0.000783168               0.001308213              -0.003697510               0.000971440              -0.002726070               0.000000000               0.000000000               0.000000000               0.000000000              -0.007344751               0.000478040              -0.000268576              -0.002814034               0.001097350              -0.001716684               0.000000000               0.000000000               0.000000000               0.000000000              -0.005386066               0.001517997              -0.001684993              -0.002209521               0.001242497              -0.000967024               0.000000000               0.000000000               0.000000000               0.000000000              -0.004210432               0.002406621              -0.002070591              -0.001879737               0.001428775              -0.000450961               0.000000000               0.000000000               0.000000000               0.000000000              -0.003374552               0.003078863              -0.002094957              -0.001650312               0.001576380              -0.000073932               0.000000000               0.000000000               0.000000000               0.000000000              -0.002703330               0.003584949              -0.001998205              -0.001461864               0.001682258               0.000220394               0.000000000               0.000000000               0.000000000               0.000000000              -0.002115590               0.003973338              -0.001856715              -0.001290011               0.001754436               0.000464425               0.000000000               0.000000000               0.000000000               0.000000000              -0.001569503               0.004275017              -0.001702482              -0.001122939               0.001799304               0.000676365               0.000000000               0.000000000               0.000000000               0.000000000              -0.001042698               0.004497959              -0.001553232              -0.000953255               0.001817056               0.000863801               0.000000000               0.000000000               0.000000000               0.000000000              -0.000523019               0.004654197              -0.001411269              -0.000777905               0.001810685               0.001032779               0.000000000               0.000000000               0.000000000               0.000000000              -0.000007532               0.004762874              -0.001279014              -0.000598183               0.001787003               0.001188820               0.000000000               0.000000000               0.000000000               0.000000000               0.000505251               0.004839486              -0.001146653              -0.000415466               0.001751635               0.001336168               0.000000000               0.000000000               0.000000000               0.000000000               0.001011267               0.004887402              -0.000993266              -0.000231700               0.001706351               0.001474651               0.000000000               0.000000000               0.000000000               0.000000000               0.001497804               0.004917330              -0.000805453              -0.000052990               0.001656757               0.001603767               0.000000000               0.000000000               0.000000000               0.000000000               0.001950841               0.004939191              -0.000580363               0.000114165               0.001608325               0.001722491               0.000000000               0.000000000               0.000000000               0.000000000               0.002345522               0.004965592              -0.000312845               0.000258869               0.001568891               0.001827760               0.000000000               0.000000000               0.000000000               0.000000000               0.002569585               0.005000196              -0.000176989               0.000338567               0.001553860               0.001892426               0.000000000               0.000000000               0.000000000               0.000000000              -0.011776428              -0.001084431               0.001132906              -0.004280604               0.001065384              -0.003215220               0.000000000               0.000000000               0.000000000               0.000000000              -0.008248639              -0.000219291              -0.000098537              -0.003065826               0.000948838              -0.002116987               0.000000000               0.000000000               0.000000000               0.000000000              -0.005578207               0.000402760              -0.001234769              -0.002142171               0.000848304              -0.001293867               0.000000000               0.000000000               0.000000000               0.000000000              -0.004081236               0.001208918              -0.001591194              -0.001681576               0.000963491              -0.000718085               0.000000000               0.000000000               0.000000000               0.000000000              -0.003101439               0.001936238              -0.001652794              -0.001405067               0.001113760              -0.000291307               0.000000000               0.000000000               0.000000000               0.000000000              -0.002374646               0.002547811              -0.001604743              -0.001208966               0.001252250               0.000043284               0.000000000               0.000000000               0.000000000               0.000000000              -0.001773225               0.003060489              -0.001511584              -0.001047518               0.001369325               0.000321807               0.000000000               0.000000000               0.000000000               0.000000000              -0.001226512               0.003492187              -0.001401206              -0.000896464               0.001462872               0.000566408               0.000000000               0.000000000               0.000000000               0.000000000              -0.000708648               0.003842630              -0.001291293              -0.000746070               0.001529554               0.000783483               0.000000000               0.000000000               0.000000000               0.000000000              -0.000200254               0.004122247              -0.001186824              -0.000590375               0.001570860               0.000980485               0.000000000               0.000000000               0.000000000               0.000000000               0.000315161               0.004348977              -0.001091540              -0.000425436               0.001591456               0.001166020               0.000000000               0.000000000               0.000000000               0.000000000               0.000844017               0.004536074              -0.000996807              -0.000250503               0.001595510               0.001345007               0.000000000               0.000000000               0.000000000               0.000000000               0.001389300               0.004685008              -0.000881049              -0.000064639               0.001583200               0.001518561               0.000000000               0.000000000               0.000000000               0.000000000               0.001954701               0.004799775              -0.000732837               0.000133039               0.001555562               0.001688602               0.000000000               0.000000000               0.000000000               0.000000000               0.002538994               0.004885162              -0.000543564               0.000341474               0.001514546               0.001856021               0.000000000               0.000000000               0.000000000               0.000000000               0.003135637               0.004949404              -0.000299821               0.000557183               0.001464057               0.002021240               0.000000000               0.000000000               0.000000000               0.000000000               0.003541694               0.005016397              -0.000177534               0.000701079               0.001438423               0.002139501               0.000000000               0.000000000               0.000000000               0.000000000              -0.012882811              -0.001209928               0.000657019              -0.004679810               0.001156619              -0.003523191               0.000000000               0.000000000               0.000000000               0.000000000              -0.008868193              -0.000639191              -0.000016809              -0.003245671               0.000868821              -0.002376851               0.000000000               0.000000000               0.000000000               0.000000000              -0.005709884              -0.000326357              -0.000650774              -0.002100410               0.000591347              -0.001509063               0.000000000               0.000000000               0.000000000               0.000000000              -0.003980299               0.000392518              -0.000866400              -0.001541675               0.000644727              -0.000896949               0.000000000               0.000000000               0.000000000               0.000000000              -0.002889827               0.001131227              -0.000914098              -0.001225087               0.000785432              -0.000439655               0.000000000               0.000000000               0.000000000               0.000000000              -0.002112839               0.001797081              -0.000897053              -0.001016948               0.000938003              -0.000078945               0.000000000               0.000000000               0.000000000               0.000000000              -0.001495244               0.002380327              -0.000853086              -0.000858256               0.001079519               0.000221264               0.000000000               0.000000000               0.000000000               0.000000000              -0.000950635               0.002890625              -0.000796161              -0.000717815               0.001202803               0.000484989               0.000000000               0.000000000               0.000000000               0.000000000              -0.000438466               0.003325875              -0.000736310              -0.000580158               0.001302000               0.000721842               0.000000000               0.000000000               0.000000000               0.000000000               0.000064882               0.003691932              -0.000679712              -0.000437160               0.001376352               0.000939192               0.000000000               0.000000000               0.000000000               0.000000000               0.000578008               0.004005855              -0.000629967              -0.000283979               0.001429931               0.001145953               0.000000000               0.000000000               0.000000000               0.000000000               0.001111992               0.004279880              -0.000581438              -0.000117988               0.001465942               0.001347953               0.000000000               0.000000000               0.000000000               0.000000000               0.001680462               0.004512634              -0.000521890               0.000066093               0.001482165               0.001548258               0.000000000               0.000000000               0.000000000               0.000000000               0.002300230               0.004696651              -0.000442156               0.000275502               0.001473701               0.001749203               0.000000000               0.000000000               0.000000000               0.000000000               0.002987656               0.004834240              -0.000335907               0.000516086               0.001439369               0.001955454               0.000000000               0.000000000               0.000000000               0.000000000               0.003761547               0.004931811              -0.000190128               0.000794096               0.001379222               0.002173318               0.000000000               0.000000000               0.000000000               0.000000000               0.004338887               0.005028790              -0.000116415               0.000998474               0.001343422               0.002341896               0.000000000               0.000000000               0.000000000               0.000000000               0.000000000               0.000000000               0.000000000               0.000000000               0.000000000               0.000000000               0.000000000               0.000000000               0.000000000               0.000000000               0.000000000               0.000000000               0.000000000               0.000000000               0.000000000               0.000000000               0.000000000               0.000000000               0.000000000               0.000000000               0.000000000               0.000000000               0.000000000               0.000000000               0.000000000               0.000000000               0.000000000               0.000000000               0.000000000               0.000000000               0.000000000               0.000000000               0.000000000               0.000000000               0.000000000               0.000000000               0.000000000               0.000000000               0.000000000               0.000000000               0.000000000               0.000000000               0.000000000               0.000000000               0.000000000               0.000000000               0.000000000               0.000000000               0.000000000               0.000000000               0.000000000               0.000000000               0.000000000               0.000000000               0.000000000               0.000000000               0.000000000               0.000000000               0.000000000               0.000000000               0.000000000               0.000000000               0.000000000               0.000000000               0.000000000               0.000000000               0.000000000               0.000000000               0.000000000               0.000000000               0.000000000               0.000000000               0.000000000               0.000000000               0.000000000               0.000000000               0.000000000               0.000000000               0.000000000               0.000000000               0.000000000               0.000000000               0.000000000               0.000000000               0.000000000               0.000000000               0.000000000               0.000000000               0.000000000               0.000000000               0.000000000               0.000000000               0.000000000               0.000000000               0.000000000               0.000000000               0.000000000               0.000000000               0.000000000               0.000000000               0.000000000               0.000000000               0.000000000               0.000000000               0.000000000               0.000000000               0.000000000               0.000000000               0.000000000               0.000000000               0.000000000               0.000000000               0.000000000               0.000000000               0.000000000               0.000000000               0.000000000               0.000000000               0.000000000               0.000000000               0.000000000               0.000000000               0.000000000               0.000000000               0.000000000               0.000000000               0.000000000               0.000000000               0.000000000               0.000000000               0.000000000               0.000000000               0.000000000               0.000000000               0.000000000               0.000000000               0.000000000               0.000000000               0.000000000               0.000000000               0.000000000               0.000000000               0.000000000               0.000000000               0.000000000               0.000000000               0.000000000               0.000000000               0.000000000               0.000000000               0.000000000               0.000000000               0.000000000               0.000000000               0.000000000               0.000000000               0.000000000               0.000000000               0.000000000               0.000000000               0.000000000               0.000000000               0.000000000               0.000000000               0.000000000               0.000000000               0.000000000               0.000000000               0.000000000               0.000000000               0.000000000               0.000000000               0.000000000               0.000000000               0.000000000               0.000000000               0.000000000               0.000000000               0.000000000               0.000000000               0.000000000               0.000000000               0.000000000               0.000000000               0.000000000               0.000000000               0.000000000               0.000000000               0.000000000               0.000000000               0.000000000               0.000000000               0.000000000               0.000000000               0.000000000               0.000000000               0.000000000               0.000000000               0.000000000               0.000000000               0.000000000               0.000000000               0.000000000               0.000000000               0.000000000               0.000000000               0.000000000               0.000000000               0.000000000               0.000000000               0.000000000               0.000000000               0.000000000               0.000000000               0.000000000               0.000000000               0.000000000               0.000000000               0.000000000               0.000000000               0.000000000               0.000000000               0.000000000               0.000000000               0.000000000               0.000000000               0.000000000               0.000000000               0.000000000               0.000000000               0.000000000               0.000000000               0.000000000               0.000000000               0.000000000               0.000000000               0.000000000               0.000000000               0.000000000               0.000000000               0.000000000               0.000000000               0.000000000               0.000000000               0.000000000               0.000000000               0.000000000               0.000000000               0.000000000               0.000000000               0.000000000               0.000000000               0.000000000               0.000000000               0.000000000               0.000000000               0.000000000               0.000000000               0.000000000               0.000000000               0.000000000               0.000000000               0.000000000               0.000000000               0.000000000               0.000000000               0.000000000               0.000000000               0.000000000               0.000000000               0.000000000               0.000000000               0.000000000               0.000000000               0.000000000               0.000000000               0.000000000               0.000000000               0.000000000               0.000000000               0.000000000               0.000000000               0.000000000               0.000000000               0.000000000               0.000000000               0.000000000               0.000000000               0.000000000               0.000000000               0.000000000               0.000000000               0.000000000               0.000000000               0.000000000               0.000000000               0.000000000               0.000000000               0.000000000               0.000000000               0.000000000               0.000000000               0.000000000               0.000000000               0.000000000               0.000000000               0.000000000               0.000000000               0.000000000               0.000000000               0.000000000               0.000000000               0.000000000               0.000000000               0.000000000               0.000000000               0.000000000               0.000000000               0.000000000               0.000000000               0.000000000               0.000000000               0.000000000               0.000000000               0.000000000               0.000000000               0.000000000               0.000000000               0.000000000               0.000000000               0.000000000               0.000000000               0.000000000               0.000000000               0.000000000               0.000000000               0.000000000               0.000000000               0.000000000               0.000000000               0.002022317               0.020562338               0.001388540              -0.001811919               0.007458017               0.005646098               0.000000000               0.000000000               0.000000000               0.000000000               0.001806755               0.015805675               0.000619957              -0.001298173               0.005701230               0.004403057               0.000000000               0.000000000               0.000000000               0.000000000               0.002194631               0.011959405              -0.000135115              -0.000671937               0.004210408               0.003538470               0.000000000               0.000000000               0.000000000               0.000000000               0.001945371               0.009763892              -0.000445664              -0.000490971               0.003418255               0.002927284               0.000000000               0.000000000               0.000000000               0.000000000               0.001550790               0.008358689              -0.000569299              -0.000463289               0.002940631               0.002477343               0.000000000               0.000000000               0.000000000               0.000000000               0.001162378               0.007365373              -0.000602616              -0.000484779               0.002616693               0.002131914               0.000000000               0.000000000               0.000000000               0.000000000               0.000830477               0.006591075              -0.000591706              -0.000512454               0.002367821               0.001855367               0.000000000               0.000000000               0.000000000               0.000000000               0.000566149               0.005935636              -0.000563855              -0.000529648               0.002155075               0.001625427               0.000000000               0.000000000               0.000000000               0.000000000               0.000358123               0.005345517              -0.000532282              -0.000533892               0.001959785               0.001425893               0.000000000               0.000000000               0.000000000               0.000000000               0.000197175               0.004790726              -0.000500356              -0.000524899               0.001771859               0.001246960               0.000000000               0.000000000               0.000000000               0.000000000               0.000073281               0.004249968              -0.000467514              -0.000503765               0.001584563               0.001080799               0.000000000               0.000000000               0.000000000               0.000000000              -0.000017666               0.003709583              -0.000430515              -0.000470322               0.001393289               0.000922967               0.000000000               0.000000000               0.000000000               0.000000000              -0.000075402               0.003156096              -0.000386014              -0.000422787               0.001192950               0.000770164               0.000000000               0.000000000               0.000000000               0.000000000              -0.000104665               0.002573176              -0.000329623              -0.000360896               0.000978015               0.000617120               0.000000000               0.000000000               0.000000000               0.000000000              -0.000100769               0.001947513              -0.000253011              -0.000281227               0.000742907               0.000461680               0.000000000               0.000000000               0.000000000               0.000000000              -0.000057810               0.001264598              -0.000143320              -0.000179753               0.000481446               0.000301693               0.000000000               0.000000000               0.000000000               0.000000000              -0.000081551               0.000755744              -0.000089123              -0.000125049               0.000293595               0.000168546               0.000000000               0.000000000               0.000000000               0.000000000               0.002155348               0.019273962               0.002565265              -0.001600987               0.006958252               0.005357265               0.000000000               0.000000000               0.000000000               0.000000000               0.001618161               0.014994932               0.001138255              -0.001267553               0.005420778               0.004153225               0.000000000               0.000000000               0.000000000               0.000000000               0.001666402               0.011643371              -0.000251272              -0.000830519               0.004157924               0.003327406               0.000000000               0.000000000               0.000000000               0.000000000               0.001301444               0.009697903              -0.000800229              -0.000724195               0.003474000               0.002749805               0.000000000               0.000000000               0.000000000               0.000000000               0.000891379               0.008413049              -0.001005777              -0.000717363               0.003043442               0.002326080               0.000000000               0.000000000               0.000000000               0.000000000               0.000534407               0.007476651              -0.001056052              -0.000734177               0.002736918               0.002002740               0.000000000               0.000000000               0.000000000               0.000000000               0.000257515               0.006731227              -0.001030608              -0.000744834               0.002491998               0.001747164               0.000000000               0.000000000               0.000000000               0.000000000               0.000055370               0.006087811              -0.000977213              -0.000740211               0.002275987               0.001535776               0.000000000               0.000000000               0.000000000               0.000000000              -0.000087566               0.005502462              -0.000917167              -0.000720643               0.002074350               0.001353707               0.000000000               0.000000000               0.000000000               0.000000000              -0.000179982               0.004950553              -0.000855282              -0.000686311               0.001878938               0.001192627               0.000000000               0.000000000               0.000000000               0.000000000              -0.000235728               0.004416706              -0.000791841              -0.000640485               0.001685715               0.001045230               0.000000000               0.000000000               0.000000000               0.000000000              -0.000262551               0.003890622              -0.000723082              -0.000584783               0.001491788               0.000907005               0.000000000               0.000000000               0.000000000               0.000000000              -0.000257395               0.003365891              -0.000640155              -0.000517259               0.001294372               0.000777113               0.000000000               0.000000000               0.000000000               0.000000000              -0.000226179               0.002830442              -0.000535917              -0.000438621               0.001089678               0.000651057               0.000000000               0.000000000               0.000000000               0.000000000              -0.000168266               0.002282955              -0.000400675              -0.000348468               0.000877134               0.000528665               0.000000000               0.000000000               0.000000000               0.000000000              -0.000086744               0.001729095              -0.000222068              -0.000248665               0.000659248               0.000410582               0.000000000               0.000000000               0.000000000               0.000000000              -0.000083316               0.001345307              -0.000136819              -0.000199406               0.000514900               0.000315494               0.000000000               0.000000000               0.000000000               0.000000000               0.002252748               0.017315573               0.003370321              -0.001319665               0.006211688               0.004892023               0.000000000               0.000000000               0.000000000               0.000000000               0.001274553               0.013782854               0.001491377              -0.001244897               0.005009204               0.003764307               0.000000000               0.000000000               0.000000000               0.000000000               0.000859838               0.011175234              -0.000309410              -0.001074463               0.004083195               0.003008732               0.000000000               0.000000000               0.000000000               0.000000000               0.000363265               0.009578263              -0.000976594              -0.001061056               0.003546408               0.002485352               0.000000000               0.000000000               0.000000000               0.000000000              -0.000034434               0.008460324              -0.001206802              -0.001070451               0.003176896               0.002106446               0.000000000               0.000000000               0.000000000               0.000000000              -0.000319645               0.007595344              -0.001254342              -0.001069283               0.002888183               0.001818901               0.000000000               0.000000000               0.000000000               0.000000000              -0.000501847               0.006876438              -0.001213328              -0.001047745               0.002641371               0.001593626               0.000000000               0.000000000               0.000000000               0.000000000              -0.000603729               0.006242786              -0.001140137              -0.001006745               0.002416489               0.001409745               0.000000000               0.000000000               0.000000000               0.000000000              -0.000651180               0.005664062              -0.001060980              -0.000952198               0.002205401               0.001253203               0.000000000               0.000000000               0.000000000               0.000000000              -0.000652597               0.005122205              -0.000980425              -0.000884998               0.002002384               0.001117386               0.000000000               0.000000000               0.000000000               0.000000000              -0.000617028               0.004604862              -0.000897697              -0.000806991               0.001803936               0.000996944               0.000000000               0.000000000               0.000000000               0.000000000              -0.000552945               0.004102581              -0.000809898              -0.000720176               0.001607572               0.000887396               0.000000000               0.000000000               0.000000000               0.000000000              -0.000461581               0.003614695              -0.000705992              -0.000624928               0.001413196               0.000788267               0.000000000               0.000000000               0.000000000               0.000000000              -0.000349890               0.003146333              -0.000576923              -0.000524499               0.001223600               0.000699101               0.000000000               0.000000000               0.000000000               0.000000000              -0.000226797               0.002706527              -0.000418500              -0.000423364               0.001043288               0.000619924               0.000000000               0.000000000               0.000000000               0.000000000              -0.000105874               0.002315576              -0.000225197              -0.000329149               0.000881567               0.000552418               0.000000000               0.000000000               0.000000000               0.000000000              -0.000074290               0.002076444              -0.000133141              -0.000287414               0.000787946               0.000500532               0.000000000               0.000000000               0.000000000               0.000000000               0.002180118               0.014921891               0.003735767              -0.001047692               0.005323144               0.004275452               0.000000000               0.000000000               0.000000000               0.000000000               0.000754482               0.012334645               0.001668287              -0.001258898               0.004531139               0.003272242               0.000000000               0.000000000               0.000000000               0.000000000              -0.000133192               0.010609802              -0.000276472              -0.001376169               0.003995288               0.002619119               0.000000000               0.000000000               0.000000000               0.000000000              -0.000707264               0.009392449              -0.000939854              -0.001439277               0.003610544               0.002171267               0.000000000               0.000000000               0.000000000               0.000000000              -0.001036008               0.008440703              -0.001146973              -0.001443587               0.003294735               0.001851148               0.000000000               0.000000000               0.000000000               0.000000000              -0.001200063               0.007642473              -0.001180042              -0.001405330               0.003015909               0.001610579               0.000000000               0.000000000               0.000000000               0.000000000              -0.001253568               0.006948553              -0.001133410              -0.001338654               0.002762379               0.001423725               0.000000000               0.000000000               0.000000000               0.000000000              -0.001228501               0.006333077              -0.001056021              -0.001252320               0.002528444               0.001276125               0.000000000               0.000000000               0.000000000               0.000000000              -0.001154762               0.005771413              -0.000973876              -0.001154460               0.002308605               0.001154145               0.000000000               0.000000000               0.000000000               0.000000000              -0.001047126               0.005245699              -0.000891245              -0.001048382               0.002098009               0.001049627               0.000000000               0.000000000               0.000000000               0.000000000              -0.000908576               0.004749903              -0.000807754              -0.000934452               0.001894769               0.000960317               0.000000000               0.000000000               0.000000000               0.000000000              -0.000747851               0.004281970              -0.000718124              -0.000815689               0.001699205               0.000883517               0.000000000               0.000000000               0.000000000               0.000000000              -0.000572913               0.003848972              -0.000614022              -0.000695962               0.001514965               0.000819003               0.000000000               0.000000000               0.000000000               0.000000000              -0.000394074               0.003464270              -0.000486830              -0.000580810               0.001348349               0.000767538               0.000000000               0.000000000               0.000000000               0.000000000              -0.000231004               0.003142355              -0.000336813              -0.000479420               0.001207248               0.000727828               0.000000000               0.000000000               0.000000000               0.000000000              -0.000099677               0.002902542              -0.000172516              -0.000400196               0.001100903               0.000700707               0.000000000               0.000000000               0.000000000               0.000000000              -0.000053334               0.002788599              -0.000093951              -0.000368574               0.001052382               0.000683808               0.000000000               0.000000000               0.000000000               0.000000000               0.001833174               0.012349355               0.003667812              -0.000856230               0.004401820               0.003545589               0.000000000               0.000000000               0.000000000               0.000000000               0.000060790               0.010809553               0.001692368              -0.001328395               0.004045946               0.002717551               0.000000000               0.000000000               0.000000000               0.000000000              -0.001206303               0.009984775              -0.000134331              -0.001700456               0.003895044               0.002194587               0.000000000               0.000000000               0.000000000               0.000000000              -0.001759310               0.009116763              -0.000704908              -0.001799332               0.003638668               0.001839336               0.000000000               0.000000000               0.000000000               0.000000000              -0.001952825               0.008306162              -0.000869952              -0.001770575               0.003358885               0.001588309               0.000000000               0.000000000               0.000000000               0.000000000              -0.001952031               0.007569737              -0.000896483              -0.001678225               0.003082629               0.001404404               0.000000000               0.000000000               0.000000000               0.000000000              -0.001846836               0.006914273              -0.000862231              -0.001556844               0.002823683               0.001266839               0.000000000               0.000000000               0.000000000               0.000000000              -0.001683748               0.006327081              -0.000799868              -0.001422287               0.002583102               0.001160814               0.000000000               0.000000000               0.000000000               0.000000000              -0.001486451               0.005787381              -0.000731146              -0.001280839               0.002356054               0.001075215               0.000000000               0.000000000               0.000000000               0.000000000              -0.001260653               0.005287642              -0.000661690              -0.001133697               0.002140429               0.001006731               0.000000000               0.000000000               0.000000000               0.000000000              -0.001019570               0.004823814              -0.000591872              -0.000985313               0.001936360               0.000951047               0.000000000               0.000000000               0.000000000               0.000000000              -0.000775192               0.004406202              -0.000515030              -0.000841470               0.001749209               0.000907739               0.000000000               0.000000000               0.000000000               0.000000000              -0.000542555               0.004045397              -0.000423876              -0.000709131               0.001584829               0.000875698               0.000000000               0.000000000               0.000000000               0.000000000              -0.000333025               0.003752516              -0.000315101              -0.000593947               0.001448809               0.000854861               0.000000000               0.000000000               0.000000000               0.000000000              -0.000166776               0.003535983              -0.000196618              -0.000504537               0.001346828               0.000842291               0.000000000               0.000000000               0.000000000               0.000000000              -0.000060800               0.003408088              -0.000088279              -0.000448810               0.001285621               0.000836811               0.000000000               0.000000000               0.000000000               0.000000000              -0.000023400               0.003372408              -0.000040481              -0.000430325               0.001267566               0.000837241               0.000000000               0.000000000               0.000000000               0.000000000               0.001148081               0.009821893               0.003239052              -0.000797207               0.003539666               0.002742459               0.000000000               0.000000000               0.000000000               0.000000000              -0.000774351               0.009327414               0.001616605              -0.001456306               0.003594542               0.002138236               0.000000000               0.000000000               0.000000000               0.000000000              -0.002241353               0.009323861               0.000125588              -0.002005985               0.003776584               0.001770599               0.000000000               0.000000000               0.000000000               0.000000000              -0.002655272               0.008742213              -0.000315630              -0.002088498               0.003610208               0.001521710               0.000000000               0.000000000               0.000000000               0.000000000              -0.002656083               0.008050452              -0.000449097              -0.002002333               0.003350902               0.001348569               0.000000000               0.000000000               0.000000000               0.000000000              -0.002472792               0.007381250              -0.000489364              -0.001849948               0.003077041               0.001227093               0.000000000               0.000000000               0.000000000               0.000000000              -0.002203128               0.006775433              -0.000486642              -0.001673098               0.002816154               0.001143056               0.000000000               0.000000000               0.000000000               0.000000000              -0.001899217               0.006224326              -0.000455213              -0.001490243               0.002571502               0.001081259               0.000000000               0.000000000               0.000000000               0.000000000              -0.001584950               0.005713845              -0.000418015              -0.001308584               0.002340791               0.001032207               0.000000000               0.000000000               0.000000000               0.000000000              -0.001261595               0.005249093              -0.000377107              -0.001129232               0.002126091               0.000996859               0.000000000               0.000000000               0.000000000               0.000000000              -0.000944838               0.004837659              -0.000332018              -0.000959019               0.001932210               0.000973191               0.000000000               0.000000000               0.000000000               0.000000000              -0.000651404               0.004492117              -0.000280435              -0.000805789               0.001765954               0.000960165               0.000000000               0.000000000               0.000000000               0.000000000              -0.000396720               0.004217435              -0.000216711              -0.000675948               0.001631114               0.000955166               0.000000000               0.000000000               0.000000000               0.000000000              -0.000195428               0.004016680              -0.000140307              -0.000575369               0.001530670               0.000955301               0.000000000               0.000000000               0.000000000               0.000000000              -0.000064967               0.003892518              -0.000066154              -0.000510926               0.001467802               0.000956875               0.000000000               0.000000000               0.000000000               0.000000000              -0.000008766               0.003848053              -0.000018297              -0.000484293               0.001444102               0.000959810               0.000000000               0.000000000               0.000000000               0.000000000               0.000006191               0.003855340              -0.000001243              -0.000479595               0.001444965               0.000965371               0.000000000               0.000000000               0.000000000               0.000000000               0.000152129               0.007492798               0.002560858              -0.000879551               0.002790758               0.001911206               0.000000000               0.000000000               0.000000000               0.000000000              -0.001698748               0.007971414               0.001496300              -0.001633454               0.003201596               0.001568142               0.000000000               0.000000000               0.000000000               0.000000000              -0.003130812               0.008633751               0.000492937              -0.002253268               0.003628978               0.001375710               0.000000000               0.000000000               0.000000000               0.000000000              -0.003306678               0.008269181               0.000166015              -0.002273646               0.003514248               0.001240602               0.000000000               0.000000000               0.000000000               0.000000000              -0.003084919               0.007690731               0.000030976              -0.002118181               0.003269612               0.001151431               0.000000000               0.000000000               0.000000000               0.000000000              -0.002721729               0.007106723              -0.000041296              -0.001908984               0.003005212               0.001096228               0.000000000               0.000000000               0.000000000               0.000000000              -0.002306106               0.006557231              -0.000085210              -0.001684439               0.002747202               0.001062762               0.000000000               0.000000000               0.000000000               0.000000000              -0.001876281               0.006047455              -0.000102968              -0.001459534               0.002502309               0.001042776               0.000000000               0.000000000               0.000000000               0.000000000              -0.001459936               0.005580731              -0.000108271              -0.001245064               0.002275246               0.001030182               0.000000000               0.000000000               0.000000000               0.000000000              -0.001067521               0.005169386              -0.000107164              -0.001046491               0.002071942               0.001025451               0.000000000               0.000000000               0.000000000               0.000000000              -0.000708922               0.004829209              -0.000100584              -0.000869495               0.001899552               0.001030057               0.000000000               0.000000000               0.000000000               0.000000000              -0.000401583               0.004567517              -0.000087172              -0.000721531               0.001763001               0.001041469               0.000000000               0.000000000               0.000000000               0.000000000              -0.000164821               0.004383968              -0.000060504              -0.000609802               0.001664575               0.001054773               0.000000000               0.000000000               0.000000000               0.000000000              -0.000007949               0.004281618              -0.000023564              -0.000538182               0.001606586               0.001068404               0.000000000               0.000000000               0.000000000               0.000000000               0.000066470               0.004259359               0.000006127              -0.000507492               0.001588936               0.001081444               0.000000000               0.000000000               0.000000000               0.000000000               0.000060366               0.004294987               0.000014293              -0.000514235               0.001603060               0.001088825               0.000000000               0.000000000               0.000000000               0.000000000               0.000043164               0.004340699               0.000017201              -0.000526400               0.001622352               0.001095952               0.000000000               0.000000000               0.000000000               0.000000000              -0.001028801               0.005533915               0.001747661              -0.001077538               0.002203799               0.001126261               0.000000000               0.000000000               0.000000000               0.000000000              -0.002608592               0.006764728               0.001371227              -0.001823809               0.002862823               0.001039014               0.000000000               0.000000000               0.000000000               0.000000000              -0.003832203               0.007943246               0.000936897              -0.002429976               0.003457714               0.001027738               0.000000000               0.000000000               0.000000000               0.000000000              -0.003751658               0.007810733               0.000680865              -0.002383207               0.003397954               0.001014747               0.000000000               0.000000000               0.000000000               0.000000000              -0.003341754               0.007374315               0.000515635              -0.002174942               0.003183061               0.001008119               0.000000000               0.000000000               0.000000000               0.000000000              -0.002830863               0.006892723               0.000398760              -0.001923159               0.002938604               0.001015445               0.000000000               0.000000000               0.000000000               0.000000000              -0.002299433               0.006413858               0.000304108              -0.001664015               0.002692603               0.001028588               0.000000000               0.000000000               0.000000000               0.000000000              -0.001773768               0.005952977               0.000229351              -0.001409282               0.002454066               0.001044785               0.000000000               0.000000000               0.000000000               0.000000000              -0.001279076               0.005534569               0.000172659              -0.001171472               0.002235329               0.001063857               0.000000000               0.000000000               0.000000000               0.000000000              -0.000831994               0.005173614               0.000127653              -0.000958697               0.002044086               0.001085389               0.000000000               0.000000000               0.000000000               0.000000000              -0.000447668               0.004884918               0.000087645              -0.000778488               0.001887786               0.001109297               0.000000000               0.000000000               0.000000000               0.000000000              -0.000141137               0.004675305               0.000053621              -0.000637338               0.001770865               0.001133527               0.000000000               0.000000000               0.000000000               0.000000000               0.000078676               0.004551600               0.000032253              -0.000539445               0.001697000               0.001157555               0.000000000               0.000000000               0.000000000               0.000000000               0.000205290               0.004517109               0.000022659              -0.000487654               0.001668239               0.001180586               0.000000000               0.000000000               0.000000000               0.000000000               0.000247312               0.004563891               0.000019012              -0.000477743               0.001680530               0.001202786               0.000000000               0.000000000               0.000000000               0.000000000               0.000223866               0.004667421               0.000013416              -0.000499477               0.001722284               0.001222807               0.000000000               0.000000000               0.000000000               0.000000000               0.000192058               0.004740051               0.000010444              -0.000520483               0.001753496               0.001233012               0.000000000               0.000000000               0.000000000               0.000000000              -0.002399372               0.003724510               0.000896936              -0.001365325               0.001696599               0.000331274               0.000000000               0.000000000               0.000000000               0.000000000              -0.003384806               0.005371526               0.001237318              -0.001940739               0.002437403               0.000496665               0.000000000               0.000000000               0.000000000               0.000000000              -0.004266269               0.006928632               0.001404925              -0.002465924               0.003131495               0.000665571               0.000000000               0.000000000               0.000000000               0.000000000              -0.004036522               0.007150161               0.001228576              -0.002407460               0.003185850               0.000778390               0.000000000               0.000000000               0.000000000               0.000000000              -0.003543759               0.006960626               0.001036860              -0.002198983               0.003053180               0.000854197               0.000000000               0.000000000               0.000000000               0.000000000              -0.002984224               0.006657371               0.000871917              -0.001951251               0.002869518               0.000918267               0.000000000               0.000000000               0.000000000               0.000000000              -0.002417672               0.006321350               0.000728427              -0.001696792               0.002672693               0.000975901               0.000000000               0.000000000               0.000000000               0.000000000              -0.001864958               0.005979149               0.000602412              -0.001446749               0.002475280               0.001028530               0.000000000               0.000000000               0.000000000               0.000000000              -0.001340705               0.005649863               0.000494335              -0.001208994               0.002286267               0.001077273               0.000000000               0.000000000               0.000000000               0.000000000              -0.000862272               0.005347698               0.000400237              -0.000991812               0.002113152               0.001121340               0.000000000               0.000000000               0.000000000               0.000000000              -0.000441129               0.005092089               0.000311148              -0.000801932               0.001964657               0.001162724               0.000000000               0.000000000               0.000000000               0.000000000              -0.000094002               0.004900964               0.000227132              -0.000647870               0.001849595               0.001201725               0.000000000               0.000000000               0.000000000               0.000000000               0.000172003               0.004783913               0.000151630              -0.000533486               0.001772450               0.001238964               0.000000000               0.000000000               0.000000000               0.000000000               0.000349323               0.004735867               0.000087893              -0.000460986               0.001732269               0.001271283               0.000000000               0.000000000               0.000000000               0.000000000               0.000444462               0.004759907               0.000041830              -0.000428314               0.001729391               0.001301077               0.000000000               0.000000000               0.000000000               0.000000000               0.000477978               0.004856548               0.000014545              -0.000427826               0.001761442               0.001333616               0.000000000               0.000000000               0.000000000               0.000000000               0.000469073               0.004920006               0.000002457              -0.000439097               0.001786351               0.001347254               0.000000000               0.000000000               0.000000000               0.000000000              -0.004127493               0.002083753               0.000075736              -0.001808276               0.001297334              -0.000510941               0.000000000               0.000000000               0.000000000               0.000000000              -0.004249502               0.003962392               0.001048277              -0.002088858               0.002017069              -0.000071789               0.000000000               0.000000000               0.000000000               0.000000000              -0.004616647               0.005721213               0.001785727              -0.002446388               0.002722514               0.000276126               0.000000000               0.000000000               0.000000000               0.000000000              -0.004252995               0.006277694               0.001756068              -0.002379579               0.002885736               0.000506157               0.000000000               0.000000000               0.000000000               0.000000000              -0.003710313               0.006371780               0.001568757              -0.002187835               0.002853183               0.000665348               0.000000000               0.000000000               0.000000000               0.000000000              -0.003137476               0.006282341               0.001371548              -0.001961842               0.002748040               0.000786198               0.000000000               0.000000000               0.000000000               0.000000000              -0.002558115               0.006118882               0.001191033              -0.001724149               0.002614323               0.000890174               0.000000000               0.000000000               0.000000000               0.000000000              -0.001992958               0.005915551               0.001025583              -0.001486800               0.002467430               0.000980631               0.000000000               0.000000000               0.000000000               0.000000000              -0.001452680               0.005694897               0.000874722              -0.001256614               0.002317151               0.001060537               0.000000000               0.000000000               0.000000000               0.000000000              -0.000950873               0.005471932               0.000738372              -0.001040566               0.002170815               0.001130248               0.000000000               0.000000000               0.000000000               0.000000000              -0.000489700               0.005263777               0.000608232              -0.000841608               0.002035111               0.001193503               0.000000000               0.000000000               0.000000000               0.000000000              -0.000081527               0.005089776               0.000480535              -0.000666793               0.001918839               0.001252046               0.000000000               0.000000000               0.000000000               0.000000000               0.000259435               0.004960780               0.000354868              -0.000522808               0.001827846               0.001305038               0.000000000               0.000000000               0.000000000               0.000000000               0.000519774               0.004881579               0.000233663              -0.000415281               0.001765604               0.001350323               0.000000000               0.000000000               0.000000000               0.000000000               0.000693317               0.004860767               0.000129569              -0.000347601               0.001736107               0.001388505               0.000000000               0.000000000               0.000000000               0.000000000               0.000788608               0.004907544               0.000051225              -0.000317714               0.001741737               0.001424022               0.000000000               0.000000000               0.000000000               0.000000000               0.000809784               0.004943506               0.000017001              -0.000314269               0.001752575               0.001438307               0.000000000               0.000000000               0.000000000               0.000000000              -0.006090807               0.000748013              -0.000635825              -0.002377552               0.001041848              -0.001335704               0.000000000               0.000000000               0.000000000               0.000000000              -0.005240491               0.002624782               0.000794084              -0.002293278               0.001639342              -0.000653936               0.000000000               0.000000000               0.000000000               0.000000000              -0.004903418               0.004327801               0.001975313              -0.002379752               0.002235835              -0.000143917               0.000000000               0.000000000               0.000000000               0.000000000              -0.004335372               0.005118136               0.002126072              -0.002265526               0.002461203               0.000195676               0.000000000               0.000000000               0.000000000               0.000000000              -0.003731060               0.005473100               0.001991539              -0.002083280               0.002518775               0.000435494               0.000000000               0.000000000               0.000000000               0.000000000              -0.003139909               0.005613837               0.001799001              -0.001879191               0.002497657               0.000618466               0.000000000               0.000000000               0.000000000               0.000000000              -0.002560915               0.005640625               0.001607497              -0.001665418               0.002435328               0.000769911               0.000000000               0.000000000               0.000000000               0.000000000              -0.001995012               0.005598561               0.001422810              -0.001447946               0.002348817               0.000900871               0.000000000               0.000000000               0.000000000               0.000000000              -0.001449062               0.005518348               0.001247349              -0.001233189               0.002250494               0.001017305               0.000000000               0.000000000               0.000000000               0.000000000              -0.000932753               0.005409735               0.001085162              -0.001025997               0.002145226               0.001119229               0.000000000               0.000000000               0.000000000               0.000000000              -0.000447821               0.005285208               0.000931790              -0.000828582               0.002037912               0.001209330               0.000000000               0.000000000               0.000000000               0.000000000               0.000005957               0.005157978               0.000781933              -0.000642512               0.001933479               0.001290967               0.000000000               0.000000000               0.000000000               0.000000000               0.000409941               0.005042475               0.000626819              -0.000476581               0.001839668               0.001363088               0.000000000               0.000000000               0.000000000               0.000000000               0.000747473               0.004960261               0.000460093              -0.000339730               0.001766647               0.001426917               0.000000000               0.000000000               0.000000000               0.000000000               0.000998701               0.004926088               0.000292405              -0.000241248               0.001722429               0.001481181               0.000000000               0.000000000               0.000000000               0.000000000               0.001149438               0.004943236               0.000137494              -0.000186865               0.001710017               0.001523152               0.000000000               0.000000000               0.000000000               0.000000000               0.001191998               0.004960140               0.000064055              -0.000173018               0.001711036               0.001538018               0.000000000               0.000000000               0.000000000               0.000000000              -0.008150825              -0.000201042              -0.001130394              -0.003031427               0.000943455              -0.002087972               0.000000000               0.000000000               0.000000000               0.000000000              -0.006301262               0.001438746               0.000516108              -0.002542813               0.001327177              -0.001215636               0.000000000               0.000000000               0.000000000               0.000000000              -0.005157881               0.002877146               0.001943263              -0.002293845               0.001723651              -0.000570193               0.000000000               0.000000000               0.000000000               0.000000000              -0.004311449               0.003776508               0.002248587              -0.002088853               0.001955106              -0.000133747               0.000000000               0.000000000               0.000000000               0.000000000              -0.003609828               0.004328867               0.002197049              -0.001894790               0.002074537               0.000179747               0.000000000               0.000000000               0.000000000               0.000000000              -0.002984535               0.004677247               0.002044345              -0.001703853               0.002127017               0.000423164               0.000000000               0.000000000               0.000000000               0.000000000              -0.002404149               0.004895045               0.001867395              -0.001513433               0.002136143               0.000622709               0.000000000               0.000000000               0.000000000               0.000000000              -0.001851097               0.005027624               0.001686679              -0.001322612               0.002116728               0.000794116               0.000000000               0.000000000               0.000000000               0.000000000              -0.001311383               0.005101381               0.001512117              -0.001129439               0.002076923               0.000947483               0.000000000               0.000000000               0.000000000               0.000000000              -0.000786435               0.005123582               0.001347914              -0.000935359               0.002019630               0.001084270               0.000000000               0.000000000               0.000000000               0.000000000              -0.000280669               0.005110015               0.001194735              -0.000744002               0.001951322               0.001207320               0.000000000               0.000000000               0.000000000               0.000000000               0.000207652               0.005072743               0.001042508              -0.000556222               0.001876305               0.001320082               0.000000000               0.000000000               0.000000000               0.000000000               0.000663964               0.005021242               0.000876161              -0.000378668               0.001799953               0.001421285               0.000000000               0.000000000               0.000000000               0.000000000               0.001071551               0.004976766               0.000685569              -0.000220264               0.001732327               0.001512063               0.000000000               0.000000000               0.000000000               0.000000000               0.001408045               0.004954347               0.000471649              -0.000091277               0.001681858               0.001590582               0.000000000               0.000000000               0.000000000               0.000000000               0.001649059               0.004965868               0.000243110              -0.000002337               0.001656052               0.001653715               0.000000000               0.000000000               0.000000000               0.000000000               0.001747986               0.004983667               0.000128839               0.000032536               0.001650361               0.001682896               0.000000000               0.000000000               0.000000000               0.000000000              -0.010121089              -0.000783168              -0.001308213              -0.003697510               0.000971440              -0.002726070               0.000000000               0.000000000               0.000000000               0.000000000              -0.007344751               0.000478040               0.000268576              -0.002814034               0.001097350              -0.001716684               0.000000000               0.000000000               0.000000000               0.000000000              -0.005386066               0.001517997               0.001684993              -0.002209521               0.001242497              -0.000967024               0.000000000               0.000000000               0.000000000               0.000000000              -0.004210432               0.002406621               0.002070591              -0.001879737               0.001428775              -0.000450961               0.000000000               0.000000000               0.000000000               0.000000000              -0.003374552               0.003078863               0.002094957              -0.001650312               0.001576380              -0.000073932               0.000000000               0.000000000               0.000000000               0.000000000              -0.002703330               0.003584949               0.001998205              -0.001461864               0.001682258               0.000220394               0.000000000               0.000000000               0.000000000               0.000000000              -0.002115590               0.003973338               0.001856715              -0.001290011               0.001754436               0.000464425               0.000000000               0.000000000               0.000000000               0.000000000              -0.001569503               0.004275017               0.001702482              -0.001122939               0.001799304               0.000676365               0.000000000               0.000000000               0.000000000               0.000000000              -0.001042698               0.004497959               0.001553232              -0.000953255               0.001817056               0.000863801               0.000000000               0.000000000               0.000000000               0.000000000              -0.000523019               0.004654197               0.001411269              -0.000777905               0.001810685               0.001032779               0.000000000               0.000000000               0.000000000               0.000000000              -0.000007532               0.004762874               0.001279014              -0.000598183               0.001787003               0.001188820               0.000000000               0.000000000               0.000000000               0.000000000               0.000505251               0.004839486               0.001146653              -0.000415466               0.001751635               0.001336168               0.000000000               0.000000000               0.000000000               0.000000000               0.001011267               0.004887402               0.000993266              -0.000231700               0.001706351               0.001474651               0.000000000               0.000000000               0.000000000               0.000000000               0.001497804               0.004917330               0.000805453              -0.000052990               0.001656757               0.001603767               0.000000000               0.000000000               0.000000000               0.000000000               0.001950841               0.004939191               0.000580363               0.000114165               0.001608325               0.001722491               0.000000000               0.000000000               0.000000000               0.000000000               0.002345522               0.004965592               0.000312845               0.000258869               0.001568891               0.001827760               0.000000000               0.000000000               0.000000000               0.000000000               0.002569585               0.005000196               0.000176989               0.000338567               0.001553860               0.001892426               0.000000000               0.000000000               0.000000000               0.000000000              -0.011776428              -0.001084431              -0.001132906              -0.004280604               0.001065384              -0.003215220               0.000000000               0.000000000               0.000000000               0.000000000              -0.008248639              -0.000219291               0.000098537              -0.003065826               0.000948838              -0.002116987               0.000000000               0.000000000               0.000000000               0.000000000              -0.005578207               0.000402760               0.001234769              -0.002142171               0.000848304              -0.001293867               0.000000000               0.000000000               0.000000000               0.000000000              -0.004081236               0.001208918               0.001591194              -0.001681576               0.000963491              -0.000718085               0.000000000               0.000000000               0.000000000               0.000000000              -0.003101439               0.001936238               0.001652794              -0.001405067               0.001113760              -0.000291307               0.000000000               0.000000000               0.000000000               0.000000000              -0.002374646               0.002547811               0.001604743              -0.001208966               0.001252250               0.000043284               0.000000000               0.000000000               0.000000000               0.000000000              -0.001773225               0.003060489               0.001511584              -0.001047518               0.001369325               0.000321807               0.000000000               0.000000000               0.000000000               0.000000000              -0.001226512               0.003492187               0.001401206              -0.000896464               0.001462872               0.000566408               0.000000000               0.000000000               0.000000000               0.000000000              -0.000708648               0.003842630               0.001291293              -0.000746070               0.001529554               0.000783483               0.000000000               0.000000000               0.000000000               0.000000000              -0.000200254               0.004122247               0.001186824              -0.000590375               0.001570860               0.000980485               0.000000000               0.000000000               0.000000000               0.000000000               0.000315161               0.004348977               0.001091540              -0.000425436               0.001591456               0.001166020               0.000000000               0.000000000               0.000000000               0.000000000               0.000844017               0.004536074               0.000996807              -0.000250503               0.001595510               0.001345007               0.000000000               0.000000000               0.000000000               0.000000000               0.001389300               0.004685008               0.000881049              -0.000064639               0.001583200               0.001518561               0.000000000               0.000000000               0.000000000               0.000000000               0.001954701               0.004799775               0.000732837               0.000133039               0.001555562               0.001688602               0.000000000               0.000000000               0.000000000               0.000000000               0.002538994               0.004885162               0.000543564               0.000341474               0.001514546               0.001856021               0.000000000               0.000000000               0.000000000               0.000000000               0.003135637               0.004949404               0.000299821               0.000557183               0.001464057               0.002021240               0.000000000               0.000000000               0.000000000               0.000000000               0.003541694               0.005016397               0.000177534               0.000701079               0.001438423               0.002139501               0.000000000               0.000000000               0.000000000               0.000000000              -0.012882811              -0.001209928              -0.000657019              -0.004679810               0.001156619              -0.003523191               0.000000000               0.000000000               0.000000000               0.000000000              -0.008868193              -0.000639191               0.000016809              -0.003245671               0.000868821              -0.002376851               0.000000000               0.000000000               0.000000000               0.000000000              -0.005709884              -0.000326357               0.000650774              -0.002100410               0.000591347              -0.001509063               0.000000000               0.000000000               0.000000000               0.000000000              -0.003980299               0.000392518               0.000866400              -0.001541675               0.000644727              -0.000896949               0.000000000               0.000000000               0.000000000               0.000000000              -0.002889827               0.001131227               0.000914098              -0.001225087               0.000785432              -0.000439655               0.000000000               0.000000000               0.000000000               0.000000000              -0.002112839               0.001797081               0.000897053              -0.001016948               0.000938003              -0.000078945               0.000000000               0.000000000               0.000000000               0.000000000              -0.001495244               0.002380327               0.000853086              -0.000858256               0.001079519               0.000221264               0.000000000               0.000000000               0.000000000               0.000000000              -0.000950635               0.002890625               0.000796161              -0.000717815               0.001202803               0.000484989               0.000000000               0.000000000               0.000000000               0.000000000              -0.000438466               0.003325875               0.000736310              -0.000580158               0.001302000               0.000721842               0.000000000               0.000000000               0.000000000               0.000000000               0.000064882               0.003691932               0.000679712              -0.000437160               0.001376352               0.000939192               0.000000000               0.000000000               0.000000000               0.000000000               0.000578008               0.004005855               0.000629967              -0.000283979               0.001429931               0.001145953               0.000000000               0.000000000               0.000000000               0.000000000               0.001111992               0.004279880               0.000581438              -0.000117988               0.001465942               0.001347953               0.000000000               0.000000000               0.000000000               0.000000000               0.001680462               0.004512634               0.000521890               0.000066093               0.001482165               0.001548258               0.000000000               0.000000000               0.000000000               0.000000000               0.002300230               0.004696651               0.000442156               0.000275502               0.001473701               0.001749203               0.000000000               0.000000000               0.000000000               0.000000000               0.002987656               0.004834240               0.000335907               0.000516086               0.001439369               0.001955454               0.000000000               0.000000000               0.000000000               0.000000000               0.003761547               0.004931811               0.000190128               0.000794096               0.001379222               0.002173318               0.000000000               0.000000000               0.000000000               0.000000000               0.004338887               0.005028790               0.000116415               0.000998474               0.001343422               0.002341896               0.000000000               0.000000000               0.000000000               0.000000000               0.000000000               0.000000000               0.000000000               0.000000000               0.000000000               0.000000000               0.000000000               0.000000000               0.000000000               0.000000000               0.000000000               0.000000000               0.000000000               0.000000000               0.000000000               0.000000000               0.000000000               0.000000000               0.000000000               0.000000000               0.000000000               0.000000000               0.000000000               0.000000000               0.000000000               0.000000000               0.000000000               0.000000000               0.000000000               0.000000000               0.000000000               0.000000000               0.000000000               0.000000000               0.000000000               0.000000000               0.000000000               0.000000000               0.000000000               0.000000000               0.000000000               0.000000000               0.000000000               0.000000000               0.000000000               0.000000000               0.000000000               0.000000000               0.000000000               0.000000000               0.000000000               0.000000000               0.000000000               0.000000000               0.000000000               0.000000000               0.000000000               0.000000000               0.000000000               0.000000000               0.000000000               0.000000000               0.000000000               0.000000000               0.000000000               0.000000000               0.000000000               0.000000000               0.000000000               0.000000000               0.000000000               0.000000000               0.000000000               0.000000000               0.000000000               0.000000000               0.000000000               0.000000000               0.000000000               0.000000000               0.000000000               0.000000000               0.000000000               0.000000000               0.000000000               0.000000000               0.000000000               0.000000000               0.000000000               0.000000000               0.000000000               0.000000000               0.000000000               0.000000000               0.000000000               0.000000000               0.000000000               0.000000000               0.000000000               0.000000000               0.000000000               0.000000000               0.000000000               0.000000000               0.000000000               0.000000000               0.000000000               0.000000000               0.000000000               0.000000000               0.000000000               0.000000000               0.000000000               0.000000000               0.000000000               0.000000000               0.000000000               0.000000000               0.000000000               0.000000000               0.000000000               0.000000000               0.000000000               0.000000000               0.000000000               0.000000000               0.000000000               0.000000000               0.000000000               0.000000000               0.000000000               0.000000000               0.000000000               0.000000000               0.000000000               0.000000000               0.000000000               0.000000000               0.000000000               0.000000000               0.000000000               0.000000000               0.000000000               0.000000000               0.000000000               0.000000000               0.000000000               0.000000000               0.000000000               0.000000000               0.000000000               0.000000000               0.000000000               0.000000000               0.000000000               0.000000000               0.000000000               0.000000000               0.000000000               0.000000000               0.000000000               0.000000000               0.000000000               0.000000000               0.000000000               0.000000000               0.000000000               0.000000000               0.000000000               0.000000000 </DataArray>
</PointData>
</Piece>
</UnstructuredGrid> </VTKFile>
