<?xml version="1.0"?>
<VTKFile type="UnstructuredGrid" version="0.1">
<UnstructuredGrid>
<Piece NumberOfPoints="      1156" NumberOfCells="      1024">
<Points>
<DataArray type="Float64"                                    Name="coordinates"                                                      NumberOfComponents=" 3" format="ascii">
              0.133000000               0.000000000               0.000000000               0.155937500               0.000000000               0.000000000               0.178875000               0.000000000               0.000000000               0.201812500               0.000000000               0.000000000               0.224750000               0.000000000               0.000000000               0.247687500               0.000000000               0.000000000               0.270625000               0.000000000               0.000000000               0.293562500               0.000000000               0.000000000               0.316500000               0.000000000               0.000000000               0.339437500               0.000000000               0.000000000               0.362375000               0.000000000               0.000000000               0.385312500               0.000000000               0.000000000               0.408250000               0.000000000               0.000000000               0.431187500               0.000000000               0.000000000               0.454125000               0.000000000               0.000000000               0.477062500               0.000000000               0.000000000               0.500000000               0.000000000               0.000000000               0.132359569               0.013036280               0.000000000               0.155337096               0.016127762               0.000000000               0.178314623               0.019219245               0.000000000               0.201292150               0.022310727               0.000000000               0.224269676               0.025402210               0.000000000               0.247247203               0.028493692               0.000000000               0.270224730               0.031585175               0.000000000               0.293202257               0.034676657               0.000000000               0.316179784               0.037768140               0.000000000               0.339157311               0.040859622               0.000000000               0.362134838               0.043951105               0.000000000               0.385112365               0.047042587               0.000000000               0.408089892               0.050134070               0.000000000               0.431067419               0.053225552               0.000000000               0.454044946               0.056317035               0.000000000               0.477022473               0.059408517               0.000000000               0.500000000               0.062500000               0.000000000               0.130444442               0.025947013               0.000000000               0.153541665               0.032137825               0.000000000               0.176638887               0.038328636               0.000000000               0.199736109               0.044519448               0.000000000               0.222833332               0.050710260               0.000000000               0.245930554               0.056901071               0.000000000               0.269027776               0.063091883               0.000000000               0.292124999               0.069282695               0.000000000               0.315222221               0.075473506               0.000000000               0.338319444               0.081664318               0.000000000               0.361416666               0.087855130               0.000000000               0.384513888               0.094045942               0.000000000               0.407611111               0.100236753               0.000000000               0.430708333               0.106427565               0.000000000               0.453805555               0.112618377               0.000000000               0.476902778               0.118809188               0.000000000               0.500000000               0.125000000               0.000000000               0.127273065               0.038607862               0.000000000               0.150568498               0.047913621               0.000000000               0.173863932               0.057219379               0.000000000               0.197159365               0.066525138               0.000000000               0.220454798               0.075830897               0.000000000               0.243750232               0.085136655               0.000000000               0.267045665               0.094442414               0.000000000               0.290341099               0.103748172               0.000000000               0.313636532               0.113053931               0.000000000               0.336931966               0.122359690               0.000000000               0.360227399               0.131665448               0.000000000               0.383522833               0.140971207               0.000000000               0.406818266               0.150276966               0.000000000               0.430113700               0.159582724               0.000000000               0.453409133               0.168888483               0.000000000               0.476704567               0.178194241               0.000000000               0.500000000               0.187500000               0.000000000               0.122875978               0.050896897               0.000000000               0.146446229               0.063340840               0.000000000               0.170016481               0.075784784               0.000000000               0.193586732               0.088228728               0.000000000               0.217156983               0.100672672               0.000000000               0.240727235               0.113116616               0.000000000               0.264297486               0.125560560               0.000000000               0.287867738               0.138004504               0.000000000               0.311437989               0.150448448               0.000000000               0.335008240               0.162892392               0.000000000               0.358578492               0.175336336               0.000000000               0.382148743               0.187780280               0.000000000               0.405718994               0.200224224               0.000000000               0.429289246               0.212668168               0.000000000               0.452859497               0.225112112               0.000000000               0.476429749               0.237556056               0.000000000               0.500000000               0.250000000               0.000000000               0.117295528               0.062695766               0.000000000               0.141214558               0.078308531               0.000000000               0.165133587               0.093921295               0.000000000               0.189052617               0.109534060               0.000000000               0.212971646               0.125146824               0.000000000               0.236890676               0.140759589               0.000000000               0.260809705               0.156372354               0.000000000               0.284728735               0.171985118               0.000000000               0.308647764               0.187597883               0.000000000               0.332566794               0.203210648               0.000000000               0.356485823               0.218823412               0.000000000               0.380404853               0.234436177               0.000000000               0.404323882               0.250048941               0.000000000               0.428242912               0.265661706               0.000000000               0.452161941               0.281274471               0.000000000               0.476080971               0.296887235               0.000000000               0.500000000               0.312500000               0.000000000               0.110585458               0.073890841               0.000000000               0.134923867               0.092710163               0.000000000               0.159262276               0.111529486               0.000000000               0.183600685               0.130348808               0.000000000               0.207939094               0.149168131               0.000000000               0.232277503               0.167987453               0.000000000               0.256615912               0.186806776               0.000000000               0.280954320               0.205626098               0.000000000               0.305292729               0.224445420               0.000000000               0.329631138               0.243264743               0.000000000               0.353969547               0.262084065               0.000000000               0.378307956               0.280903388               0.000000000               0.402646365               0.299722710               0.000000000               0.426984773               0.318542033               0.000000000               0.451323182               0.337361355               0.000000000               0.475661591               0.356180678               0.000000000               0.500000000               0.375000000               0.000000000               0.102810390               0.084374307               0.000000000               0.127634741               0.106444663               0.000000000               0.152459092               0.128515018               0.000000000               0.177283442               0.150585374               0.000000000               0.202107793               0.172655730               0.000000000               0.226932143               0.194726086               0.000000000               0.251756494               0.216796442               0.000000000               0.276580845               0.238866798               0.000000000               0.301405195               0.260937153               0.000000000               0.326229546               0.283007509               0.000000000               0.351053896               0.305077865               0.000000000               0.375878247               0.327148221               0.000000000               0.400702598               0.349218577               0.000000000               0.425526948               0.371288933               0.000000000               0.450351299               0.393359288               0.000000000               0.475175649               0.415429644               0.000000000               0.500000000               0.437500000               0.000000000               0.094045202               0.094045202               0.000000000               0.119417377               0.119417377               0.000000000               0.144789552               0.144789552               0.000000000               0.170161727               0.170161727               0.000000000               0.195533901               0.195533901               0.000000000               0.220906076               0.220906076               0.000000000               0.246278251               0.246278251               0.000000000               0.271650426               0.271650426               0.000000000               0.297022601               0.297022601               0.000000000               0.322394776               0.322394776               0.000000000               0.347766951               0.347766951               0.000000000               0.373139126               0.373139126               0.000000000               0.398511300               0.398511300               0.000000000               0.423883475               0.423883475               0.000000000               0.449255650               0.449255650               0.000000000               0.474627825               0.474627825               0.000000000               0.500000000               0.500000000               0.000000000               0.084374307               0.102810390               0.000000000               0.106444663               0.127634741               0.000000000               0.128515018               0.152459092               0.000000000               0.150585374               0.177283442               0.000000000               0.172655730               0.202107793               0.000000000               0.194726086               0.226932143               0.000000000               0.216796442               0.251756494               0.000000000               0.238866798               0.276580845               0.000000000               0.260937153               0.301405195               0.000000000               0.283007509               0.326229546               0.000000000               0.305077865               0.351053896               0.000000000               0.327148221               0.375878247               0.000000000               0.349218577               0.400702598               0.000000000               0.371288933               0.425526948               0.000000000               0.393359288               0.450351299               0.000000000               0.415429644               0.475175649               0.000000000               0.437500000               0.500000000               0.000000000               0.073890841               0.110585458               0.000000000               0.092710163               0.134923867               0.000000000               0.111529486               0.159262276               0.000000000               0.130348808               0.183600685               0.000000000               0.149168131               0.207939094               0.000000000               0.167987453               0.232277503               0.000000000               0.186806776               0.256615912               0.000000000               0.205626098               0.280954320               0.000000000               0.224445420               0.305292729               0.000000000               0.243264743               0.329631138               0.000000000               0.262084065               0.353969547               0.000000000               0.280903388               0.378307956               0.000000000               0.299722710               0.402646365               0.000000000               0.318542033               0.426984773               0.000000000               0.337361355               0.451323182               0.000000000               0.356180678               0.475661591               0.000000000               0.375000000               0.500000000               0.000000000               0.062695766               0.117295528               0.000000000               0.078308531               0.141214558               0.000000000               0.093921295               0.165133587               0.000000000               0.109534060               0.189052617               0.000000000               0.125146824               0.212971646               0.000000000               0.140759589               0.236890676               0.000000000               0.156372354               0.260809705               0.000000000               0.171985118               0.284728735               0.000000000               0.187597883               0.308647764               0.000000000               0.203210648               0.332566794               0.000000000               0.218823412               0.356485823               0.000000000               0.234436177               0.380404853               0.000000000               0.250048941               0.404323882               0.000000000               0.265661706               0.428242912               0.000000000               0.281274471               0.452161941               0.000000000               0.296887235               0.476080971               0.000000000               0.312500000               0.500000000               0.000000000               0.050896897               0.122875978               0.000000000               0.063340840               0.146446229               0.000000000               0.075784784               0.170016481               0.000000000               0.088228728               0.193586732               0.000000000               0.100672672               0.217156983               0.000000000               0.113116616               0.240727235               0.000000000               0.125560560               0.264297486               0.000000000               0.138004504               0.287867738               0.000000000               0.150448448               0.311437989               0.000000000               0.162892392               0.335008240               0.000000000               0.175336336               0.358578492               0.000000000               0.187780280               0.382148743               0.000000000               0.200224224               0.405718994               0.000000000               0.212668168               0.429289246               0.000000000               0.225112112               0.452859497               0.000000000               0.237556056               0.476429749               0.000000000               0.250000000               0.500000000               0.000000000               0.038607862               0.127273065               0.000000000               0.047913621               0.150568498               0.000000000               0.057219379               0.173863932               0.000000000               0.066525138               0.197159365               0.000000000               0.075830897               0.220454798               0.000000000               0.085136655               0.243750232               0.000000000               0.094442414               0.267045665               0.000000000               0.103748172               0.290341099               0.000000000               0.113053931               0.313636532               0.000000000               0.122359690               0.336931966               0.000000000               0.131665448               0.360227399               0.000000000               0.140971207               0.383522833               0.000000000               0.150276966               0.406818266               0.000000000               0.159582724               0.430113700               0.000000000               0.168888483               0.453409133               0.000000000               0.178194241               0.476704567               0.000000000               0.187500000               0.500000000               0.000000000               0.025947013               0.130444442               0.000000000               0.032137825               0.153541665               0.000000000               0.038328636               0.176638887               0.000000000               0.044519448               0.199736109               0.000000000               0.050710260               0.222833332               0.000000000               0.056901071               0.245930554               0.000000000               0.063091883               0.269027776               0.000000000               0.069282695               0.292124999               0.000000000               0.075473506               0.315222221               0.000000000               0.081664318               0.338319444               0.000000000               0.087855130               0.361416666               0.000000000               0.094045942               0.384513888               0.000000000               0.100236753               0.407611111               0.000000000               0.106427565               0.430708333               0.000000000               0.112618377               0.453805555               0.000000000               0.118809188               0.476902778               0.000000000               0.125000000               0.500000000               0.000000000               0.013036280               0.132359569               0.000000000               0.016127762               0.155337096               0.000000000               0.019219245               0.178314623               0.000000000               0.022310727               0.201292150               0.000000000               0.025402210               0.224269676               0.000000000               0.028493692               0.247247203               0.000000000               0.031585175               0.270224730               0.000000000               0.034676657               0.293202257               0.000000000               0.037768140               0.316179784               0.000000000               0.040859622               0.339157311               0.000000000               0.043951105               0.362134838               0.000000000               0.047042587               0.385112365               0.000000000               0.050134070               0.408089892               0.000000000               0.053225552               0.431067419               0.000000000               0.056317035               0.454044946               0.000000000               0.059408517               0.477022473               0.000000000               0.062500000               0.500000000               0.000000000               0.000000000               0.133000000               0.000000000               0.000000000               0.155937500               0.000000000               0.000000000               0.178875000               0.000000000               0.000000000               0.201812500               0.000000000               0.000000000               0.224750000               0.000000000               0.000000000               0.247687500               0.000000000               0.000000000               0.270625000               0.000000000               0.000000000               0.293562500               0.000000000               0.000000000               0.316500000               0.000000000               0.000000000               0.339437500               0.000000000               0.000000000               0.362375000               0.000000000               0.000000000               0.385312500               0.000000000               0.000000000               0.408250000               0.000000000               0.000000000               0.431187500               0.000000000               0.000000000               0.454125000               0.000000000               0.000000000               0.477062500               0.000000000               0.000000000               0.500000000               0.000000000               0.133000000               0.000000000               0.000000000               0.155937500               0.000000000               0.000000000               0.178875000               0.000000000               0.000000000               0.201812500               0.000000000               0.000000000               0.224750000               0.000000000               0.000000000               0.247687500               0.000000000               0.000000000               0.270625000               0.000000000               0.000000000               0.293562500               0.000000000               0.000000000               0.316500000               0.000000000               0.000000000               0.339437500               0.000000000               0.000000000               0.362375000               0.000000000               0.000000000               0.385312500               0.000000000               0.000000000               0.408250000               0.000000000               0.000000000               0.431187500               0.000000000               0.000000000               0.454125000               0.000000000               0.000000000               0.477062500               0.000000000               0.000000000               0.500000000               0.000000000               0.000000000               0.132359569              -0.013036280               0.000000000               0.155337096              -0.016127762               0.000000000               0.178314623              -0.019219245               0.000000000               0.201292150              -0.022310727               0.000000000               0.224269676              -0.025402210               0.000000000               0.247247203              -0.028493692               0.000000000               0.270224730              -0.031585175               0.000000000               0.293202257              -0.034676657               0.000000000               0.316179784              -0.037768140               0.000000000               0.339157311              -0.040859622               0.000000000               0.362134838              -0.043951105               0.000000000               0.385112365              -0.047042587               0.000000000               0.408089892              -0.050134070               0.000000000               0.431067419              -0.053225552               0.000000000               0.454044946              -0.056317035               0.000000000               0.477022473              -0.059408517               0.000000000               0.500000000              -0.062500000               0.000000000               0.130444442              -0.025947013               0.000000000               0.153541665              -0.032137825               0.000000000               0.176638887              -0.038328636               0.000000000               0.199736109              -0.044519448               0.000000000               0.222833332              -0.050710260               0.000000000               0.245930554              -0.056901071               0.000000000               0.269027776              -0.063091883               0.000000000               0.292124999              -0.069282695               0.000000000               0.315222221              -0.075473506               0.000000000               0.338319444              -0.081664318               0.000000000               0.361416666              -0.087855130               0.000000000               0.384513888              -0.094045942               0.000000000               0.407611111              -0.100236753               0.000000000               0.430708333              -0.106427565               0.000000000               0.453805555              -0.112618377               0.000000000               0.476902778              -0.118809188               0.000000000               0.500000000              -0.125000000               0.000000000               0.127273065              -0.038607862               0.000000000               0.150568498              -0.047913621               0.000000000               0.173863932              -0.057219379               0.000000000               0.197159365              -0.066525138               0.000000000               0.220454798              -0.075830897               0.000000000               0.243750232              -0.085136655               0.000000000               0.267045665              -0.094442414               0.000000000               0.290341099              -0.103748172               0.000000000               0.313636532              -0.113053931               0.000000000               0.336931966              -0.122359690               0.000000000               0.360227399              -0.131665448               0.000000000               0.383522833              -0.140971207               0.000000000               0.406818266              -0.150276966               0.000000000               0.430113700              -0.159582724               0.000000000               0.453409133              -0.168888483               0.000000000               0.476704567              -0.178194241               0.000000000               0.500000000              -0.187500000               0.000000000               0.122875978              -0.050896897               0.000000000               0.146446229              -0.063340840               0.000000000               0.170016481              -0.075784784               0.000000000               0.193586732              -0.088228728               0.000000000               0.217156983              -0.100672672               0.000000000               0.240727235              -0.113116616               0.000000000               0.264297486              -0.125560560               0.000000000               0.287867738              -0.138004504               0.000000000               0.311437989              -0.150448448               0.000000000               0.335008240              -0.162892392               0.000000000               0.358578492              -0.175336336               0.000000000               0.382148743              -0.187780280               0.000000000               0.405718994              -0.200224224               0.000000000               0.429289246              -0.212668168               0.000000000               0.452859497              -0.225112112               0.000000000               0.476429749              -0.237556056               0.000000000               0.500000000              -0.250000000               0.000000000               0.117295528              -0.062695766               0.000000000               0.141214558              -0.078308531               0.000000000               0.165133587              -0.093921295               0.000000000               0.189052617              -0.109534060               0.000000000               0.212971646              -0.125146824               0.000000000               0.236890676              -0.140759589               0.000000000               0.260809705              -0.156372354               0.000000000               0.284728735              -0.171985118               0.000000000               0.308647764              -0.187597883               0.000000000               0.332566794              -0.203210648               0.000000000               0.356485823              -0.218823412               0.000000000               0.380404853              -0.234436177               0.000000000               0.404323882              -0.250048941               0.000000000               0.428242912              -0.265661706               0.000000000               0.452161941              -0.281274471               0.000000000               0.476080971              -0.296887235               0.000000000               0.500000000              -0.312500000               0.000000000               0.110585458              -0.073890841               0.000000000               0.134923867              -0.092710163               0.000000000               0.159262276              -0.111529486               0.000000000               0.183600685              -0.130348808               0.000000000               0.207939094              -0.149168131               0.000000000               0.232277503              -0.167987453               0.000000000               0.256615912              -0.186806776               0.000000000               0.280954320              -0.205626098               0.000000000               0.305292729              -0.224445420               0.000000000               0.329631138              -0.243264743               0.000000000               0.353969547              -0.262084065               0.000000000               0.378307956              -0.280903388               0.000000000               0.402646365              -0.299722710               0.000000000               0.426984773              -0.318542033               0.000000000               0.451323182              -0.337361355               0.000000000               0.475661591              -0.356180678               0.000000000               0.500000000              -0.375000000               0.000000000               0.102810390              -0.084374307               0.000000000               0.127634741              -0.106444663               0.000000000               0.152459092              -0.128515018               0.000000000               0.177283442              -0.150585374               0.000000000               0.202107793              -0.172655730               0.000000000               0.226932143              -0.194726086               0.000000000               0.251756494              -0.216796442               0.000000000               0.276580845              -0.238866798               0.000000000               0.301405195              -0.260937153               0.000000000               0.326229546              -0.283007509               0.000000000               0.351053896              -0.305077865               0.000000000               0.375878247              -0.327148221               0.000000000               0.400702598              -0.349218577               0.000000000               0.425526948              -0.371288933               0.000000000               0.450351299              -0.393359288               0.000000000               0.475175649              -0.415429644               0.000000000               0.500000000              -0.437500000               0.000000000               0.094045202              -0.094045202               0.000000000               0.119417377              -0.119417377               0.000000000               0.144789552              -0.144789552               0.000000000               0.170161727              -0.170161727               0.000000000               0.195533901              -0.195533901               0.000000000               0.220906076              -0.220906076               0.000000000               0.246278251              -0.246278251               0.000000000               0.271650426              -0.271650426               0.000000000               0.297022601              -0.297022601               0.000000000               0.322394776              -0.322394776               0.000000000               0.347766951              -0.347766951               0.000000000               0.373139126              -0.373139126               0.000000000               0.398511300              -0.398511300               0.000000000               0.423883475              -0.423883475               0.000000000               0.449255650              -0.449255650               0.000000000               0.474627825              -0.474627825               0.000000000               0.500000000              -0.500000000               0.000000000               0.084374307              -0.102810390               0.000000000               0.106444663              -0.127634741               0.000000000               0.128515018              -0.152459092               0.000000000               0.150585374              -0.177283442               0.000000000               0.172655730              -0.202107793               0.000000000               0.194726086              -0.226932143               0.000000000               0.216796442              -0.251756494               0.000000000               0.238866798              -0.276580845               0.000000000               0.260937153              -0.301405195               0.000000000               0.283007509              -0.326229546               0.000000000               0.305077865              -0.351053896               0.000000000               0.327148221              -0.375878247               0.000000000               0.349218577              -0.400702598               0.000000000               0.371288933              -0.425526948               0.000000000               0.393359288              -0.450351299               0.000000000               0.415429644              -0.475175649               0.000000000               0.437500000              -0.500000000               0.000000000               0.073890841              -0.110585458               0.000000000               0.092710163              -0.134923867               0.000000000               0.111529486              -0.159262276               0.000000000               0.130348808              -0.183600685               0.000000000               0.149168131              -0.207939094               0.000000000               0.167987453              -0.232277503               0.000000000               0.186806776              -0.256615912               0.000000000               0.205626098              -0.280954320               0.000000000               0.224445420              -0.305292729               0.000000000               0.243264743              -0.329631138               0.000000000               0.262084065              -0.353969547               0.000000000               0.280903388              -0.378307956               0.000000000               0.299722710              -0.402646365               0.000000000               0.318542033              -0.426984773               0.000000000               0.337361355              -0.451323182               0.000000000               0.356180678              -0.475661591               0.000000000               0.375000000              -0.500000000               0.000000000               0.062695766              -0.117295528               0.000000000               0.078308531              -0.141214558               0.000000000               0.093921295              -0.165133587               0.000000000               0.109534060              -0.189052617               0.000000000               0.125146824              -0.212971646               0.000000000               0.140759589              -0.236890676               0.000000000               0.156372354              -0.260809705               0.000000000               0.171985118              -0.284728735               0.000000000               0.187597883              -0.308647764               0.000000000               0.203210648              -0.332566794               0.000000000               0.218823412              -0.356485823               0.000000000               0.234436177              -0.380404853               0.000000000               0.250048941              -0.404323882               0.000000000               0.265661706              -0.428242912               0.000000000               0.281274471              -0.452161941               0.000000000               0.296887235              -0.476080971               0.000000000               0.312500000              -0.500000000               0.000000000               0.050896897              -0.122875978               0.000000000               0.063340840              -0.146446229               0.000000000               0.075784784              -0.170016481               0.000000000               0.088228728              -0.193586732               0.000000000               0.100672672              -0.217156983               0.000000000               0.113116616              -0.240727235               0.000000000               0.125560560              -0.264297486               0.000000000               0.138004504              -0.287867738               0.000000000               0.150448448              -0.311437989               0.000000000               0.162892392              -0.335008240               0.000000000               0.175336336              -0.358578492               0.000000000               0.187780280              -0.382148743               0.000000000               0.200224224              -0.405718994               0.000000000               0.212668168              -0.429289246               0.000000000               0.225112112              -0.452859497               0.000000000               0.237556056              -0.476429749               0.000000000               0.250000000              -0.500000000               0.000000000               0.038607862              -0.127273065               0.000000000               0.047913621              -0.150568498               0.000000000               0.057219379              -0.173863932               0.000000000               0.066525138              -0.197159365               0.000000000               0.075830897              -0.220454798               0.000000000               0.085136655              -0.243750232               0.000000000               0.094442414              -0.267045665               0.000000000               0.103748172              -0.290341099               0.000000000               0.113053931              -0.313636532               0.000000000               0.122359690              -0.336931966               0.000000000               0.131665448              -0.360227399               0.000000000               0.140971207              -0.383522833               0.000000000               0.150276966              -0.406818266               0.000000000               0.159582724              -0.430113700               0.000000000               0.168888483              -0.453409133               0.000000000               0.178194241              -0.476704567               0.000000000               0.187500000              -0.500000000               0.000000000               0.025947013              -0.130444442               0.000000000               0.032137825              -0.153541665               0.000000000               0.038328636              -0.176638887               0.000000000               0.044519448              -0.199736109               0.000000000               0.050710260              -0.222833332               0.000000000               0.056901071              -0.245930554               0.000000000               0.063091883              -0.269027776               0.000000000               0.069282695              -0.292124999               0.000000000               0.075473506              -0.315222221               0.000000000               0.081664318              -0.338319444               0.000000000               0.087855130              -0.361416666               0.000000000               0.094045942              -0.384513888               0.000000000               0.100236753              -0.407611111               0.000000000               0.106427565              -0.430708333               0.000000000               0.112618377              -0.453805555               0.000000000               0.118809188              -0.476902778               0.000000000               0.125000000              -0.500000000               0.000000000               0.013036280              -0.132359569               0.000000000               0.016127762              -0.155337096               0.000000000               0.019219245              -0.178314623               0.000000000               0.022310727              -0.201292150               0.000000000               0.025402210              -0.224269676               0.000000000               0.028493692              -0.247247203               0.000000000               0.031585175              -0.270224730               0.000000000               0.034676657              -0.293202257               0.000000000               0.037768140              -0.316179784               0.000000000               0.040859622              -0.339157311               0.000000000               0.043951105              -0.362134838               0.000000000               0.047042587              -0.385112365               0.000000000               0.050134070              -0.408089892               0.000000000               0.053225552              -0.431067419               0.000000000               0.056317035              -0.454044946               0.000000000               0.059408517              -0.477022473               0.000000000               0.062500000              -0.500000000               0.000000000               0.000000000              -0.133000000               0.000000000               0.000000000              -0.155937500               0.000000000               0.000000000              -0.178875000               0.000000000               0.000000000              -0.201812500               0.000000000               0.000000000              -0.224750000               0.000000000               0.000000000              -0.247687500               0.000000000               0.000000000              -0.270625000               0.000000000               0.000000000              -0.293562500               0.000000000               0.000000000              -0.316500000               0.000000000               0.000000000              -0.339437500               0.000000000               0.000000000              -0.362375000               0.000000000               0.000000000              -0.385312500               0.000000000               0.000000000              -0.408250000               0.000000000               0.000000000              -0.431187500               0.000000000               0.000000000              -0.454125000               0.000000000               0.000000000              -0.477062500               0.000000000               0.000000000              -0.500000000               0.000000000              -0.133000000               0.000000000               0.000000000              -0.155937500               0.000000000               0.000000000              -0.178875000               0.000000000               0.000000000              -0.201812500               0.000000000               0.000000000              -0.224750000               0.000000000               0.000000000              -0.247687500               0.000000000               0.000000000              -0.270625000               0.000000000               0.000000000              -0.293562500               0.000000000               0.000000000              -0.316500000               0.000000000               0.000000000              -0.339437500               0.000000000               0.000000000              -0.362375000               0.000000000               0.000000000              -0.385312500               0.000000000               0.000000000              -0.408250000               0.000000000               0.000000000              -0.431187500               0.000000000               0.000000000              -0.454125000               0.000000000               0.000000000              -0.477062500               0.000000000               0.000000000              -0.500000000               0.000000000               0.000000000              -0.132359569              -0.013036280               0.000000000              -0.155337096              -0.016127762               0.000000000              -0.178314623              -0.019219245               0.000000000              -0.201292150              -0.022310727               0.000000000              -0.224269676              -0.025402210               0.000000000              -0.247247203              -0.028493692               0.000000000              -0.270224730              -0.031585175               0.000000000              -0.293202257              -0.034676657               0.000000000              -0.316179784              -0.037768140               0.000000000              -0.339157311              -0.040859622               0.000000000              -0.362134838              -0.043951105               0.000000000              -0.385112365              -0.047042587               0.000000000              -0.408089892              -0.050134070               0.000000000              -0.431067419              -0.053225552               0.000000000              -0.454044946              -0.056317035               0.000000000              -0.477022473              -0.059408517               0.000000000              -0.500000000              -0.062500000               0.000000000              -0.130444442              -0.025947013               0.000000000              -0.153541665              -0.032137825               0.000000000              -0.176638887              -0.038328636               0.000000000              -0.199736109              -0.044519448               0.000000000              -0.222833332              -0.050710260               0.000000000              -0.245930554              -0.056901071               0.000000000              -0.269027776              -0.063091883               0.000000000              -0.292124999              -0.069282695               0.000000000              -0.315222221              -0.075473506               0.000000000              -0.338319444              -0.081664318               0.000000000              -0.361416666              -0.087855130               0.000000000              -0.384513888              -0.094045942               0.000000000              -0.407611111              -0.100236753               0.000000000              -0.430708333              -0.106427565               0.000000000              -0.453805555              -0.112618377               0.000000000              -0.476902778              -0.118809188               0.000000000              -0.500000000              -0.125000000               0.000000000              -0.127273065              -0.038607862               0.000000000              -0.150568498              -0.047913621               0.000000000              -0.173863932              -0.057219379               0.000000000              -0.197159365              -0.066525138               0.000000000              -0.220454798              -0.075830897               0.000000000              -0.243750232              -0.085136655               0.000000000              -0.267045665              -0.094442414               0.000000000              -0.290341099              -0.103748172               0.000000000              -0.313636532              -0.113053931               0.000000000              -0.336931966              -0.122359690               0.000000000              -0.360227399              -0.131665448               0.000000000              -0.383522833              -0.140971207               0.000000000              -0.406818266              -0.150276966               0.000000000              -0.430113700              -0.159582724               0.000000000              -0.453409133              -0.168888483               0.000000000              -0.476704567              -0.178194241               0.000000000              -0.500000000              -0.187500000               0.000000000              -0.122875978              -0.050896897               0.000000000              -0.146446229              -0.063340840               0.000000000              -0.170016481              -0.075784784               0.000000000              -0.193586732              -0.088228728               0.000000000              -0.217156983              -0.100672672               0.000000000              -0.240727235              -0.113116616               0.000000000              -0.264297486              -0.125560560               0.000000000              -0.287867738              -0.138004504               0.000000000              -0.311437989              -0.150448448               0.000000000              -0.335008240              -0.162892392               0.000000000              -0.358578492              -0.175336336               0.000000000              -0.382148743              -0.187780280               0.000000000              -0.405718994              -0.200224224               0.000000000              -0.429289246              -0.212668168               0.000000000              -0.452859497              -0.225112112               0.000000000              -0.476429749              -0.237556056               0.000000000              -0.500000000              -0.250000000               0.000000000              -0.117295528              -0.062695766               0.000000000              -0.141214558              -0.078308531               0.000000000              -0.165133587              -0.093921295               0.000000000              -0.189052617              -0.109534060               0.000000000              -0.212971646              -0.125146824               0.000000000              -0.236890676              -0.140759589               0.000000000              -0.260809705              -0.156372354               0.000000000              -0.284728735              -0.171985118               0.000000000              -0.308647764              -0.187597883               0.000000000              -0.332566794              -0.203210648               0.000000000              -0.356485823              -0.218823412               0.000000000              -0.380404853              -0.234436177               0.000000000              -0.404323882              -0.250048941               0.000000000              -0.428242912              -0.265661706               0.000000000              -0.452161941              -0.281274471               0.000000000              -0.476080971              -0.296887235               0.000000000              -0.500000000              -0.312500000               0.000000000              -0.110585458              -0.073890841               0.000000000              -0.134923867              -0.092710163               0.000000000              -0.159262276              -0.111529486               0.000000000              -0.183600685              -0.130348808               0.000000000              -0.207939094              -0.149168131               0.000000000              -0.232277503              -0.167987453               0.000000000              -0.256615912              -0.186806776               0.000000000              -0.280954320              -0.205626098               0.000000000              -0.305292729              -0.224445420               0.000000000              -0.329631138              -0.243264743               0.000000000              -0.353969547              -0.262084065               0.000000000              -0.378307956              -0.280903388               0.000000000              -0.402646365              -0.299722710               0.000000000              -0.426984773              -0.318542033               0.000000000              -0.451323182              -0.337361355               0.000000000              -0.475661591              -0.356180678               0.000000000              -0.500000000              -0.375000000               0.000000000              -0.102810390              -0.084374307               0.000000000              -0.127634741              -0.106444663               0.000000000              -0.152459092              -0.128515018               0.000000000              -0.177283442              -0.150585374               0.000000000              -0.202107793              -0.172655730               0.000000000              -0.226932143              -0.194726086               0.000000000              -0.251756494              -0.216796442               0.000000000              -0.276580845              -0.238866798               0.000000000              -0.301405195              -0.260937153               0.000000000              -0.326229546              -0.283007509               0.000000000              -0.351053896              -0.305077865               0.000000000              -0.375878247              -0.327148221               0.000000000              -0.400702598              -0.349218577               0.000000000              -0.425526948              -0.371288933               0.000000000              -0.450351299              -0.393359288               0.000000000              -0.475175649              -0.415429644               0.000000000              -0.500000000              -0.437500000               0.000000000              -0.094045202              -0.094045202               0.000000000              -0.119417377              -0.119417377               0.000000000              -0.144789552              -0.144789552               0.000000000              -0.170161727              -0.170161727               0.000000000              -0.195533901              -0.195533901               0.000000000              -0.220906076              -0.220906076               0.000000000              -0.246278251              -0.246278251               0.000000000              -0.271650426              -0.271650426               0.000000000              -0.297022601              -0.297022601               0.000000000              -0.322394776              -0.322394776               0.000000000              -0.347766951              -0.347766951               0.000000000              -0.373139126              -0.373139126               0.000000000              -0.398511300              -0.398511300               0.000000000              -0.423883475              -0.423883475               0.000000000              -0.449255650              -0.449255650               0.000000000              -0.474627825              -0.474627825               0.000000000              -0.500000000              -0.500000000               0.000000000              -0.084374307              -0.102810390               0.000000000              -0.106444663              -0.127634741               0.000000000              -0.128515018              -0.152459092               0.000000000              -0.150585374              -0.177283442               0.000000000              -0.172655730              -0.202107793               0.000000000              -0.194726086              -0.226932143               0.000000000              -0.216796442              -0.251756494               0.000000000              -0.238866798              -0.276580845               0.000000000              -0.260937153              -0.301405195               0.000000000              -0.283007509              -0.326229546               0.000000000              -0.305077865              -0.351053896               0.000000000              -0.327148221              -0.375878247               0.000000000              -0.349218577              -0.400702598               0.000000000              -0.371288933              -0.425526948               0.000000000              -0.393359288              -0.450351299               0.000000000              -0.415429644              -0.475175649               0.000000000              -0.437500000              -0.500000000               0.000000000              -0.073890841              -0.110585458               0.000000000              -0.092710163              -0.134923867               0.000000000              -0.111529486              -0.159262276               0.000000000              -0.130348808              -0.183600685               0.000000000              -0.149168131              -0.207939094               0.000000000              -0.167987453              -0.232277503               0.000000000              -0.186806776              -0.256615912               0.000000000              -0.205626098              -0.280954320               0.000000000              -0.224445420              -0.305292729               0.000000000              -0.243264743              -0.329631138               0.000000000              -0.262084065              -0.353969547               0.000000000              -0.280903388              -0.378307956               0.000000000              -0.299722710              -0.402646365               0.000000000              -0.318542033              -0.426984773               0.000000000              -0.337361355              -0.451323182               0.000000000              -0.356180678              -0.475661591               0.000000000              -0.375000000              -0.500000000               0.000000000              -0.062695766              -0.117295528               0.000000000              -0.078308531              -0.141214558               0.000000000              -0.093921295              -0.165133587               0.000000000              -0.109534060              -0.189052617               0.000000000              -0.125146824              -0.212971646               0.000000000              -0.140759589              -0.236890676               0.000000000              -0.156372354              -0.260809705               0.000000000              -0.171985118              -0.284728735               0.000000000              -0.187597883              -0.308647764               0.000000000              -0.203210648              -0.332566794               0.000000000              -0.218823412              -0.356485823               0.000000000              -0.234436177              -0.380404853               0.000000000              -0.250048941              -0.404323882               0.000000000              -0.265661706              -0.428242912               0.000000000              -0.281274471              -0.452161941               0.000000000              -0.296887235              -0.476080971               0.000000000              -0.312500000              -0.500000000               0.000000000              -0.050896897              -0.122875978               0.000000000              -0.063340840              -0.146446229               0.000000000              -0.075784784              -0.170016481               0.000000000              -0.088228728              -0.193586732               0.000000000              -0.100672672              -0.217156983               0.000000000              -0.113116616              -0.240727235               0.000000000              -0.125560560              -0.264297486               0.000000000              -0.138004504              -0.287867738               0.000000000              -0.150448448              -0.311437989               0.000000000              -0.162892392              -0.335008240               0.000000000              -0.175336336              -0.358578492               0.000000000              -0.187780280              -0.382148743               0.000000000              -0.200224224              -0.405718994               0.000000000              -0.212668168              -0.429289246               0.000000000              -0.225112112              -0.452859497               0.000000000              -0.237556056              -0.476429749               0.000000000              -0.250000000              -0.500000000               0.000000000              -0.038607862              -0.127273065               0.000000000              -0.047913621              -0.150568498               0.000000000              -0.057219379              -0.173863932               0.000000000              -0.066525138              -0.197159365               0.000000000              -0.075830897              -0.220454798               0.000000000              -0.085136655              -0.243750232               0.000000000              -0.094442414              -0.267045665               0.000000000              -0.103748172              -0.290341099               0.000000000              -0.113053931              -0.313636532               0.000000000              -0.122359690              -0.336931966               0.000000000              -0.131665448              -0.360227399               0.000000000              -0.140971207              -0.383522833               0.000000000              -0.150276966              -0.406818266               0.000000000              -0.159582724              -0.430113700               0.000000000              -0.168888483              -0.453409133               0.000000000              -0.178194241              -0.476704567               0.000000000              -0.187500000              -0.500000000               0.000000000              -0.025947013              -0.130444442               0.000000000              -0.032137825              -0.153541665               0.000000000              -0.038328636              -0.176638887               0.000000000              -0.044519448              -0.199736109               0.000000000              -0.050710260              -0.222833332               0.000000000              -0.056901071              -0.245930554               0.000000000              -0.063091883              -0.269027776               0.000000000              -0.069282695              -0.292124999               0.000000000              -0.075473506              -0.315222221               0.000000000              -0.081664318              -0.338319444               0.000000000              -0.087855130              -0.361416666               0.000000000              -0.094045942              -0.384513888               0.000000000              -0.100236753              -0.407611111               0.000000000              -0.106427565              -0.430708333               0.000000000              -0.112618377              -0.453805555               0.000000000              -0.118809188              -0.476902778               0.000000000              -0.125000000              -0.500000000               0.000000000              -0.013036280              -0.132359569               0.000000000              -0.016127762              -0.155337096               0.000000000              -0.019219245              -0.178314623               0.000000000              -0.022310727              -0.201292150               0.000000000              -0.025402210              -0.224269676               0.000000000              -0.028493692              -0.247247203               0.000000000              -0.031585175              -0.270224730               0.000000000              -0.034676657              -0.293202257               0.000000000              -0.037768140              -0.316179784               0.000000000              -0.040859622              -0.339157311               0.000000000              -0.043951105              -0.362134838               0.000000000              -0.047042587              -0.385112365               0.000000000              -0.050134070              -0.408089892               0.000000000              -0.053225552              -0.431067419               0.000000000              -0.056317035              -0.454044946               0.000000000              -0.059408517              -0.477022473               0.000000000              -0.062500000              -0.500000000               0.000000000               0.000000000              -0.133000000               0.000000000               0.000000000              -0.155937500               0.000000000               0.000000000              -0.178875000               0.000000000               0.000000000              -0.201812500               0.000000000               0.000000000              -0.224750000               0.000000000               0.000000000              -0.247687500               0.000000000               0.000000000              -0.270625000               0.000000000               0.000000000              -0.293562500               0.000000000               0.000000000              -0.316500000               0.000000000               0.000000000              -0.339437500               0.000000000               0.000000000              -0.362375000               0.000000000               0.000000000              -0.385312500               0.000000000               0.000000000              -0.408250000               0.000000000               0.000000000              -0.431187500               0.000000000               0.000000000              -0.454125000               0.000000000               0.000000000              -0.477062500               0.000000000               0.000000000              -0.500000000               0.000000000              -0.133000000               0.000000000               0.000000000              -0.155937500               0.000000000               0.000000000              -0.178875000               0.000000000               0.000000000              -0.201812500               0.000000000               0.000000000              -0.224750000               0.000000000               0.000000000              -0.247687500               0.000000000               0.000000000              -0.270625000               0.000000000               0.000000000              -0.293562500               0.000000000               0.000000000              -0.316500000               0.000000000               0.000000000              -0.339437500               0.000000000               0.000000000              -0.362375000               0.000000000               0.000000000              -0.385312500               0.000000000               0.000000000              -0.408250000               0.000000000               0.000000000              -0.431187500               0.000000000               0.000000000              -0.454125000               0.000000000               0.000000000              -0.477062500               0.000000000               0.000000000              -0.500000000               0.000000000               0.000000000              -0.132359569               0.013036280               0.000000000              -0.155337096               0.016127762               0.000000000              -0.178314623               0.019219245               0.000000000              -0.201292150               0.022310727               0.000000000              -0.224269676               0.025402210               0.000000000              -0.247247203               0.028493692               0.000000000              -0.270224730               0.031585175               0.000000000              -0.293202257               0.034676657               0.000000000              -0.316179784               0.037768140               0.000000000              -0.339157311               0.040859622               0.000000000              -0.362134838               0.043951105               0.000000000              -0.385112365               0.047042587               0.000000000              -0.408089892               0.050134070               0.000000000              -0.431067419               0.053225552               0.000000000              -0.454044946               0.056317035               0.000000000              -0.477022473               0.059408517               0.000000000              -0.500000000               0.062500000               0.000000000              -0.130444442               0.025947013               0.000000000              -0.153541665               0.032137825               0.000000000              -0.176638887               0.038328636               0.000000000              -0.199736109               0.044519448               0.000000000              -0.222833332               0.050710260               0.000000000              -0.245930554               0.056901071               0.000000000              -0.269027776               0.063091883               0.000000000              -0.292124999               0.069282695               0.000000000              -0.315222221               0.075473506               0.000000000              -0.338319444               0.081664318               0.000000000              -0.361416666               0.087855130               0.000000000              -0.384513888               0.094045942               0.000000000              -0.407611111               0.100236753               0.000000000              -0.430708333               0.106427565               0.000000000              -0.453805555               0.112618377               0.000000000              -0.476902778               0.118809188               0.000000000              -0.500000000               0.125000000               0.000000000              -0.127273065               0.038607862               0.000000000              -0.150568498               0.047913621               0.000000000              -0.173863932               0.057219379               0.000000000              -0.197159365               0.066525138               0.000000000              -0.220454798               0.075830897               0.000000000              -0.243750232               0.085136655               0.000000000              -0.267045665               0.094442414               0.000000000              -0.290341099               0.103748172               0.000000000              -0.313636532               0.113053931               0.000000000              -0.336931966               0.122359690               0.000000000              -0.360227399               0.131665448               0.000000000              -0.383522833               0.140971207               0.000000000              -0.406818266               0.150276966               0.000000000              -0.430113700               0.159582724               0.000000000              -0.453409133               0.168888483               0.000000000              -0.476704567               0.178194241               0.000000000              -0.500000000               0.187500000               0.000000000              -0.122875978               0.050896897               0.000000000              -0.146446229               0.063340840               0.000000000              -0.170016481               0.075784784               0.000000000              -0.193586732               0.088228728               0.000000000              -0.217156983               0.100672672               0.000000000              -0.240727235               0.113116616               0.000000000              -0.264297486               0.125560560               0.000000000              -0.287867738               0.138004504               0.000000000              -0.311437989               0.150448448               0.000000000              -0.335008240               0.162892392               0.000000000              -0.358578492               0.175336336               0.000000000              -0.382148743               0.187780280               0.000000000              -0.405718994               0.200224224               0.000000000              -0.429289246               0.212668168               0.000000000              -0.452859497               0.225112112               0.000000000              -0.476429749               0.237556056               0.000000000              -0.500000000               0.250000000               0.000000000              -0.117295528               0.062695766               0.000000000              -0.141214558               0.078308531               0.000000000              -0.165133587               0.093921295               0.000000000              -0.189052617               0.109534060               0.000000000              -0.212971646               0.125146824               0.000000000              -0.236890676               0.140759589               0.000000000              -0.260809705               0.156372354               0.000000000              -0.284728735               0.171985118               0.000000000              -0.308647764               0.187597883               0.000000000              -0.332566794               0.203210648               0.000000000              -0.356485823               0.218823412               0.000000000              -0.380404853               0.234436177               0.000000000              -0.404323882               0.250048941               0.000000000              -0.428242912               0.265661706               0.000000000              -0.452161941               0.281274471               0.000000000              -0.476080971               0.296887235               0.000000000              -0.500000000               0.312500000               0.000000000              -0.110585458               0.073890841               0.000000000              -0.134923867               0.092710163               0.000000000              -0.159262276               0.111529486               0.000000000              -0.183600685               0.130348808               0.000000000              -0.207939094               0.149168131               0.000000000              -0.232277503               0.167987453               0.000000000              -0.256615912               0.186806776               0.000000000              -0.280954320               0.205626098               0.000000000              -0.305292729               0.224445420               0.000000000              -0.329631138               0.243264743               0.000000000              -0.353969547               0.262084065               0.000000000              -0.378307956               0.280903388               0.000000000              -0.402646365               0.299722710               0.000000000              -0.426984773               0.318542033               0.000000000              -0.451323182               0.337361355               0.000000000              -0.475661591               0.356180678               0.000000000              -0.500000000               0.375000000               0.000000000              -0.102810390               0.084374307               0.000000000              -0.127634741               0.106444663               0.000000000              -0.152459092               0.128515018               0.000000000              -0.177283442               0.150585374               0.000000000              -0.202107793               0.172655730               0.000000000              -0.226932143               0.194726086               0.000000000              -0.251756494               0.216796442               0.000000000              -0.276580845               0.238866798               0.000000000              -0.301405195               0.260937153               0.000000000              -0.326229546               0.283007509               0.000000000              -0.351053896               0.305077865               0.000000000              -0.375878247               0.327148221               0.000000000              -0.400702598               0.349218577               0.000000000              -0.425526948               0.371288933               0.000000000              -0.450351299               0.393359288               0.000000000              -0.475175649               0.415429644               0.000000000              -0.500000000               0.437500000               0.000000000              -0.094045202               0.094045202               0.000000000              -0.119417377               0.119417377               0.000000000              -0.144789552               0.144789552               0.000000000              -0.170161727               0.170161727               0.000000000              -0.195533901               0.195533901               0.000000000              -0.220906076               0.220906076               0.000000000              -0.246278251               0.246278251               0.000000000              -0.271650426               0.271650426               0.000000000              -0.297022601               0.297022601               0.000000000              -0.322394776               0.322394776               0.000000000              -0.347766951               0.347766951               0.000000000              -0.373139126               0.373139126               0.000000000              -0.398511300               0.398511300               0.000000000              -0.423883475               0.423883475               0.000000000              -0.449255650               0.449255650               0.000000000              -0.474627825               0.474627825               0.000000000              -0.500000000               0.500000000               0.000000000              -0.084374307               0.102810390               0.000000000              -0.106444663               0.127634741               0.000000000              -0.128515018               0.152459092               0.000000000              -0.150585374               0.177283442               0.000000000              -0.172655730               0.202107793               0.000000000              -0.194726086               0.226932143               0.000000000              -0.216796442               0.251756494               0.000000000              -0.238866798               0.276580845               0.000000000              -0.260937153               0.301405195               0.000000000              -0.283007509               0.326229546               0.000000000              -0.305077865               0.351053896               0.000000000              -0.327148221               0.375878247               0.000000000              -0.349218577               0.400702598               0.000000000              -0.371288933               0.425526948               0.000000000              -0.393359288               0.450351299               0.000000000              -0.415429644               0.475175649               0.000000000              -0.437500000               0.500000000               0.000000000              -0.073890841               0.110585458               0.000000000              -0.092710163               0.134923867               0.000000000              -0.111529486               0.159262276               0.000000000              -0.130348808               0.183600685               0.000000000              -0.149168131               0.207939094               0.000000000              -0.167987453               0.232277503               0.000000000              -0.186806776               0.256615912               0.000000000              -0.205626098               0.280954320               0.000000000              -0.224445420               0.305292729               0.000000000              -0.243264743               0.329631138               0.000000000              -0.262084065               0.353969547               0.000000000              -0.280903388               0.378307956               0.000000000              -0.299722710               0.402646365               0.000000000              -0.318542033               0.426984773               0.000000000              -0.337361355               0.451323182               0.000000000              -0.356180678               0.475661591               0.000000000              -0.375000000               0.500000000               0.000000000              -0.062695766               0.117295528               0.000000000              -0.078308531               0.141214558               0.000000000              -0.093921295               0.165133587               0.000000000              -0.109534060               0.189052617               0.000000000              -0.125146824               0.212971646               0.000000000              -0.140759589               0.236890676               0.000000000              -0.156372354               0.260809705               0.000000000              -0.171985118               0.284728735               0.000000000              -0.187597883               0.308647764               0.000000000              -0.203210648               0.332566794               0.000000000              -0.218823412               0.356485823               0.000000000              -0.234436177               0.380404853               0.000000000              -0.250048941               0.404323882               0.000000000              -0.265661706               0.428242912               0.000000000              -0.281274471               0.452161941               0.000000000              -0.296887235               0.476080971               0.000000000              -0.312500000               0.500000000               0.000000000              -0.050896897               0.122875978               0.000000000              -0.063340840               0.146446229               0.000000000              -0.075784784               0.170016481               0.000000000              -0.088228728               0.193586732               0.000000000              -0.100672672               0.217156983               0.000000000              -0.113116616               0.240727235               0.000000000              -0.125560560               0.264297486               0.000000000              -0.138004504               0.287867738               0.000000000              -0.150448448               0.311437989               0.000000000              -0.162892392               0.335008240               0.000000000              -0.175336336               0.358578492               0.000000000              -0.187780280               0.382148743               0.000000000              -0.200224224               0.405718994               0.000000000              -0.212668168               0.429289246               0.000000000              -0.225112112               0.452859497               0.000000000              -0.237556056               0.476429749               0.000000000              -0.250000000               0.500000000               0.000000000              -0.038607862               0.127273065               0.000000000              -0.047913621               0.150568498               0.000000000              -0.057219379               0.173863932               0.000000000              -0.066525138               0.197159365               0.000000000              -0.075830897               0.220454798               0.000000000              -0.085136655               0.243750232               0.000000000              -0.094442414               0.267045665               0.000000000              -0.103748172               0.290341099               0.000000000              -0.113053931               0.313636532               0.000000000              -0.122359690               0.336931966               0.000000000              -0.131665448               0.360227399               0.000000000              -0.140971207               0.383522833               0.000000000              -0.150276966               0.406818266               0.000000000              -0.159582724               0.430113700               0.000000000              -0.168888483               0.453409133               0.000000000              -0.178194241               0.476704567               0.000000000              -0.187500000               0.500000000               0.000000000              -0.025947013               0.130444442               0.000000000              -0.032137825               0.153541665               0.000000000              -0.038328636               0.176638887               0.000000000              -0.044519448               0.199736109               0.000000000              -0.050710260               0.222833332               0.000000000              -0.056901071               0.245930554               0.000000000              -0.063091883               0.269027776               0.000000000              -0.069282695               0.292124999               0.000000000              -0.075473506               0.315222221               0.000000000              -0.081664318               0.338319444               0.000000000              -0.087855130               0.361416666               0.000000000              -0.094045942               0.384513888               0.000000000              -0.100236753               0.407611111               0.000000000              -0.106427565               0.430708333               0.000000000              -0.112618377               0.453805555               0.000000000              -0.118809188               0.476902778               0.000000000              -0.125000000               0.500000000               0.000000000              -0.013036280               0.132359569               0.000000000              -0.016127762               0.155337096               0.000000000              -0.019219245               0.178314623               0.000000000              -0.022310727               0.201292150               0.000000000              -0.025402210               0.224269676               0.000000000              -0.028493692               0.247247203               0.000000000              -0.031585175               0.270224730               0.000000000              -0.034676657               0.293202257               0.000000000              -0.037768140               0.316179784               0.000000000              -0.040859622               0.339157311               0.000000000              -0.043951105               0.362134838               0.000000000              -0.047042587               0.385112365               0.000000000              -0.050134070               0.408089892               0.000000000              -0.053225552               0.431067419               0.000000000              -0.056317035               0.454044946               0.000000000              -0.059408517               0.477022473               0.000000000              -0.062500000               0.500000000               0.000000000               0.000000000               0.133000000               0.000000000               0.000000000               0.155937500               0.000000000               0.000000000               0.178875000               0.000000000               0.000000000               0.201812500               0.000000000               0.000000000               0.224750000               0.000000000               0.000000000               0.247687500               0.000000000               0.000000000               0.270625000               0.000000000               0.000000000               0.293562500               0.000000000               0.000000000               0.316500000               0.000000000               0.000000000               0.339437500               0.000000000               0.000000000               0.362375000               0.000000000               0.000000000               0.385312500               0.000000000               0.000000000               0.408250000               0.000000000               0.000000000               0.431187500               0.000000000               0.000000000               0.454125000               0.000000000               0.000000000               0.477062500               0.000000000               0.000000000               0.500000000               0.000000000 </DataArray>
</Points>
<Cells>
<DataArray type="Int32"                                    Name="connectivity"                                                      NumberOfComponents=" 1" format="ascii">
         0          1         18         17          1          2         19         18          2          3         20         19          3          4         21         20          4          5         22         21          5          6         23         22          6          7         24         23          7          8         25         24          8          9         26         25          9         10         27         26         10         11         28         27         11         12         29         28         12         13         30         29         13         14         31         30         14         15         32         31         15         16         33         32         17         18         35         34         18         19         36         35         19         20         37         36         20         21         38         37         21         22         39         38         22         23         40         39         23         24         41         40         24         25         42         41         25         26         43         42         26         27         44         43         27         28         45         44         28         29         46         45         29         30         47         46         30         31         48         47         31         32         49         48         32         33         50         49         34         35         52         51         35         36         53         52         36         37         54         53         37         38         55         54         38         39         56         55         39         40         57         56         40         41         58         57         41         42         59         58         42         43         60         59         43         44         61         60         44         45         62         61         45         46         63         62         46         47         64         63         47         48         65         64         48         49         66         65         49         50         67         66         51         52         69         68         52         53         70         69         53         54         71         70         54         55         72         71         55         56         73         72         56         57         74         73         57         58         75         74         58         59         76         75         59         60         77         76         60         61         78         77         61         62         79         78         62         63         80         79         63         64         81         80         64         65         82         81         65         66         83         82         66         67         84         83         68         69         86         85         69         70         87         86         70         71         88         87         71         72         89         88         72         73         90         89         73         74         91         90         74         75         92         91         75         76         93         92         76         77         94         93         77         78         95         94         78         79         96         95         79         80         97         96         80         81         98         97         81         82         99         98         82         83        100         99         83         84        101        100         85         86        103        102         86         87        104        103         87         88        105        104         88         89        106        105         89         90        107        106         90         91        108        107         91         92        109        108         92         93        110        109         93         94        111        110         94         95        112        111         95         96        113        112         96         97        114        113         97         98        115        114         98         99        116        115         99        100        117        116        100        101        118        117        102        103        120        119        103        104        121        120        104        105        122        121        105        106        123        122        106        107        124        123        107        108        125        124        108        109        126        125        109        110        127        126        110        111        128        127        111        112        129        128        112        113        130        129        113        114        131        130        114        115        132        131        115        116        133        132        116        117        134        133        117        118        135        134        119        120        137        136        120        121        138        137        121        122        139        138        122        123        140        139        123        124        141        140        124        125        142        141        125        126        143        142        126        127        144        143        127        128        145        144        128        129        146        145        129        130        147        146        130        131        148        147        131        132        149        148        132        133        150        149        133        134        151        150        134        135        152        151        136        137        154        153        137        138        155        154        138        139        156        155        139        140        157        156        140        141        158        157        141        142        159        158        142        143        160        159        143        144        161        160        144        145        162        161        145        146        163        162        146        147        164        163        147        148        165        164        148        149        166        165        149        150        167        166        150        151        168        167        151        152        169        168        153        154        171        170        154        155        172        171        155        156        173        172        156        157        174        173        157        158        175        174        158        159        176        175        159        160        177        176        160        161        178        177        161        162        179        178        162        163        180        179        163        164        181        180        164        165        182        181        165        166        183        182        166        167        184        183        167        168        185        184        168        169        186        185        170        171        188        187        171        172        189        188        172        173        190        189        173        174        191        190        174        175        192        191        175        176        193        192        176        177        194        193        177        178        195        194        178        179        196        195        179        180        197        196        180        181        198        197        181        182        199        198        182        183        200        199        183        184        201        200        184        185        202        201        185        186        203        202        187        188        205        204        188        189        206        205        189        190        207        206        190        191        208        207        191        192        209        208        192        193        210        209        193        194        211        210        194        195        212        211        195        196        213        212        196        197        214        213        197        198        215        214        198        199        216        215        199        200        217        216        200        201        218        217        201        202        219        218        202        203        220        219        204        205        222        221        205        206        223        222        206        207        224        223        207        208        225        224        208        209        226        225        209        210        227        226        210        211        228        227        211        212        229        228        212        213        230        229        213        214        231        230        214        215        232        231        215        216        233        232        216        217        234        233        217        218        235        234        218        219        236        235        219        220        237        236        221        222        239        238        222        223        240        239        223        224        241        240        224        225        242        241        225        226        243        242        226        227        244        243        227        228        245        244        228        229        246        245        229        230        247        246        230        231        248        247        231        232        249        248        232        233        250        249        233        234        251        250        234        235        252        251        235        236        253        252        236        237        254        253        238        239        256        255        239        240        257        256        240        241        258        257        241        242        259        258        242        243        260        259        243        244        261        260        244        245        262        261        245        246        263        262        246        247        264        263        247        248        265        264        248        249        266        265        249        250        267        266        250        251        268        267        251        252        269        268        252        253        270        269        253        254        271        270        255        256        273        272        256        257        274        273        257        258        275        274        258        259        276        275        259        260        277        276        260        261        278        277        261        262        279        278        262        263        280        279        263        264        281        280        264        265        282        281        265        266        283        282        266        267        284        283        267        268        285        284        268        269        286        285        269        270        287        286        270        271        288        287        306        307          1          0        307        308          2          1        308        309          3          2        309        310          4          3        310        311          5          4        311        312          6          5        312        313          7          6        313        314          8          7        314        315          9          8        315        316         10          9        316        317         11         10        317        318         12         11        318        319         13         12        319        320         14         13        320        321         15         14        321        322         16         15        323        324        307        306        324        325        308        307        325        326        309        308        326        327        310        309        327        328        311        310        328        329        312        311        329        330        313        312        330        331        314        313        331        332        315        314        332        333        316        315        333        334        317        316        334        335        318        317        335        336        319        318        336        337        320        319        337        338        321        320        338        339        322        321        340        341        324        323        341        342        325        324        342        343        326        325        343        344        327        326        344        345        328        327        345        346        329        328        346        347        330        329        347        348        331        330        348        349        332        331        349        350        333        332        350        351        334        333        351        352        335        334        352        353        336        335        353        354        337        336        354        355        338        337        355        356        339        338        357        358        341        340        358        359        342        341        359        360        343        342        360        361        344        343        361        362        345        344        362        363        346        345        363        364        347        346        364        365        348        347        365        366        349        348        366        367        350        349        367        368        351        350        368        369        352        351        369        370        353        352        370        371        354        353        371        372        355        354        372        373        356        355        374        375        358        357        375        376        359        358        376        377        360        359        377        378        361        360        378        379        362        361        379        380        363        362        380        381        364        363        381        382        365        364        382        383        366        365        383        384        367        366        384        385        368        367        385        386        369        368        386        387        370        369        387        388        371        370        388        389        372        371        389        390        373        372        391        392        375        374        392        393        376        375        393        394        377        376        394        395        378        377        395        396        379        378        396        397        380        379        397        398        381        380        398        399        382        381        399        400        383        382        400        401        384        383        401        402        385        384        402        403        386        385        403        404        387        386        404        405        388        387        405        406        389        388        406        407        390        389        408        409        392        391        409        410        393        392        410        411        394        393        411        412        395        394        412        413        396        395        413        414        397        396        414        415        398        397        415        416        399        398        416        417        400        399        417        418        401        400        418        419        402        401        419        420        403        402        420        421        404        403        421        422        405        404        422        423        406        405        423        424        407        406        425        426        409        408        426        427        410        409        427        428        411        410        428        429        412        411        429        430        413        412        430        431        414        413        431        432        415        414        432        433        416        415        433        434        417        416        434        435        418        417        435        436        419        418        436        437        420        419        437        438        421        420        438        439        422        421        439        440        423        422        440        441        424        423        442        443        426        425        443        444        427        426        444        445        428        427        445        446        429        428        446        447        430        429        447        448        431        430        448        449        432        431        449        450        433        432        450        451        434        433        451        452        435        434        452        453        436        435        453        454        437        436        454        455        438        437        455        456        439        438        456        457        440        439        457        458        441        440        459        460        443        442        460        461        444        443        461        462        445        444        462        463        446        445        463        464        447        446        464        465        448        447        465        466        449        448        466        467        450        449        467        468        451        450        468        469        452        451        469        470        453        452        470        471        454        453        471        472        455        454        472        473        456        455        473        474        457        456        474        475        458        457        476        477        460        459        477        478        461        460        478        479        462        461        479        480        463        462        480        481        464        463        481        482        465        464        482        483        466        465        483        484        467        466        484        485        468        467        485        486        469        468        486        487        470        469        487        488        471        470        488        489        472        471        489        490        473        472        490        491        474        473        491        492        475        474        493        494        477        476        494        495        478        477        495        496        479        478        496        497        480        479        497        498        481        480        498        499        482        481        499        500        483        482        500        501        484        483        501        502        485        484        502        503        486        485        503        504        487        486        504        505        488        487        505        506        489        488        506        507        490        489        507        508        491        490        508        509        492        491        510        511        494        493        511        512        495        494        512        513        496        495        513        514        497        496        514        515        498        497        515        516        499        498        516        517        500        499        517        518        501        500        518        519        502        501        519        520        503        502        520        521        504        503        521        522        505        504        522        523        506        505        523        524        507        506        524        525        508        507        525        526        509        508        527        528        511        510        528        529        512        511        529        530        513        512        530        531        514        513        531        532        515        514        532        533        516        515        533        534        517        516        534        535        518        517        535        536        519        518        536        537        520        519        537        538        521        520        538        539        522        521        539        540        523        522        540        541        524        523        541        542        525        524        542        543        526        525        544        545        528        527        545        546        529        528        546        547        530        529        547        548        531        530        548        549        532        531        549        550        533        532        550        551        534        533        551        552        535        534        552        553        536        535        553        554        537        536        554        555        538        537        555        556        539        538        556        557        540        539        557        558        541        540        558        559        542        541        559        560        543        542        561        562        545        544        562        563        546        545        563        564        547        546        564        565        548        547        565        566        549        548        566        567        550        549        567        568        551        550        568        569        552        551        569        570        553        552        570        571        554        553        571        572        555        554        572        573        556        555        573        574        557        556        574        575        558        557        575        576        559        558        576        577        560        559        578        579        596        595        579        580        597        596        580        581        598        597        581        582        599        598        582        583        600        599        583        584        601        600        584        585        602        601        585        586        603        602        586        587        604        603        587        588        605        604        588        589        606        605        589        590        607        606        590        591        608        607        591        592        609        608        592        593        610        609        593        594        611        610        595        596        613        612        596        597        614        613        597        598        615        614        598        599        616        615        599        600        617        616        600        601        618        617        601        602        619        618        602        603        620        619        603        604        621        620        604        605        622        621        605        606        623        622        606        607        624        623        607        608        625        624        608        609        626        625        609        610        627        626        610        611        628        627        612        613        630        629        613        614        631        630        614        615        632        631        615        616        633        632        616        617        634        633        617        618        635        634        618        619        636        635        619        620        637        636        620        621        638        637        621        622        639        638        622        623        640        639        623        624        641        640        624        625        642        641        625        626        643        642        626        627        644        643        627        628        645        644        629        630        647        646        630        631        648        647        631        632        649        648        632        633        650        649        633        634        651        650        634        635        652        651        635        636        653        652        636        637        654        653        637        638        655        654        638        639        656        655        639        640        657        656        640        641        658        657        641        642        659        658        642        643        660        659        643        644        661        660        644        645        662        661        646        647        664        663        647        648        665        664        648        649        666        665        649        650        667        666        650        651        668        667        651        652        669        668        652        653        670        669        653        654        671        670        654        655        672        671        655        656        673        672        656        657        674        673        657        658        675        674        658        659        676        675        659        660        677        676        660        661        678        677        661        662        679        678        663        664        681        680        664        665        682        681        665        666        683        682        666        667        684        683        667        668        685        684        668        669        686        685        669        670        687        686        670        671        688        687        671        672        689        688        672        673        690        689        673        674        691        690        674        675        692        691        675        676        693        692        676        677        694        693        677        678        695        694        678        679        696        695        680        681        698        697        681        682        699        698        682        683        700        699        683        684        701        700        684        685        702        701        685        686        703        702        686        687        704        703        687        688        705        704        688        689        706        705        689        690        707        706        690        691        708        707        691        692        709        708        692        693        710        709        693        694        711        710        694        695        712        711        695        696        713        712        697        698        715        714        698        699        716        715        699        700        717        716        700        701        718        717        701        702        719        718        702        703        720        719        703        704        721        720        704        705        722        721        705        706        723        722        706        707        724        723        707        708        725        724        708        709        726        725        709        710        727        726        710        711        728        727        711        712        729        728        712        713        730        729        714        715        732        731        715        716        733        732        716        717        734        733        717        718        735        734        718        719        736        735        719        720        737        736        720        721        738        737        721        722        739        738        722        723        740        739        723        724        741        740        724        725        742        741        725        726        743        742        726        727        744        743        727        728        745        744        728        729        746        745        729        730        747        746        731        732        749        748        732        733        750        749        733        734        751        750        734        735        752        751        735        736        753        752        736        737        754        753        737        738        755        754        738        739        756        755        739        740        757        756        740        741        758        757        741        742        759        758        742        743        760        759        743        744        761        760        744        745        762        761        745        746        763        762        746        747        764        763        748        749        766        765        749        750        767        766        750        751        768        767        751        752        769        768        752        753        770        769        753        754        771        770        754        755        772        771        755        756        773        772        756        757        774        773        757        758        775        774        758        759        776        775        759        760        777        776        760        761        778        777        761        762        779        778        762        763        780        779        763        764        781        780        765        766        783        782        766        767        784        783        767        768        785        784        768        769        786        785        769        770        787        786        770        771        788        787        771        772        789        788        772        773        790        789        773        774        791        790        774        775        792        791        775        776        793        792        776        777        794        793        777        778        795        794        778        779        796        795        779        780        797        796        780        781        798        797        782        783        800        799        783        784        801        800        784        785        802        801        785        786        803        802        786        787        804        803        787        788        805        804        788        789        806        805        789        790        807        806        790        791        808        807        791        792        809        808        792        793        810        809        793        794        811        810        794        795        812        811        795        796        813        812        796        797        814        813        797        798        815        814        799        800        817        816        800        801        818        817        801        802        819        818        802        803        820        819        803        804        821        820        804        805        822        821        805        806        823        822        806        807        824        823        807        808        825        824        808        809        826        825        809        810        827        826        810        811        828        827        811        812        829        828        812        813        830        829        813        814        831        830        814        815        832        831        816        817        834        833        817        818        835        834        818        819        836        835        819        820        837        836        820        821        838        837        821        822        839        838        822        823        840        839        823        824        841        840        824        825        842        841        825        826        843        842        826        827        844        843        827        828        845        844        828        829        846        845        829        830        847        846        830        831        848        847        831        832        849        848        833        834        562        561        834        835        563        562        835        836        564        563        836        837        565        564        837        838        566        565        838        839        567        566        839        840        568        567        840        841        569        568        841        842        570        569        842        843        571        570        843        844        572        571        844        845        573        572        845        846        574        573        846        847        575        574        847        848        576        575        848        849        577        576        884        885        579        578        885        886        580        579        886        887        581        580        887        888        582        581        888        889        583        582        889        890        584        583        890        891        585        584        891        892        586        585        892        893        587        586        893        894        588        587        894        895        589        588        895        896        590        589        896        897        591        590        897        898        592        591        898        899        593        592        899        900        594        593        901        902        885        884        902        903        886        885        903        904        887        886        904        905        888        887        905        906        889        888        906        907        890        889        907        908        891        890        908        909        892        891        909        910        893        892        910        911        894        893        911        912        895        894        912        913        896        895        913        914        897        896        914        915        898        897        915        916        899        898        916        917        900        899        918        919        902        901        919        920        903        902        920        921        904        903        921        922        905        904        922        923        906        905        923        924        907        906        924        925        908        907        925        926        909        908        926        927        910        909        927        928        911        910        928        929        912        911        929        930        913        912        930        931        914        913        931        932        915        914        932        933        916        915        933        934        917        916        935        936        919        918        936        937        920        919        937        938        921        920        938        939        922        921        939        940        923        922        940        941        924        923        941        942        925        924        942        943        926        925        943        944        927        926        944        945        928        927        945        946        929        928        946        947        930        929        947        948        931        930        948        949        932        931        949        950        933        932        950        951        934        933        952        953        936        935        953        954        937        936        954        955        938        937        955        956        939        938        956        957        940        939        957        958        941        940        958        959        942        941        959        960        943        942        960        961        944        943        961        962        945        944        962        963        946        945        963        964        947        946        964        965        948        947        965        966        949        948        966        967        950        949        967        968        951        950        969        970        953        952        970        971        954        953        971        972        955        954        972        973        956        955        973        974        957        956        974        975        958        957        975        976        959        958        976        977        960        959        977        978        961        960        978        979        962        961        979        980        963        962        980        981        964        963        981        982        965        964        982        983        966        965        983        984        967        966        984        985        968        967        986        987        970        969        987        988        971        970        988        989        972        971        989        990        973        972        990        991        974        973        991        992        975        974        992        993        976        975        993        994        977        976        994        995        978        977        995        996        979        978        996        997        980        979        997        998        981        980        998        999        982        981        999       1000        983        982       1000       1001        984        983       1001       1002        985        984       1003       1004        987        986       1004       1005        988        987       1005       1006        989        988       1006       1007        990        989       1007       1008        991        990       1008       1009        992        991       1009       1010        993        992       1010       1011        994        993       1011       1012        995        994       1012       1013        996        995       1013       1014        997        996       1014       1015        998        997       1015       1016        999        998       1016       1017       1000        999       1017       1018       1001       1000       1018       1019       1002       1001       1020       1021       1004       1003       1021       1022       1005       1004       1022       1023       1006       1005       1023       1024       1007       1006       1024       1025       1008       1007       1025       1026       1009       1008       1026       1027       1010       1009       1027       1028       1011       1010       1028       1029       1012       1011       1029       1030       1013       1012       1030       1031       1014       1013       1031       1032       1015       1014       1032       1033       1016       1015       1033       1034       1017       1016       1034       1035       1018       1017       1035       1036       1019       1018       1037       1038       1021       1020       1038       1039       1022       1021       1039       1040       1023       1022       1040       1041       1024       1023       1041       1042       1025       1024       1042       1043       1026       1025       1043       1044       1027       1026       1044       1045       1028       1027       1045       1046       1029       1028       1046       1047       1030       1029       1047       1048       1031       1030       1048       1049       1032       1031       1049       1050       1033       1032       1050       1051       1034       1033       1051       1052       1035       1034       1052       1053       1036       1035       1054       1055       1038       1037       1055       1056       1039       1038       1056       1057       1040       1039       1057       1058       1041       1040       1058       1059       1042       1041       1059       1060       1043       1042       1060       1061       1044       1043       1061       1062       1045       1044       1062       1063       1046       1045       1063       1064       1047       1046       1064       1065       1048       1047       1065       1066       1049       1048       1066       1067       1050       1049       1067       1068       1051       1050       1068       1069       1052       1051       1069       1070       1053       1052       1071       1072       1055       1054       1072       1073       1056       1055       1073       1074       1057       1056       1074       1075       1058       1057       1075       1076       1059       1058       1076       1077       1060       1059       1077       1078       1061       1060       1078       1079       1062       1061       1079       1080       1063       1062       1080       1081       1064       1063       1081       1082       1065       1064       1082       1083       1066       1065       1083       1084       1067       1066       1084       1085       1068       1067       1085       1086       1069       1068       1086       1087       1070       1069       1088       1089       1072       1071       1089       1090       1073       1072       1090       1091       1074       1073       1091       1092       1075       1074       1092       1093       1076       1075       1093       1094       1077       1076       1094       1095       1078       1077       1095       1096       1079       1078       1096       1097       1080       1079       1097       1098       1081       1080       1098       1099       1082       1081       1099       1100       1083       1082       1100       1101       1084       1083       1101       1102       1085       1084       1102       1103       1086       1085       1103       1104       1087       1086       1105       1106       1089       1088       1106       1107       1090       1089       1107       1108       1091       1090       1108       1109       1092       1091       1109       1110       1093       1092       1110       1111       1094       1093       1111       1112       1095       1094       1112       1113       1096       1095       1113       1114       1097       1096       1114       1115       1098       1097       1115       1116       1099       1098       1116       1117       1100       1099       1117       1118       1101       1100       1118       1119       1102       1101       1119       1120       1103       1102       1120       1121       1104       1103       1122       1123       1106       1105       1123       1124       1107       1106       1124       1125       1108       1107       1125       1126       1109       1108       1126       1127       1110       1109       1127       1128       1111       1110       1128       1129       1112       1111       1129       1130       1113       1112       1130       1131       1114       1113       1131       1132       1115       1114       1132       1133       1116       1115       1133       1134       1117       1116       1134       1135       1118       1117       1135       1136       1119       1118       1136       1137       1120       1119       1137       1138       1121       1120        272        273       1123       1122        273        274       1124       1123        274        275       1125       1124        275        276       1126       1125        276        277       1127       1126        277        278       1128       1127        278        279       1129       1128        279        280       1130       1129        280        281       1131       1130        281        282       1132       1131        282        283       1133       1132        283        284       1134       1133        284        285       1135       1134        285        286       1136       1135        286        287       1137       1136        287        288       1138       1137 </DataArray>
<DataArray type="Int32"                                    Name="offsets"                                                      NumberOfComponents=" 1" format="ascii">
         4          8         12         16         20         24         28         32         36         40         44         48         52         56         60         64         68         72         76         80         84         88         92         96        100        104        108        112        116        120        124        128        132        136        140        144        148        152        156        160        164        168        172        176        180        184        188        192        196        200        204        208        212        216        220        224        228        232        236        240        244        248        252        256        260        264        268        272        276        280        284        288        292        296        300        304        308        312        316        320        324        328        332        336        340        344        348        352        356        360        364        368        372        376        380        384        388        392        396        400        404        408        412        416        420        424        428        432        436        440        444        448        452        456        460        464        468        472        476        480        484        488        492        496        500        504        508        512        516        520        524        528        532        536        540        544        548        552        556        560        564        568        572        576        580        584        588        592        596        600        604        608        612        616        620        624        628        632        636        640        644        648        652        656        660        664        668        672        676        680        684        688        692        696        700        704        708        712        716        720        724        728        732        736        740        744        748        752        756        760        764        768        772        776        780        784        788        792        796        800        804        808        812        816        820        824        828        832        836        840        844        848        852        856        860        864        868        872        876        880        884        888        892        896        900        904        908        912        916        920        924        928        932        936        940        944        948        952        956        960        964        968        972        976        980        984        988        992        996       1000       1004       1008       1012       1016       1020       1024       1028       1032       1036       1040       1044       1048       1052       1056       1060       1064       1068       1072       1076       1080       1084       1088       1092       1096       1100       1104       1108       1112       1116       1120       1124       1128       1132       1136       1140       1144       1148       1152       1156       1160       1164       1168       1172       1176       1180       1184       1188       1192       1196       1200       1204       1208       1212       1216       1220       1224       1228       1232       1236       1240       1244       1248       1252       1256       1260       1264       1268       1272       1276       1280       1284       1288       1292       1296       1300       1304       1308       1312       1316       1320       1324       1328       1332       1336       1340       1344       1348       1352       1356       1360       1364       1368       1372       1376       1380       1384       1388       1392       1396       1400       1404       1408       1412       1416       1420       1424       1428       1432       1436       1440       1444       1448       1452       1456       1460       1464       1468       1472       1476       1480       1484       1488       1492       1496       1500       1504       1508       1512       1516       1520       1524       1528       1532       1536       1540       1544       1548       1552       1556       1560       1564       1568       1572       1576       1580       1584       1588       1592       1596       1600       1604       1608       1612       1616       1620       1624       1628       1632       1636       1640       1644       1648       1652       1656       1660       1664       1668       1672       1676       1680       1684       1688       1692       1696       1700       1704       1708       1712       1716       1720       1724       1728       1732       1736       1740       1744       1748       1752       1756       1760       1764       1768       1772       1776       1780       1784       1788       1792       1796       1800       1804       1808       1812       1816       1820       1824       1828       1832       1836       1840       1844       1848       1852       1856       1860       1864       1868       1872       1876       1880       1884       1888       1892       1896       1900       1904       1908       1912       1916       1920       1924       1928       1932       1936       1940       1944       1948       1952       1956       1960       1964       1968       1972       1976       1980       1984       1988       1992       1996       2000       2004       2008       2012       2016       2020       2024       2028       2032       2036       2040       2044       2048       2052       2056       2060       2064       2068       2072       2076       2080       2084       2088       2092       2096       2100       2104       2108       2112       2116       2120       2124       2128       2132       2136       2140       2144       2148       2152       2156       2160       2164       2168       2172       2176       2180       2184       2188       2192       2196       2200       2204       2208       2212       2216       2220       2224       2228       2232       2236       2240       2244       2248       2252       2256       2260       2264       2268       2272       2276       2280       2284       2288       2292       2296       2300       2304       2308       2312       2316       2320       2324       2328       2332       2336       2340       2344       2348       2352       2356       2360       2364       2368       2372       2376       2380       2384       2388       2392       2396       2400       2404       2408       2412       2416       2420       2424       2428       2432       2436       2440       2444       2448       2452       2456       2460       2464       2468       2472       2476       2480       2484       2488       2492       2496       2500       2504       2508       2512       2516       2520       2524       2528       2532       2536       2540       2544       2548       2552       2556       2560       2564       2568       2572       2576       2580       2584       2588       2592       2596       2600       2604       2608       2612       2616       2620       2624       2628       2632       2636       2640       2644       2648       2652       2656       2660       2664       2668       2672       2676       2680       2684       2688       2692       2696       2700       2704       2708       2712       2716       2720       2724       2728       2732       2736       2740       2744       2748       2752       2756       2760       2764       2768       2772       2776       2780       2784       2788       2792       2796       2800       2804       2808       2812       2816       2820       2824       2828       2832       2836       2840       2844       2848       2852       2856       2860       2864       2868       2872       2876       2880       2884       2888       2892       2896       2900       2904       2908       2912       2916       2920       2924       2928       2932       2936       2940       2944       2948       2952       2956       2960       2964       2968       2972       2976       2980       2984       2988       2992       2996       3000       3004       3008       3012       3016       3020       3024       3028       3032       3036       3040       3044       3048       3052       3056       3060       3064       3068       3072       3076       3080       3084       3088       3092       3096       3100       3104       3108       3112       3116       3120       3124       3128       3132       3136       3140       3144       3148       3152       3156       3160       3164       3168       3172       3176       3180       3184       3188       3192       3196       3200       3204       3208       3212       3216       3220       3224       3228       3232       3236       3240       3244       3248       3252       3256       3260       3264       3268       3272       3276       3280       3284       3288       3292       3296       3300       3304       3308       3312       3316       3320       3324       3328       3332       3336       3340       3344       3348       3352       3356       3360       3364       3368       3372       3376       3380       3384       3388       3392       3396       3400       3404       3408       3412       3416       3420       3424       3428       3432       3436       3440       3444       3448       3452       3456       3460       3464       3468       3472       3476       3480       3484       3488       3492       3496       3500       3504       3508       3512       3516       3520       3524       3528       3532       3536       3540       3544       3548       3552       3556       3560       3564       3568       3572       3576       3580       3584       3588       3592       3596       3600       3604       3608       3612       3616       3620       3624       3628       3632       3636       3640       3644       3648       3652       3656       3660       3664       3668       3672       3676       3680       3684       3688       3692       3696       3700       3704       3708       3712       3716       3720       3724       3728       3732       3736       3740       3744       3748       3752       3756       3760       3764       3768       3772       3776       3780       3784       3788       3792       3796       3800       3804       3808       3812       3816       3820       3824       3828       3832       3836       3840       3844       3848       3852       3856       3860       3864       3868       3872       3876       3880       3884       3888       3892       3896       3900       3904       3908       3912       3916       3920       3924       3928       3932       3936       3940       3944       3948       3952       3956       3960       3964       3968       3972       3976       3980       3984       3988       3992       3996       4000       4004       4008       4012       4016       4020       4024       4028       4032       4036       4040       4044       4048       4052       4056       4060       4064       4068       4072       4076       4080       4084       4088       4092       4096 </DataArray>
<DataArray type="UInt8"                                    Name="types"                                                      NumberOfComponents=" 1" format="ascii">
         9          9          9          9          9          9          9          9          9          9          9          9          9          9          9          9          9          9          9          9          9          9          9          9          9          9          9          9          9          9          9          9          9          9          9          9          9          9          9          9          9          9          9          9          9          9          9          9          9          9          9          9          9          9          9          9          9          9          9          9          9          9          9          9          9          9          9          9          9          9          9          9          9          9          9          9          9          9          9          9          9          9          9          9          9          9          9          9          9          9          9          9          9          9          9          9          9          9          9          9          9          9          9          9          9          9          9          9          9          9          9          9          9          9          9          9          9          9          9          9          9          9          9          9          9          9          9          9          9          9          9          9          9          9          9          9          9          9          9          9          9          9          9          9          9          9          9          9          9          9          9          9          9          9          9          9          9          9          9          9          9          9          9          9          9          9          9          9          9          9          9          9          9          9          9          9          9          9          9          9          9          9          9          9          9          9          9          9          9          9          9          9          9          9          9          9          9          9          9          9          9          9          9          9          9          9          9          9          9          9          9          9          9          9          9          9          9          9          9          9          9          9          9          9          9          9          9          9          9          9          9          9          9          9          9          9          9          9          9          9          9          9          9          9          9          9          9          9          9          9          9          9          9          9          9          9          9          9          9          9          9          9          9          9          9          9          9          9          9          9          9          9          9          9          9          9          9          9          9          9          9          9          9          9          9          9          9          9          9          9          9          9          9          9          9          9          9          9          9          9          9          9          9          9          9          9          9          9          9          9          9          9          9          9          9          9          9          9          9          9          9          9          9          9          9          9          9          9          9          9          9          9          9          9          9          9          9          9          9          9          9          9          9          9          9          9          9          9          9          9          9          9          9          9          9          9          9          9          9          9          9          9          9          9          9          9          9          9          9          9          9          9          9          9          9          9          9          9          9          9          9          9          9          9          9          9          9          9          9          9          9          9          9          9          9          9          9          9          9          9          9          9          9          9          9          9          9          9          9          9          9          9          9          9          9          9          9          9          9          9          9          9          9          9          9          9          9          9          9          9          9          9          9          9          9          9          9          9          9          9          9          9          9          9          9          9          9          9          9          9          9          9          9          9          9          9          9          9          9          9          9          9          9          9          9          9          9          9          9          9          9          9          9          9          9          9          9          9          9          9          9          9          9          9          9          9          9          9          9          9          9          9          9          9          9          9          9          9          9          9          9          9          9          9          9          9          9          9          9          9          9          9          9          9          9          9          9          9          9          9          9          9          9          9          9          9          9          9          9          9          9          9          9          9          9          9          9          9          9          9          9          9          9          9          9          9          9          9          9          9          9          9          9          9          9          9          9          9          9          9          9          9          9          9          9          9          9          9          9          9          9          9          9          9          9          9          9          9          9          9          9          9          9          9          9          9          9          9          9          9          9          9          9          9          9          9          9          9          9          9          9          9          9          9          9          9          9          9          9          9          9          9          9          9          9          9          9          9          9          9          9          9          9          9          9          9          9          9          9          9          9          9          9          9          9          9          9          9          9          9          9          9          9          9          9          9          9          9          9          9          9          9          9          9          9          9          9          9          9          9          9          9          9          9          9          9          9          9          9          9          9          9          9          9          9          9          9          9          9          9          9          9          9          9          9          9          9          9          9          9          9          9          9          9          9          9          9          9          9          9          9          9          9          9          9          9          9          9          9          9          9          9          9          9          9          9          9          9          9          9          9          9          9          9          9          9          9          9          9          9          9          9          9          9          9          9          9          9          9          9          9          9          9          9          9          9          9          9          9          9          9          9          9          9          9          9          9          9          9          9          9          9          9          9          9          9          9          9          9          9          9          9          9          9          9          9          9          9          9          9          9          9          9          9          9          9          9          9          9          9          9          9          9          9          9          9          9          9          9          9          9          9          9          9          9          9          9          9          9          9          9          9          9          9          9          9          9          9          9          9          9          9          9          9          9          9          9          9          9          9          9          9          9          9          9          9          9          9          9          9          9          9          9          9          9          9          9          9          9          9          9          9          9          9          9          9          9          9          9          9          9          9          9          9          9          9          9          9          9          9          9          9          9          9          9          9          9          9          9          9          9          9          9          9          9          9          9          9          9          9          9          9          9          9          9          9          9          9          9          9          9          9          9          9          9          9          9          9          9          9          9          9          9          9          9          9          9          9          9          9          9          9          9          9          9          9          9          9          9          9          9          9          9          9          9          9          9          9          9          9          9          9          9          9          9          9          9          9          9          9          9          9          9          9          9          9          9          9          9          9          9          9          9          9          9          9          9          9          9          9          9          9          9          9          9          9          9          9          9          9          9          9          9          9          9          9          9          9          9          9          9          9          9          9          9          9          9          9          9          9          9          9          9          9          9          9          9          9          9          9          9          9          9          9          9          9          9          9          9          9          9          9          9          9 </DataArray>
</Cells>
<CellData>
<DataArray type="Int32"                                    Name="material"                                                      NumberOfComponents=" 1" format="ascii">
         1          1          1          1          1          1          1          1          1          1          1          1          1          1          1          1          1          1          1          1          1          1          1          1          1          1          1          1          1          1          1          1          1          1          1          1          1          1          1          1          1          1          1          1          1          1          1          1          1          1          1          1          1          1          1          1          1          1          1          1          1          1          1          1          1          1          1          1          1          1          1          1          1          1          1          1          1          1          1          1          1          1          1          1          1          1          1          1          1          1          1          1          1          1          1          1          1          1          1          1          1          1          1          1          1          1          1          1          1          1          1          1          1          1          1          1          1          1          1          1          1          1          1          1          1          1          1          1          1          1          1          1          1          1          1          1          1          1          1          1          1          1          1          1          1          1          1          1          1          1          1          1          1          1          1          1          1          1          1          1          1          1          1          1          1          1          1          1          1          1          1          1          1          1          1          1          1          1          1          1          1          1          1          1          1          1          1          1          1          1          1          1          1          1          1          1          1          1          1          1          1          1          1          1          1          1          1          1          1          1          1          1          1          1          1          1          1          1          1          1          1          1          1          1          1          1          1          1          1          1          1          1          1          1          1          1          1          1          1          1          1          1          1          1          1          1          1          1          1          1          1          1          1          1          1          1          1          1          1          1          1          1          1          1          1          1          1          1          1          1          1          1          1          1          1          1          1          1          1          1          1          1          1          1          1          1          1          1          1          1          1          1          1          1          1          1          1          1          1          1          1          1          1          1          1          1          1          1          1          1          1          1          1          1          1          1          1          1          1          1          1          1          1          1          1          1          1          1          1          1          1          1          1          1          1          1          1          1          1          1          1          1          1          1          1          1          1          1          1          1          1          1          1          1          1          1          1          1          1          1          1          1          1          1          1          1          1          1          1          1          1          1          1          1          1          1          1          1          1          1          1          1          1          1          1          1          1          1          1          1          1          1          1          1          1          1          1          1          1          1          1          1          1          1          1          1          1          1          1          1          1          1          1          1          1          1          1          1          1          1          1          1          1          1          1          1          1          1          1          1          1          1          1          1          1          1          1          1          1          1          1          1          1          1          1          1          1          1          1          1          1          1          1          1          1          1          1          1          1          1          1          1          1          1          1          1          1          1          1          1          1          1          1          1          1          1          1          1          1          1          1          1          1          1          1          1          1          1          1          1          1          1          1          1          1          1          1          1          1          1          1          1          1          1          1          1          1          1          1          1          1          1          1          1          1          1          1          1          1          1          1          1          1          1          1          1          1          1          1          1          1          1          1          1          1          1          1          1          1          1          1          1          1          1          1          1          1          1          1          1          1          1          1          1          1          1          1          1          1          1          1          1          1          1          1          1          1          1          1          1          1          1          1          1          1          1          1          1          1          1          1          1          1          1          1          1          1          1          1          1          1          1          1          1          1          1          1          1          1          1          1          1          1          1          1          1          1          1          1          1          1          1          1          1          1          1          1          1          1          1          1          1          1          1          1          1          1          1          1          1          1          1          1          1          1          1          1          1          1          1          1          1          1          1          1          1          1          1          1          1          1          1          1          1          1          1          1          1          1          1          1          1          1          1          1          1          1          1          1          1          1          1          1          1          1          1          1          1          1          1          1          1          1          1          1          1          1          1          1          1          1          1          1          1          1          1          1          1          1          1          1          1          1          1          1          1          1          1          1          1          1          1          1          1          1          1          1          1          1          1          1          1          1          1          1          1          1          1          1          1          1          1          1          1          1          1          1          1          1          1          1          1          1          1          1          1          1          1          1          1          1          1          1          1          1          1          1          1          1          1          1          1          1          1          1          1          1          1          1          1          1          1          1          1          1          1          1          1          1          1          1          1          1          1          1          1          1          1          1          1          1          1          1          1          1          1          1          1          1          1          1          1          1          1          1          1          1          1          1          1          1          1          1          1          1          1          1          1          1          1          1          1          1          1          1          1          1          1          1          1          1          1          1          1          1          1          1          1          1          1          1          1          1          1          1          1          1          1          1          1          1          1          1          1          1          1          1          1          1          1          1          1          1          1          1          1          1          1          1          1          1          1          1          1          1          1          1          1          1          1          1          1          1          1          1          1          1          1          1          1          1          1          1          1          1          1          1          1          1          1          1          1          1          1          1          1          1          1          1          1          1          1          1          1          1          1          1          1          1          1          1          1          1          1          1          1          1          1          1          1          1          1          1          1          1          1          1          1          1          1          1          1          1          1          1          1          1          1          1          1          1          1          1          1          1          1          1          1          1          1          1          1          1          1          1          1          1          1          1          1          1          1          1          1          1          1          1          1          1          1          1          1          1          1          1          1          1          1          1          1          1          1          1          1          1          1          1          1          1          1          1          1          1          1          1          1          1          1          1          1          1          1          1          1          1          1          1          1          1          1          1          1          1          1 </DataArray>
</CellData>
<PointData>
<DataArray type="Float64"                                    Name="u"                                                      NumberOfComponents=" 3" format="ascii">
             -0.000763003              -0.000000000               0.999999984              -0.000814787               0.000000000               0.999999984              -0.000837409              -0.000000000               0.999999984              -0.000849991               0.000000000               0.999999984              -0.000859579              -0.000000000               0.999999984              -0.000869011               0.000000000               0.999999984              -0.000879315              -0.000000000               0.999999984              -0.000890789              -0.000000000               0.999999984              -0.000903353               0.000000000               0.999999984              -0.000916896              -0.000000000               0.999999984              -0.000931189               0.000000000               0.999999984              -0.000946079               0.000000000               0.999999984              -0.000961251               0.000000000               0.999999984              -0.000976056               0.000000000               0.999999984              -0.000989947               0.000000000               0.999999984              -0.001002359               0.000000000               0.999999984              -0.001012548              -0.000000000               0.999999984              -0.000758825               0.000133617               0.999999984              -0.000806679               0.000108449               0.999999984              -0.000826767               0.000097132               0.999999984              -0.000837684               0.000092762               0.999999984              -0.000846233               0.000091878               0.999999984              -0.000854961               0.000093150               0.999999984              -0.000864693               0.000095316               0.999999984              -0.000875680               0.000097812               0.999999984              -0.000887791               0.000100336               0.999999984              -0.000900746               0.000102444               0.999999984              -0.000914296               0.000103869               0.999999984              -0.000928093               0.000104308               0.999999984              -0.000941797               0.000103082               0.999999984              -0.000954982               0.000099736               0.999999984              -0.000966980               0.000093631               0.999999984              -0.000977263               0.000084252               0.999999984              -0.000985217               0.000070422               0.999999984              -0.000746296               0.000265883               0.999999984              -0.000782707               0.000216228               0.999999984              -0.000795829               0.000194790               0.999999984              -0.000802482               0.000186999               0.999999984              -0.000808256               0.000186150               0.999999984              -0.000815158               0.000189088               0.999999984              -0.000823535               0.000193881               0.999999984              -0.000833221               0.000199025               0.999999984              -0.000843838               0.000204037               0.999999984              -0.000854915               0.000208156               0.999999984              -0.000865995               0.000210645               0.999999984              -0.000876560               0.000211047               0.999999984              -0.000886147               0.000208344               0.999999984              -0.000894293               0.000201567               0.999999984              -0.000900686               0.000189996               0.999999984              -0.000904908               0.000172591               0.999999984              -0.000906654               0.000147724               0.999999984              -0.000725757               0.000395541               0.999999984              -0.000744171               0.000322900               0.999999984              -0.000747092               0.000293526               0.999999984              -0.000748099               0.000284046               0.999999984              -0.000750645               0.000284335               0.999999984              -0.000755337               0.000289749               0.999999984              -0.000761781               0.000297379               0.999999984              -0.000769346               0.000305312               0.999999984              -0.000777405               0.000312753               0.999999984              -0.000785285               0.000318516               0.999999984              -0.000792122               0.000321603               0.999999984              -0.000797381               0.000321168               0.999999984              -0.000800615               0.000316350               0.999999984              -0.000801413               0.000306399               0.999999984              -0.000799668               0.000290526               0.999999984              -0.000795438               0.000267775               0.999999984              -0.000789058               0.000237261               0.999999984              -0.000697584               0.000521389               0.999999984              -0.000692960               0.000428294               0.999999984              -0.000684657               0.000393588               0.999999984              -0.000680171               0.000384296               0.999999984              -0.000679713               0.000386783               0.999999984              -0.000682291               0.000395183               0.999999984              -0.000686724               0.000405767               0.999999984              -0.000691871               0.000416428               0.999999984              -0.000696692               0.000425833               0.999999984              -0.000700143               0.000432606               0.999999984              -0.000701402               0.000435448               0.999999984              -0.000699898               0.000433727               0.999999984              -0.000695318               0.000426758               0.999999984              -0.000687653               0.000414064               0.999999984              -0.000677152               0.000395432               0.999999984              -0.000664261               0.000370657               0.999999984              -0.000649721               0.000340120               0.999999984              -0.000662350               0.000642164               0.999999984              -0.000631794               0.000532256               0.999999984              -0.000613105               0.000494929               0.999999984              -0.000604392               0.000487273               0.999999984              -0.000602025               0.000492590               0.999999984              -0.000603280               0.000503882               0.999999984              -0.000605997               0.000517304               0.999999984              -0.000608547               0.000530238               0.999999984              -0.000609450               0.000540914               0.999999984              -0.000607578               0.000547916               0.999999984              -0.000602211               0.000550125               0.999999984              -0.000593142               0.000546914               0.999999984              -0.000580323               0.000538035               0.999999984              -0.000564125               0.000523637               0.999999984              -0.000545172               0.000504067               0.999999984              -0.000524143               0.000479980               0.999999984              -0.000501813               0.000452464               0.999999984              -0.000620615               0.000756716               0.999999984              -0.000563690               0.000634748               0.999999984              -0.000536971               0.000597101               0.999999984              -0.000526316               0.000591743               0.999999984              -0.000523567               0.000599775               0.999999984              -0.000524212               0.000613827               0.999999984              -0.000525493               0.000629659               0.999999984              -0.000525186               0.000644162               0.999999984              -0.000521629               0.000655368               0.999999984              -0.000513677               0.000662064               0.999999984              -0.000501054               0.000663285               0.999999984              -0.000483884               0.000658764               0.999999984              -0.000462578               0.000648662               0.999999984              -0.000437754               0.000633628               0.999999984              -0.000410194               0.000614563               0.999999984              -0.000380706               0.000592380               0.999999984              -0.000349992               0.000568192               0.999999984              -0.000573380               0.000863764               0.999999984              -0.000491958               0.000735501               0.999999984              -0.000460624               0.000699088               0.999999984              -0.000450542               0.000695974               0.999999984              -0.000448540               0.000706386               0.999999984              -0.000449207               0.000722822               0.999999984              -0.000449073               0.000740474               0.999999984              -0.000445370               0.000755843               0.999999984              -0.000436478               0.000767118               0.999999984              -0.000421611               0.000773087               0.999999984              -0.000400937               0.000773204               0.999999984              -0.000374909               0.000767740               0.999999984              -0.000344315               0.000757098               0.999999984              -0.000309970               0.000742418               0.999999984              -0.000272981               0.000724863               0.999999984              -0.000234250               0.000705340               0.999999984              -0.000194676               0.000684721               0.999999984              -0.000522134               0.000961537               0.999999984              -0.000418994               0.000834483               0.999999984              -0.000388032               0.000799417               0.999999984              -0.000380292               0.000798006               0.999999984              -0.000380024               0.000810410               0.999999984              -0.000380822               0.000828688               0.999999984              -0.000378683               0.000847699               0.999999984              -0.000370561               0.000863611               0.999999984              -0.000355110               0.000874567               0.999999984              -0.000332217               0.000879588               0.999999984              -0.000302327               0.000878693               0.999999984              -0.000266281               0.000872586               0.999999984              -0.000225129               0.000862238               0.999999984              -0.000180322               0.000848929               0.999999984              -0.000133358               0.000833937               0.999999984              -0.000085424               0.000818038               0.999999984              -0.000037284               0.000801717               0.999999984              -0.000469068               0.001053785               0.999999984              -0.000358149               0.000944563               0.999999984              -0.000323915               0.000905428               0.999999984              -0.000315176               0.000898479               0.999999984              -0.000314688               0.000906437               0.999999984              -0.000315844               0.000921624               0.999999984              -0.000315341               0.000939720               0.999999984              -0.000309966               0.000957317               0.999999984              -0.000298304               0.000972066               0.999999984              -0.000279712               0.000982723               0.999999984              -0.000254198               0.000988756               0.999999984              -0.000222236               0.000990405               0.999999984              -0.000184433               0.000988327               0.999999984              -0.000141588               0.000983206               0.999999984              -0.000095281               0.000976092               0.999999984              -0.000047131               0.000967845               0.999999984               0.000001666               0.000959095               0.999999984              -0.000410864               0.001137644               0.999999984              -0.000300161               0.001050854               0.999999984              -0.000263071               0.001013838               0.999999984              -0.000252430               0.001004006               0.999999984              -0.000251003               0.001008898               0.999999984              -0.000251855               0.001021775               0.999999984              -0.000251934               0.001038893               0.999999984              -0.000248571               0.001057366               0.999999984              -0.000240129               0.001075003               0.999999984              -0.000225611               0.001090248               0.999999984              -0.000204465               0.001102209               0.999999984              -0.000176978               0.001110621               0.999999984              -0.000143179               0.001115809               0.999999984              -0.000103499               0.001118176               0.999999984              -0.000058847               0.001118397               0.999999984              -0.000010828               0.001117238               0.999999984               0.000038838               0.001115574               0.999999984              -0.000348756               0.001211180               0.999999984              -0.000244954               0.001150364               0.999999984              -0.000206917               0.001120002               0.999999984              -0.000194252               0.001110635               0.999999984              -0.000191379               0.001114409               0.999999984              -0.000191335               0.001126243               0.999999984              -0.000191279               0.001142922               0.999999984              -0.000189105               0.001162169               0.999999984              -0.000183192               0.001182063               0.999999984              -0.000172216               0.001201103               0.999999984              -0.000155516               0.001218250               0.999999984              -0.000132636               0.001232851               0.999999984              -0.000103352               0.001244696               0.999999984              -0.000067553               0.001254065               0.999999984              -0.000025575               0.001261298               0.999999984               0.000021619               0.001266924               0.999999984               0.000072508               0.001271790               0.999999984              -0.000283300               0.001273249               0.999999984              -0.000192506               0.001239042               0.999999984              -0.000156129               0.001218766               0.999999984              -0.000142424               0.001212702               0.999999984              -0.000138158               0.001217389               0.999999984              -0.000137096               0.001229598               0.999999984              -0.000136459               0.001246932               0.999999984              -0.000134710               0.001267582               0.999999984              -0.000130454               0.001289778               0.999999984              -0.000122455               0.001312290               0.999999984              -0.000109822               0.001334109               0.999999984              -0.000091631               0.001354526               0.999999984              -0.000067278               0.001372951               0.999999984              -0.000036317               0.001389173               0.999999984               0.000001612               0.001403293               0.999999984               0.000046435               0.001415751               0.999999984               0.000097765               0.001427076               0.999999984              -0.000215040               0.001322846               0.999999984              -0.000142389               0.001312939               0.999999984              -0.000110967               0.001304085               0.999999984              -0.000097878               0.001303394               0.999999984              -0.000092908               0.001310793               0.999999984              -0.000091131               0.001324713               0.999999984              -0.000089915               0.001343621               0.999999984              -0.000088262               0.001366109               0.999999984              -0.000085171               0.001390901               0.999999984              -0.000079536               0.001416895               0.999999984              -0.000070294               0.001443172               0.999999984              -0.000056640               0.001469144               0.999999984              -0.000037842               0.001494128               0.999999984              -0.000012882               0.001517595               0.999999984               0.000019069               0.001539092               0.999999984               0.000058993               0.001558778               0.999999984               0.000107917               0.001576963               0.999999984              -0.000144616               0.001358948               0.999999984              -0.000093999               0.001368521               0.999999984              -0.000070833               0.001370173               0.999999984              -0.000060476               0.001375234               0.999999984              -0.000056056               0.001386093               0.999999984              -0.000053987               0.001402492               0.999999984              -0.000052718               0.001423510               0.999999984              -0.000051301               0.001448138               0.999999984              -0.000049136               0.001475527               0.999999984              -0.000045379               0.001504870               0.999999984              -0.000039318               0.001535298               0.999999984              -0.000030205               0.001566235               0.999999984              -0.000017343               0.001597178               0.999999984               0.000000193               0.001627383               0.999999984               0.000023657               0.001656183               0.999999984               0.000054591               0.001683234               0.999999984               0.000094870               0.001708344               0.999999984              -0.000072691               0.001380902               0.999999984              -0.000046710               0.001403045               0.999999984              -0.000034426               0.001412081               0.999999984              -0.000028702               0.001421575               0.999999984              -0.000026063               0.001435361               0.999999984              -0.000024723               0.001453823               0.999999984              -0.000023868               0.001476597               0.999999984              -0.000023094               0.001502971               0.999999984              -0.000021873               0.001532277               0.999999984              -0.000019987               0.001563965               0.999999984              -0.000017030               0.001597379               0.999999984              -0.000012401               0.001631993               0.999999984              -0.000005877               0.001667243               0.999999984               0.000003122               0.001702522               0.999999984               0.000015702               0.001737163               0.999999984               0.000032935               0.001770214               0.999999984               0.000056142               0.001800934               0.999999984               0.000000000               0.001388280               0.999999984              -0.000000000               0.001414741               0.999999984               0.000000000               0.001426411               0.999999984               0.000000000               0.001437595               0.999999984              -0.000000000               0.001452560               0.999999984              -0.000000000               0.001471912               0.999999984              -0.000000000               0.001495364               0.999999984               0.000000000               0.001522382               0.999999984              -0.000000000               0.001552414               0.999999984               0.000000000               0.001584909               0.999999984               0.000000000               0.001619321               0.999999984               0.000000000               0.001655173               0.999999984               0.000000000               0.001692022               0.999999984               0.000000000               0.001729225               0.999999984               0.000000000               0.001766074               0.999999984              -0.000000000               0.001801529               0.999999984               0.000000000               0.001834480               0.999999984              -0.000763003              -0.000000000               0.999999984              -0.000814787               0.000000000               0.999999984              -0.000837409              -0.000000000               0.999999984              -0.000849991               0.000000000               0.999999984              -0.000859579              -0.000000000               0.999999984              -0.000869011               0.000000000               0.999999984              -0.000879315              -0.000000000               0.999999984              -0.000890789              -0.000000000               0.999999984              -0.000903353               0.000000000               0.999999984              -0.000916896              -0.000000000               0.999999984              -0.000931189               0.000000000               0.999999984              -0.000946079               0.000000000               0.999999984              -0.000961251               0.000000000               0.999999984              -0.000976056               0.000000000               0.999999984              -0.000989947               0.000000000               0.999999984              -0.001002359               0.000000000               0.999999984              -0.001012548              -0.000000000               0.999999984              -0.000758825              -0.000133617               0.999999984              -0.000806679              -0.000108449               0.999999984              -0.000826767              -0.000097132               0.999999984              -0.000837684              -0.000092762               0.999999984              -0.000846233              -0.000091878               0.999999984              -0.000854961              -0.000093150               0.999999984              -0.000864693              -0.000095316               0.999999984              -0.000875680              -0.000097812               0.999999984              -0.000887791              -0.000100336               0.999999984              -0.000900746              -0.000102444               0.999999984              -0.000914296              -0.000103869               0.999999984              -0.000928093              -0.000104308               0.999999984              -0.000941797              -0.000103082               0.999999984              -0.000954982              -0.000099736               0.999999984              -0.000966980              -0.000093631               0.999999984              -0.000977263              -0.000084252               0.999999984              -0.000985217              -0.000070422               0.999999984              -0.000746296              -0.000265883               0.999999984              -0.000782707              -0.000216228               0.999999984              -0.000795829              -0.000194790               0.999999984              -0.000802482              -0.000186999               0.999999984              -0.000808256              -0.000186150               0.999999984              -0.000815158              -0.000189088               0.999999984              -0.000823535              -0.000193881               0.999999984              -0.000833221              -0.000199025               0.999999984              -0.000843838              -0.000204037               0.999999984              -0.000854915              -0.000208156               0.999999984              -0.000865995              -0.000210645               0.999999984              -0.000876560              -0.000211047               0.999999984              -0.000886147              -0.000208344               0.999999984              -0.000894293              -0.000201567               0.999999984              -0.000900686              -0.000189996               0.999999984              -0.000904908              -0.000172591               0.999999984              -0.000906654              -0.000147724               0.999999984              -0.000725757              -0.000395541               0.999999984              -0.000744171              -0.000322900               0.999999984              -0.000747092              -0.000293526               0.999999984              -0.000748099              -0.000284046               0.999999984              -0.000750645              -0.000284335               0.999999984              -0.000755337              -0.000289749               0.999999984              -0.000761781              -0.000297379               0.999999984              -0.000769346              -0.000305312               0.999999984              -0.000777405              -0.000312753               0.999999984              -0.000785285              -0.000318516               0.999999984              -0.000792122              -0.000321603               0.999999984              -0.000797381              -0.000321168               0.999999984              -0.000800615              -0.000316350               0.999999984              -0.000801413              -0.000306399               0.999999984              -0.000799668              -0.000290526               0.999999984              -0.000795438              -0.000267775               0.999999984              -0.000789058              -0.000237261               0.999999984              -0.000697584              -0.000521389               0.999999984              -0.000692960              -0.000428294               0.999999984              -0.000684657              -0.000393588               0.999999984              -0.000680171              -0.000384296               0.999999984              -0.000679713              -0.000386783               0.999999984              -0.000682291              -0.000395183               0.999999984              -0.000686724              -0.000405767               0.999999984              -0.000691871              -0.000416428               0.999999984              -0.000696692              -0.000425833               0.999999984              -0.000700143              -0.000432606               0.999999984              -0.000701402              -0.000435448               0.999999984              -0.000699898              -0.000433727               0.999999984              -0.000695318              -0.000426758               0.999999984              -0.000687653              -0.000414064               0.999999984              -0.000677152              -0.000395432               0.999999984              -0.000664261              -0.000370657               0.999999984              -0.000649721              -0.000340120               0.999999984              -0.000662350              -0.000642164               0.999999984              -0.000631794              -0.000532256               0.999999984              -0.000613105              -0.000494929               0.999999984              -0.000604392              -0.000487273               0.999999984              -0.000602025              -0.000492590               0.999999984              -0.000603280              -0.000503882               0.999999984              -0.000605997              -0.000517304               0.999999984              -0.000608547              -0.000530238               0.999999984              -0.000609450              -0.000540914               0.999999984              -0.000607578              -0.000547916               0.999999984              -0.000602211              -0.000550125               0.999999984              -0.000593142              -0.000546914               0.999999984              -0.000580323              -0.000538035               0.999999984              -0.000564125              -0.000523637               0.999999984              -0.000545172              -0.000504067               0.999999984              -0.000524143              -0.000479980               0.999999984              -0.000501813              -0.000452464               0.999999984              -0.000620615              -0.000756716               0.999999984              -0.000563690              -0.000634748               0.999999984              -0.000536971              -0.000597101               0.999999984              -0.000526316              -0.000591743               0.999999984              -0.000523567              -0.000599775               0.999999984              -0.000524212              -0.000613827               0.999999984              -0.000525493              -0.000629659               0.999999984              -0.000525186              -0.000644162               0.999999984              -0.000521629              -0.000655368               0.999999984              -0.000513677              -0.000662064               0.999999984              -0.000501054              -0.000663285               0.999999984              -0.000483884              -0.000658764               0.999999984              -0.000462578              -0.000648662               0.999999984              -0.000437754              -0.000633628               0.999999984              -0.000410194              -0.000614563               0.999999984              -0.000380706              -0.000592380               0.999999984              -0.000349992              -0.000568192               0.999999984              -0.000573380              -0.000863764               0.999999984              -0.000491958              -0.000735501               0.999999984              -0.000460624              -0.000699088               0.999999984              -0.000450542              -0.000695974               0.999999984              -0.000448540              -0.000706386               0.999999984              -0.000449207              -0.000722822               0.999999984              -0.000449073              -0.000740474               0.999999984              -0.000445370              -0.000755843               0.999999984              -0.000436478              -0.000767118               0.999999984              -0.000421611              -0.000773087               0.999999984              -0.000400937              -0.000773204               0.999999984              -0.000374909              -0.000767740               0.999999984              -0.000344315              -0.000757098               0.999999984              -0.000309970              -0.000742418               0.999999984              -0.000272981              -0.000724863               0.999999984              -0.000234250              -0.000705340               0.999999984              -0.000194676              -0.000684721               0.999999984              -0.000522134              -0.000961537               0.999999984              -0.000418994              -0.000834483               0.999999984              -0.000388032              -0.000799417               0.999999984              -0.000380292              -0.000798006               0.999999984              -0.000380024              -0.000810410               0.999999984              -0.000380822              -0.000828688               0.999999984              -0.000378683              -0.000847699               0.999999984              -0.000370561              -0.000863611               0.999999984              -0.000355110              -0.000874567               0.999999984              -0.000332217              -0.000879588               0.999999984              -0.000302327              -0.000878693               0.999999984              -0.000266281              -0.000872586               0.999999984              -0.000225129              -0.000862238               0.999999984              -0.000180322              -0.000848929               0.999999984              -0.000133358              -0.000833937               0.999999984              -0.000085424              -0.000818038               0.999999984              -0.000037284              -0.000801717               0.999999984              -0.000469068              -0.001053785               0.999999984              -0.000358149              -0.000944563               0.999999984              -0.000323915              -0.000905428               0.999999984              -0.000315176              -0.000898479               0.999999984              -0.000314688              -0.000906437               0.999999984              -0.000315844              -0.000921624               0.999999984              -0.000315341              -0.000939720               0.999999984              -0.000309966              -0.000957317               0.999999984              -0.000298304              -0.000972066               0.999999984              -0.000279712              -0.000982723               0.999999984              -0.000254198              -0.000988756               0.999999984              -0.000222236              -0.000990405               0.999999984              -0.000184433              -0.000988327               0.999999984              -0.000141588              -0.000983206               0.999999984              -0.000095281              -0.000976092               0.999999984              -0.000047131              -0.000967845               0.999999984               0.000001666              -0.000959095               0.999999984              -0.000410864              -0.001137644               0.999999984              -0.000300161              -0.001050854               0.999999984              -0.000263071              -0.001013838               0.999999984              -0.000252430              -0.001004006               0.999999984              -0.000251003              -0.001008898               0.999999984              -0.000251855              -0.001021775               0.999999984              -0.000251934              -0.001038893               0.999999984              -0.000248571              -0.001057366               0.999999984              -0.000240129              -0.001075003               0.999999984              -0.000225611              -0.001090248               0.999999984              -0.000204465              -0.001102209               0.999999984              -0.000176978              -0.001110621               0.999999984              -0.000143179              -0.001115809               0.999999984              -0.000103499              -0.001118176               0.999999984              -0.000058847              -0.001118397               0.999999984              -0.000010828              -0.001117238               0.999999984               0.000038838              -0.001115574               0.999999984              -0.000348756              -0.001211180               0.999999984              -0.000244954              -0.001150364               0.999999984              -0.000206917              -0.001120002               0.999999984              -0.000194252              -0.001110635               0.999999984              -0.000191379              -0.001114409               0.999999984              -0.000191335              -0.001126243               0.999999984              -0.000191279              -0.001142922               0.999999984              -0.000189105              -0.001162169               0.999999984              -0.000183192              -0.001182063               0.999999984              -0.000172216              -0.001201103               0.999999984              -0.000155516              -0.001218250               0.999999984              -0.000132636              -0.001232851               0.999999984              -0.000103352              -0.001244696               0.999999984              -0.000067553              -0.001254065               0.999999984              -0.000025575              -0.001261298               0.999999984               0.000021619              -0.001266924               0.999999984               0.000072508              -0.001271790               0.999999984              -0.000283300              -0.001273249               0.999999984              -0.000192506              -0.001239042               0.999999984              -0.000156129              -0.001218766               0.999999984              -0.000142424              -0.001212702               0.999999984              -0.000138158              -0.001217389               0.999999984              -0.000137096              -0.001229598               0.999999984              -0.000136459              -0.001246932               0.999999984              -0.000134710              -0.001267582               0.999999984              -0.000130454              -0.001289778               0.999999984              -0.000122455              -0.001312290               0.999999984              -0.000109822              -0.001334109               0.999999984              -0.000091631              -0.001354526               0.999999984              -0.000067278              -0.001372951               0.999999984              -0.000036317              -0.001389173               0.999999984               0.000001612              -0.001403293               0.999999984               0.000046435              -0.001415751               0.999999984               0.000097765              -0.001427076               0.999999984              -0.000215040              -0.001322846               0.999999984              -0.000142389              -0.001312939               0.999999984              -0.000110967              -0.001304085               0.999999984              -0.000097878              -0.001303394               0.999999984              -0.000092908              -0.001310793               0.999999984              -0.000091131              -0.001324713               0.999999984              -0.000089915              -0.001343621               0.999999984              -0.000088262              -0.001366109               0.999999984              -0.000085171              -0.001390901               0.999999984              -0.000079536              -0.001416895               0.999999984              -0.000070294              -0.001443172               0.999999984              -0.000056640              -0.001469144               0.999999984              -0.000037842              -0.001494128               0.999999984              -0.000012882              -0.001517595               0.999999984               0.000019069              -0.001539092               0.999999984               0.000058993              -0.001558778               0.999999984               0.000107917              -0.001576963               0.999999984              -0.000144616              -0.001358948               0.999999984              -0.000093999              -0.001368521               0.999999984              -0.000070833              -0.001370173               0.999999984              -0.000060476              -0.001375234               0.999999984              -0.000056056              -0.001386093               0.999999984              -0.000053987              -0.001402492               0.999999984              -0.000052718              -0.001423510               0.999999984              -0.000051301              -0.001448138               0.999999984              -0.000049136              -0.001475527               0.999999984              -0.000045379              -0.001504870               0.999999984              -0.000039318              -0.001535298               0.999999984              -0.000030205              -0.001566235               0.999999984              -0.000017343              -0.001597178               0.999999984               0.000000193              -0.001627383               0.999999984               0.000023657              -0.001656183               0.999999984               0.000054591              -0.001683234               0.999999984               0.000094870              -0.001708344               0.999999984              -0.000072691              -0.001380902               0.999999984              -0.000046710              -0.001403045               0.999999984              -0.000034426              -0.001412081               0.999999984              -0.000028702              -0.001421575               0.999999984              -0.000026063              -0.001435361               0.999999984              -0.000024723              -0.001453823               0.999999984              -0.000023868              -0.001476597               0.999999984              -0.000023094              -0.001502971               0.999999984              -0.000021873              -0.001532277               0.999999984              -0.000019987              -0.001563965               0.999999984              -0.000017030              -0.001597379               0.999999984              -0.000012401              -0.001631993               0.999999984              -0.000005877              -0.001667243               0.999999984               0.000003122              -0.001702522               0.999999984               0.000015702              -0.001737163               0.999999984               0.000032935              -0.001770214               0.999999984               0.000056142              -0.001800934               0.999999984              -0.000000000              -0.001388280               0.999999984              -0.000000000              -0.001414741               0.999999984              -0.000000000              -0.001426411               0.999999984              -0.000000000              -0.001437595               0.999999984               0.000000000              -0.001452560               0.999999984              -0.000000000              -0.001471912               0.999999984              -0.000000000              -0.001495364               0.999999984               0.000000000              -0.001522382               0.999999984               0.000000000              -0.001552414               0.999999984               0.000000000              -0.001584909               0.999999984              -0.000000000              -0.001619321               0.999999984              -0.000000000              -0.001655173               0.999999984               0.000000000              -0.001692022               0.999999984              -0.000000000              -0.001729225               0.999999984              -0.000000000              -0.001766074               0.999999984              -0.000000000              -0.001801529               0.999999984               0.000000000              -0.001834480               0.999999984               0.000763003               0.000000000               0.999999984               0.000814787               0.000000000               0.999999984               0.000837409              -0.000000000               0.999999984               0.000849991              -0.000000000               0.999999984               0.000859579              -0.000000000               0.999999984               0.000869011              -0.000000000               0.999999984               0.000879315              -0.000000000               0.999999984               0.000890789               0.000000000               0.999999984               0.000903353              -0.000000000               0.999999984               0.000916896              -0.000000000               0.999999984               0.000931189               0.000000000               0.999999984               0.000946079               0.000000000               0.999999984               0.000961251               0.000000000               0.999999984               0.000976056              -0.000000000               0.999999984               0.000989947              -0.000000000               0.999999984               0.001002359              -0.000000000               0.999999984               0.001012548              -0.000000000               0.999999984               0.000758825              -0.000133617               0.999999984               0.000806679              -0.000108449               0.999999984               0.000826767              -0.000097132               0.999999984               0.000837684              -0.000092762               0.999999984               0.000846233              -0.000091878               0.999999984               0.000854961              -0.000093150               0.999999984               0.000864693              -0.000095316               0.999999984               0.000875680              -0.000097812               0.999999984               0.000887791              -0.000100336               0.999999984               0.000900746              -0.000102444               0.999999984               0.000914296              -0.000103869               0.999999984               0.000928093              -0.000104308               0.999999984               0.000941797              -0.000103082               0.999999984               0.000954982              -0.000099736               0.999999984               0.000966980              -0.000093631               0.999999984               0.000977263              -0.000084252               0.999999984               0.000985217              -0.000070422               0.999999984               0.000746296              -0.000265883               0.999999984               0.000782707              -0.000216228               0.999999984               0.000795829              -0.000194790               0.999999984               0.000802482              -0.000186999               0.999999984               0.000808256              -0.000186150               0.999999984               0.000815158              -0.000189088               0.999999984               0.000823535              -0.000193881               0.999999984               0.000833221              -0.000199025               0.999999984               0.000843838              -0.000204037               0.999999984               0.000854915              -0.000208156               0.999999984               0.000865995              -0.000210645               0.999999984               0.000876560              -0.000211047               0.999999984               0.000886147              -0.000208344               0.999999984               0.000894293              -0.000201567               0.999999984               0.000900686              -0.000189996               0.999999984               0.000904908              -0.000172591               0.999999984               0.000906654              -0.000147724               0.999999984               0.000725757              -0.000395541               0.999999984               0.000744171              -0.000322900               0.999999984               0.000747092              -0.000293526               0.999999984               0.000748099              -0.000284046               0.999999984               0.000750645              -0.000284335               0.999999984               0.000755337              -0.000289749               0.999999984               0.000761781              -0.000297379               0.999999984               0.000769346              -0.000305312               0.999999984               0.000777405              -0.000312753               0.999999984               0.000785285              -0.000318516               0.999999984               0.000792122              -0.000321603               0.999999984               0.000797381              -0.000321168               0.999999984               0.000800615              -0.000316350               0.999999984               0.000801413              -0.000306399               0.999999984               0.000799668              -0.000290526               0.999999984               0.000795438              -0.000267775               0.999999984               0.000789058              -0.000237261               0.999999984               0.000697584              -0.000521389               0.999999984               0.000692960              -0.000428294               0.999999984               0.000684657              -0.000393588               0.999999984               0.000680171              -0.000384296               0.999999984               0.000679713              -0.000386783               0.999999984               0.000682291              -0.000395183               0.999999984               0.000686724              -0.000405767               0.999999984               0.000691871              -0.000416428               0.999999984               0.000696692              -0.000425833               0.999999984               0.000700143              -0.000432606               0.999999984               0.000701402              -0.000435448               0.999999984               0.000699898              -0.000433727               0.999999984               0.000695318              -0.000426758               0.999999984               0.000687653              -0.000414064               0.999999984               0.000677152              -0.000395432               0.999999984               0.000664261              -0.000370657               0.999999984               0.000649721              -0.000340120               0.999999984               0.000662350              -0.000642164               0.999999984               0.000631794              -0.000532256               0.999999984               0.000613105              -0.000494929               0.999999984               0.000604392              -0.000487273               0.999999984               0.000602025              -0.000492590               0.999999984               0.000603280              -0.000503882               0.999999984               0.000605997              -0.000517304               0.999999984               0.000608547              -0.000530238               0.999999984               0.000609450              -0.000540914               0.999999984               0.000607578              -0.000547916               0.999999984               0.000602211              -0.000550125               0.999999984               0.000593142              -0.000546914               0.999999984               0.000580323              -0.000538035               0.999999984               0.000564125              -0.000523637               0.999999984               0.000545172              -0.000504067               0.999999984               0.000524143              -0.000479980               0.999999984               0.000501813              -0.000452464               0.999999984               0.000620615              -0.000756716               0.999999984               0.000563690              -0.000634748               0.999999984               0.000536971              -0.000597101               0.999999984               0.000526316              -0.000591743               0.999999984               0.000523567              -0.000599775               0.999999984               0.000524212              -0.000613827               0.999999984               0.000525493              -0.000629659               0.999999984               0.000525186              -0.000644162               0.999999984               0.000521629              -0.000655368               0.999999984               0.000513677              -0.000662064               0.999999984               0.000501054              -0.000663285               0.999999984               0.000483884              -0.000658764               0.999999984               0.000462578              -0.000648662               0.999999984               0.000437754              -0.000633628               0.999999984               0.000410194              -0.000614563               0.999999984               0.000380706              -0.000592380               0.999999984               0.000349992              -0.000568192               0.999999984               0.000573380              -0.000863764               0.999999984               0.000491958              -0.000735501               0.999999984               0.000460624              -0.000699088               0.999999984               0.000450542              -0.000695974               0.999999984               0.000448540              -0.000706386               0.999999984               0.000449207              -0.000722822               0.999999984               0.000449073              -0.000740474               0.999999984               0.000445370              -0.000755843               0.999999984               0.000436478              -0.000767118               0.999999984               0.000421611              -0.000773087               0.999999984               0.000400937              -0.000773204               0.999999984               0.000374909              -0.000767740               0.999999984               0.000344315              -0.000757098               0.999999984               0.000309970              -0.000742418               0.999999984               0.000272981              -0.000724863               0.999999984               0.000234250              -0.000705340               0.999999984               0.000194676              -0.000684721               0.999999984               0.000522134              -0.000961537               0.999999984               0.000418994              -0.000834483               0.999999984               0.000388032              -0.000799417               0.999999984               0.000380292              -0.000798006               0.999999984               0.000380024              -0.000810410               0.999999984               0.000380822              -0.000828688               0.999999984               0.000378683              -0.000847699               0.999999984               0.000370561              -0.000863611               0.999999984               0.000355110              -0.000874567               0.999999984               0.000332217              -0.000879588               0.999999984               0.000302327              -0.000878693               0.999999984               0.000266281              -0.000872586               0.999999984               0.000225129              -0.000862238               0.999999984               0.000180322              -0.000848929               0.999999984               0.000133358              -0.000833937               0.999999984               0.000085424              -0.000818038               0.999999984               0.000037284              -0.000801717               0.999999984               0.000469068              -0.001053785               0.999999984               0.000358149              -0.000944563               0.999999984               0.000323915              -0.000905428               0.999999984               0.000315176              -0.000898479               0.999999984               0.000314688              -0.000906437               0.999999984               0.000315844              -0.000921624               0.999999984               0.000315341              -0.000939720               0.999999984               0.000309966              -0.000957317               0.999999984               0.000298304              -0.000972066               0.999999984               0.000279712              -0.000982723               0.999999984               0.000254198              -0.000988756               0.999999984               0.000222236              -0.000990405               0.999999984               0.000184433              -0.000988327               0.999999984               0.000141588              -0.000983206               0.999999984               0.000095281              -0.000976092               0.999999984               0.000047131              -0.000967845               0.999999984              -0.000001666              -0.000959095               0.999999984               0.000410864              -0.001137644               0.999999984               0.000300161              -0.001050854               0.999999984               0.000263071              -0.001013838               0.999999984               0.000252430              -0.001004006               0.999999984               0.000251003              -0.001008898               0.999999984               0.000251855              -0.001021775               0.999999984               0.000251934              -0.001038893               0.999999984               0.000248571              -0.001057366               0.999999984               0.000240129              -0.001075003               0.999999984               0.000225611              -0.001090248               0.999999984               0.000204465              -0.001102209               0.999999984               0.000176978              -0.001110621               0.999999984               0.000143179              -0.001115809               0.999999984               0.000103499              -0.001118176               0.999999984               0.000058847              -0.001118397               0.999999984               0.000010828              -0.001117238               0.999999984              -0.000038838              -0.001115574               0.999999984               0.000348756              -0.001211180               0.999999984               0.000244954              -0.001150364               0.999999984               0.000206917              -0.001120002               0.999999984               0.000194252              -0.001110635               0.999999984               0.000191379              -0.001114409               0.999999984               0.000191335              -0.001126243               0.999999984               0.000191279              -0.001142922               0.999999984               0.000189105              -0.001162169               0.999999984               0.000183192              -0.001182063               0.999999984               0.000172216              -0.001201103               0.999999984               0.000155516              -0.001218250               0.999999984               0.000132636              -0.001232851               0.999999984               0.000103352              -0.001244696               0.999999984               0.000067553              -0.001254065               0.999999984               0.000025575              -0.001261298               0.999999984              -0.000021619              -0.001266924               0.999999984              -0.000072508              -0.001271790               0.999999984               0.000283300              -0.001273249               0.999999984               0.000192506              -0.001239042               0.999999984               0.000156129              -0.001218766               0.999999984               0.000142424              -0.001212702               0.999999984               0.000138158              -0.001217389               0.999999984               0.000137096              -0.001229598               0.999999984               0.000136459              -0.001246932               0.999999984               0.000134710              -0.001267582               0.999999984               0.000130454              -0.001289778               0.999999984               0.000122455              -0.001312290               0.999999984               0.000109822              -0.001334109               0.999999984               0.000091631              -0.001354526               0.999999984               0.000067278              -0.001372951               0.999999984               0.000036317              -0.001389173               0.999999984              -0.000001612              -0.001403293               0.999999984              -0.000046435              -0.001415751               0.999999984              -0.000097765              -0.001427076               0.999999984               0.000215040              -0.001322846               0.999999984               0.000142389              -0.001312939               0.999999984               0.000110967              -0.001304085               0.999999984               0.000097878              -0.001303394               0.999999984               0.000092908              -0.001310793               0.999999984               0.000091131              -0.001324713               0.999999984               0.000089915              -0.001343621               0.999999984               0.000088262              -0.001366109               0.999999984               0.000085171              -0.001390901               0.999999984               0.000079536              -0.001416895               0.999999984               0.000070294              -0.001443172               0.999999984               0.000056640              -0.001469144               0.999999984               0.000037842              -0.001494128               0.999999984               0.000012882              -0.001517595               0.999999984              -0.000019069              -0.001539092               0.999999984              -0.000058993              -0.001558778               0.999999984              -0.000107917              -0.001576963               0.999999984               0.000144616              -0.001358948               0.999999984               0.000093999              -0.001368521               0.999999984               0.000070833              -0.001370173               0.999999984               0.000060476              -0.001375234               0.999999984               0.000056056              -0.001386093               0.999999984               0.000053987              -0.001402492               0.999999984               0.000052718              -0.001423510               0.999999984               0.000051301              -0.001448138               0.999999984               0.000049136              -0.001475527               0.999999984               0.000045379              -0.001504870               0.999999984               0.000039318              -0.001535298               0.999999984               0.000030205              -0.001566235               0.999999984               0.000017343              -0.001597178               0.999999984              -0.000000193              -0.001627383               0.999999984              -0.000023657              -0.001656183               0.999999984              -0.000054591              -0.001683234               0.999999984              -0.000094870              -0.001708344               0.999999984               0.000072691              -0.001380902               0.999999984               0.000046710              -0.001403045               0.999999984               0.000034426              -0.001412081               0.999999984               0.000028702              -0.001421575               0.999999984               0.000026063              -0.001435361               0.999999984               0.000024723              -0.001453823               0.999999984               0.000023868              -0.001476597               0.999999984               0.000023094              -0.001502971               0.999999984               0.000021873              -0.001532277               0.999999984               0.000019987              -0.001563965               0.999999984               0.000017030              -0.001597379               0.999999984               0.000012401              -0.001631993               0.999999984               0.000005877              -0.001667243               0.999999984              -0.000003122              -0.001702522               0.999999984              -0.000015702              -0.001737163               0.999999984              -0.000032935              -0.001770214               0.999999984              -0.000056142              -0.001800934               0.999999984              -0.000000000              -0.001388280               0.999999984              -0.000000000              -0.001414741               0.999999984              -0.000000000              -0.001426411               0.999999984              -0.000000000              -0.001437595               0.999999984               0.000000000              -0.001452560               0.999999984              -0.000000000              -0.001471912               0.999999984              -0.000000000              -0.001495364               0.999999984               0.000000000              -0.001522382               0.999999984               0.000000000              -0.001552414               0.999999984               0.000000000              -0.001584909               0.999999984              -0.000000000              -0.001619321               0.999999984              -0.000000000              -0.001655173               0.999999984               0.000000000              -0.001692022               0.999999984              -0.000000000              -0.001729225               0.999999984              -0.000000000              -0.001766074               0.999999984              -0.000000000              -0.001801529               0.999999984               0.000000000              -0.001834480               0.999999984               0.000763003               0.000000000               0.999999984               0.000814787               0.000000000               0.999999984               0.000837409              -0.000000000               0.999999984               0.000849991              -0.000000000               0.999999984               0.000859579              -0.000000000               0.999999984               0.000869011              -0.000000000               0.999999984               0.000879315              -0.000000000               0.999999984               0.000890789               0.000000000               0.999999984               0.000903353              -0.000000000               0.999999984               0.000916896              -0.000000000               0.999999984               0.000931189               0.000000000               0.999999984               0.000946079               0.000000000               0.999999984               0.000961251               0.000000000               0.999999984               0.000976056              -0.000000000               0.999999984               0.000989947              -0.000000000               0.999999984               0.001002359              -0.000000000               0.999999984               0.001012548              -0.000000000               0.999999984               0.000758825               0.000133617               0.999999984               0.000806679               0.000108449               0.999999984               0.000826767               0.000097132               0.999999984               0.000837684               0.000092762               0.999999984               0.000846233               0.000091878               0.999999984               0.000854961               0.000093150               0.999999984               0.000864693               0.000095316               0.999999984               0.000875680               0.000097812               0.999999984               0.000887791               0.000100336               0.999999984               0.000900746               0.000102444               0.999999984               0.000914296               0.000103869               0.999999984               0.000928093               0.000104308               0.999999984               0.000941797               0.000103082               0.999999984               0.000954982               0.000099736               0.999999984               0.000966980               0.000093631               0.999999984               0.000977263               0.000084252               0.999999984               0.000985217               0.000070422               0.999999984               0.000746296               0.000265883               0.999999984               0.000782707               0.000216228               0.999999984               0.000795829               0.000194790               0.999999984               0.000802482               0.000186999               0.999999984               0.000808256               0.000186150               0.999999984               0.000815158               0.000189088               0.999999984               0.000823535               0.000193881               0.999999984               0.000833221               0.000199025               0.999999984               0.000843838               0.000204037               0.999999984               0.000854915               0.000208156               0.999999984               0.000865995               0.000210645               0.999999984               0.000876560               0.000211047               0.999999984               0.000886147               0.000208344               0.999999984               0.000894293               0.000201567               0.999999984               0.000900686               0.000189996               0.999999984               0.000904908               0.000172591               0.999999984               0.000906654               0.000147724               0.999999984               0.000725757               0.000395541               0.999999984               0.000744171               0.000322900               0.999999984               0.000747092               0.000293526               0.999999984               0.000748099               0.000284046               0.999999984               0.000750645               0.000284335               0.999999984               0.000755337               0.000289749               0.999999984               0.000761781               0.000297379               0.999999984               0.000769346               0.000305312               0.999999984               0.000777405               0.000312753               0.999999984               0.000785285               0.000318516               0.999999984               0.000792122               0.000321603               0.999999984               0.000797381               0.000321168               0.999999984               0.000800615               0.000316350               0.999999984               0.000801413               0.000306399               0.999999984               0.000799668               0.000290526               0.999999984               0.000795438               0.000267775               0.999999984               0.000789058               0.000237261               0.999999984               0.000697584               0.000521389               0.999999984               0.000692960               0.000428294               0.999999984               0.000684657               0.000393588               0.999999984               0.000680171               0.000384296               0.999999984               0.000679713               0.000386783               0.999999984               0.000682291               0.000395183               0.999999984               0.000686724               0.000405767               0.999999984               0.000691871               0.000416428               0.999999984               0.000696692               0.000425833               0.999999984               0.000700143               0.000432606               0.999999984               0.000701402               0.000435448               0.999999984               0.000699898               0.000433727               0.999999984               0.000695318               0.000426758               0.999999984               0.000687653               0.000414064               0.999999984               0.000677152               0.000395432               0.999999984               0.000664261               0.000370657               0.999999984               0.000649721               0.000340120               0.999999984               0.000662350               0.000642164               0.999999984               0.000631794               0.000532256               0.999999984               0.000613105               0.000494929               0.999999984               0.000604392               0.000487273               0.999999984               0.000602025               0.000492590               0.999999984               0.000603280               0.000503882               0.999999984               0.000605997               0.000517304               0.999999984               0.000608547               0.000530238               0.999999984               0.000609450               0.000540914               0.999999984               0.000607578               0.000547916               0.999999984               0.000602211               0.000550125               0.999999984               0.000593142               0.000546914               0.999999984               0.000580323               0.000538035               0.999999984               0.000564125               0.000523637               0.999999984               0.000545172               0.000504067               0.999999984               0.000524143               0.000479980               0.999999984               0.000501813               0.000452464               0.999999984               0.000620615               0.000756716               0.999999984               0.000563690               0.000634748               0.999999984               0.000536971               0.000597101               0.999999984               0.000526316               0.000591743               0.999999984               0.000523567               0.000599775               0.999999984               0.000524212               0.000613827               0.999999984               0.000525493               0.000629659               0.999999984               0.000525186               0.000644162               0.999999984               0.000521629               0.000655368               0.999999984               0.000513677               0.000662064               0.999999984               0.000501054               0.000663285               0.999999984               0.000483884               0.000658764               0.999999984               0.000462578               0.000648662               0.999999984               0.000437754               0.000633628               0.999999984               0.000410194               0.000614563               0.999999984               0.000380706               0.000592380               0.999999984               0.000349992               0.000568192               0.999999984               0.000573380               0.000863764               0.999999984               0.000491958               0.000735501               0.999999984               0.000460624               0.000699088               0.999999984               0.000450542               0.000695974               0.999999984               0.000448540               0.000706386               0.999999984               0.000449207               0.000722822               0.999999984               0.000449073               0.000740474               0.999999984               0.000445370               0.000755843               0.999999984               0.000436478               0.000767118               0.999999984               0.000421611               0.000773087               0.999999984               0.000400937               0.000773204               0.999999984               0.000374909               0.000767740               0.999999984               0.000344315               0.000757098               0.999999984               0.000309970               0.000742418               0.999999984               0.000272981               0.000724863               0.999999984               0.000234250               0.000705340               0.999999984               0.000194676               0.000684721               0.999999984               0.000522134               0.000961537               0.999999984               0.000418994               0.000834483               0.999999984               0.000388032               0.000799417               0.999999984               0.000380292               0.000798006               0.999999984               0.000380024               0.000810410               0.999999984               0.000380822               0.000828688               0.999999984               0.000378683               0.000847699               0.999999984               0.000370561               0.000863611               0.999999984               0.000355110               0.000874567               0.999999984               0.000332217               0.000879588               0.999999984               0.000302327               0.000878693               0.999999984               0.000266281               0.000872586               0.999999984               0.000225129               0.000862238               0.999999984               0.000180322               0.000848929               0.999999984               0.000133358               0.000833937               0.999999984               0.000085424               0.000818038               0.999999984               0.000037284               0.000801717               0.999999984               0.000469068               0.001053785               0.999999984               0.000358149               0.000944563               0.999999984               0.000323915               0.000905428               0.999999984               0.000315176               0.000898479               0.999999984               0.000314688               0.000906437               0.999999984               0.000315844               0.000921624               0.999999984               0.000315341               0.000939720               0.999999984               0.000309966               0.000957317               0.999999984               0.000298304               0.000972066               0.999999984               0.000279712               0.000982723               0.999999984               0.000254198               0.000988756               0.999999984               0.000222236               0.000990405               0.999999984               0.000184433               0.000988327               0.999999984               0.000141588               0.000983206               0.999999984               0.000095281               0.000976092               0.999999984               0.000047131               0.000967845               0.999999984              -0.000001666               0.000959095               0.999999984               0.000410864               0.001137644               0.999999984               0.000300161               0.001050854               0.999999984               0.000263071               0.001013838               0.999999984               0.000252430               0.001004006               0.999999984               0.000251003               0.001008898               0.999999984               0.000251855               0.001021775               0.999999984               0.000251934               0.001038893               0.999999984               0.000248571               0.001057366               0.999999984               0.000240129               0.001075003               0.999999984               0.000225611               0.001090248               0.999999984               0.000204465               0.001102209               0.999999984               0.000176978               0.001110621               0.999999984               0.000143179               0.001115809               0.999999984               0.000103499               0.001118176               0.999999984               0.000058847               0.001118397               0.999999984               0.000010828               0.001117238               0.999999984              -0.000038838               0.001115574               0.999999984               0.000348756               0.001211180               0.999999984               0.000244954               0.001150364               0.999999984               0.000206917               0.001120002               0.999999984               0.000194252               0.001110635               0.999999984               0.000191379               0.001114409               0.999999984               0.000191335               0.001126243               0.999999984               0.000191279               0.001142922               0.999999984               0.000189105               0.001162169               0.999999984               0.000183192               0.001182063               0.999999984               0.000172216               0.001201103               0.999999984               0.000155516               0.001218250               0.999999984               0.000132636               0.001232851               0.999999984               0.000103352               0.001244696               0.999999984               0.000067553               0.001254065               0.999999984               0.000025575               0.001261298               0.999999984              -0.000021619               0.001266924               0.999999984              -0.000072508               0.001271790               0.999999984               0.000283300               0.001273249               0.999999984               0.000192506               0.001239042               0.999999984               0.000156129               0.001218766               0.999999984               0.000142424               0.001212702               0.999999984               0.000138158               0.001217389               0.999999984               0.000137096               0.001229598               0.999999984               0.000136459               0.001246932               0.999999984               0.000134710               0.001267582               0.999999984               0.000130454               0.001289778               0.999999984               0.000122455               0.001312290               0.999999984               0.000109822               0.001334109               0.999999984               0.000091631               0.001354526               0.999999984               0.000067278               0.001372951               0.999999984               0.000036317               0.001389173               0.999999984              -0.000001612               0.001403293               0.999999984              -0.000046435               0.001415751               0.999999984              -0.000097765               0.001427076               0.999999984               0.000215040               0.001322846               0.999999984               0.000142389               0.001312939               0.999999984               0.000110967               0.001304085               0.999999984               0.000097878               0.001303394               0.999999984               0.000092908               0.001310793               0.999999984               0.000091131               0.001324713               0.999999984               0.000089915               0.001343621               0.999999984               0.000088262               0.001366109               0.999999984               0.000085171               0.001390901               0.999999984               0.000079536               0.001416895               0.999999984               0.000070294               0.001443172               0.999999984               0.000056640               0.001469144               0.999999984               0.000037842               0.001494128               0.999999984               0.000012882               0.001517595               0.999999984              -0.000019069               0.001539092               0.999999984              -0.000058993               0.001558778               0.999999984              -0.000107917               0.001576963               0.999999984               0.000144616               0.001358948               0.999999984               0.000093999               0.001368521               0.999999984               0.000070833               0.001370173               0.999999984               0.000060476               0.001375234               0.999999984               0.000056056               0.001386093               0.999999984               0.000053987               0.001402492               0.999999984               0.000052718               0.001423510               0.999999984               0.000051301               0.001448138               0.999999984               0.000049136               0.001475527               0.999999984               0.000045379               0.001504870               0.999999984               0.000039318               0.001535298               0.999999984               0.000030205               0.001566235               0.999999984               0.000017343               0.001597178               0.999999984              -0.000000193               0.001627383               0.999999984              -0.000023657               0.001656183               0.999999984              -0.000054591               0.001683234               0.999999984              -0.000094870               0.001708344               0.999999984               0.000072691               0.001380902               0.999999984               0.000046710               0.001403045               0.999999984               0.000034426               0.001412081               0.999999984               0.000028702               0.001421575               0.999999984               0.000026063               0.001435361               0.999999984               0.000024723               0.001453823               0.999999984               0.000023868               0.001476597               0.999999984               0.000023094               0.001502971               0.999999984               0.000021873               0.001532277               0.999999984               0.000019987               0.001563965               0.999999984               0.000017030               0.001597379               0.999999984               0.000012401               0.001631993               0.999999984               0.000005877               0.001667243               0.999999984              -0.000003122               0.001702522               0.999999984              -0.000015702               0.001737163               0.999999984              -0.000032935               0.001770214               0.999999984              -0.000056142               0.001800934               0.999999984               0.000000000               0.001388280               0.999999984              -0.000000000               0.001414741               0.999999984               0.000000000               0.001426411               0.999999984               0.000000000               0.001437595               0.999999984              -0.000000000               0.001452560               0.999999984              -0.000000000               0.001471912               0.999999984              -0.000000000               0.001495364               0.999999984               0.000000000               0.001522382               0.999999984              -0.000000000               0.001552414               0.999999984               0.000000000               0.001584909               0.999999984               0.000000000               0.001619321               0.999999984               0.000000000               0.001655173               0.999999984               0.000000000               0.001692022               0.999999984               0.000000000               0.001729225               0.999999984               0.000000000               0.001766074               0.999999984              -0.000000000               0.001801529               0.999999984               0.000000000               0.001834480               0.999999984 </DataArray>
<DataArray type="Float64"                                    Name="defo"                                                      NumberOfComponents=" 3" format="ascii">
             -0.000763003              -0.000000000               0.999999984              -0.000814787               0.000000000               0.999999984              -0.000837409              -0.000000000               0.999999984              -0.000849991               0.000000000               0.999999984              -0.000859579              -0.000000000               0.999999984              -0.000869011               0.000000000               0.999999984              -0.000879315              -0.000000000               0.999999984              -0.000890789              -0.000000000               0.999999984              -0.000903353               0.000000000               0.999999984              -0.000916896              -0.000000000               0.999999984              -0.000931189               0.000000000               0.999999984              -0.000946079               0.000000000               0.999999984              -0.000961251               0.000000000               0.999999984              -0.000976056               0.000000000               0.999999984              -0.000989947               0.000000000               0.999999984              -0.001002359               0.000000000               0.999999984              -0.001012548              -0.000000000               0.999999984              -0.000758825               0.000133617               0.999999984              -0.000806679               0.000108449               0.999999984              -0.000826767               0.000097132               0.999999984              -0.000837684               0.000092762               0.999999984              -0.000846233               0.000091878               0.999999984              -0.000854961               0.000093150               0.999999984              -0.000864693               0.000095316               0.999999984              -0.000875680               0.000097812               0.999999984              -0.000887791               0.000100336               0.999999984              -0.000900746               0.000102444               0.999999984              -0.000914296               0.000103869               0.999999984              -0.000928093               0.000104308               0.999999984              -0.000941797               0.000103082               0.999999984              -0.000954982               0.000099736               0.999999984              -0.000966980               0.000093631               0.999999984              -0.000977263               0.000084252               0.999999984              -0.000985217               0.000070422               0.999999984              -0.000746296               0.000265883               0.999999984              -0.000782707               0.000216228               0.999999984              -0.000795829               0.000194790               0.999999984              -0.000802482               0.000186999               0.999999984              -0.000808256               0.000186150               0.999999984              -0.000815158               0.000189088               0.999999984              -0.000823535               0.000193881               0.999999984              -0.000833221               0.000199025               0.999999984              -0.000843838               0.000204037               0.999999984              -0.000854915               0.000208156               0.999999984              -0.000865995               0.000210645               0.999999984              -0.000876560               0.000211047               0.999999984              -0.000886147               0.000208344               0.999999984              -0.000894293               0.000201567               0.999999984              -0.000900686               0.000189996               0.999999984              -0.000904908               0.000172591               0.999999984              -0.000906654               0.000147724               0.999999984              -0.000725757               0.000395541               0.999999984              -0.000744171               0.000322900               0.999999984              -0.000747092               0.000293526               0.999999984              -0.000748099               0.000284046               0.999999984              -0.000750645               0.000284335               0.999999984              -0.000755337               0.000289749               0.999999984              -0.000761781               0.000297379               0.999999984              -0.000769346               0.000305312               0.999999984              -0.000777405               0.000312753               0.999999984              -0.000785285               0.000318516               0.999999984              -0.000792122               0.000321603               0.999999984              -0.000797381               0.000321168               0.999999984              -0.000800615               0.000316350               0.999999984              -0.000801413               0.000306399               0.999999984              -0.000799668               0.000290526               0.999999984              -0.000795438               0.000267775               0.999999984              -0.000789058               0.000237261               0.999999984              -0.000697584               0.000521389               0.999999984              -0.000692960               0.000428294               0.999999984              -0.000684657               0.000393588               0.999999984              -0.000680171               0.000384296               0.999999984              -0.000679713               0.000386783               0.999999984              -0.000682291               0.000395183               0.999999984              -0.000686724               0.000405767               0.999999984              -0.000691871               0.000416428               0.999999984              -0.000696692               0.000425833               0.999999984              -0.000700143               0.000432606               0.999999984              -0.000701402               0.000435448               0.999999984              -0.000699898               0.000433727               0.999999984              -0.000695318               0.000426758               0.999999984              -0.000687653               0.000414064               0.999999984              -0.000677152               0.000395432               0.999999984              -0.000664261               0.000370657               0.999999984              -0.000649721               0.000340120               0.999999984              -0.000662350               0.000642164               0.999999984              -0.000631794               0.000532256               0.999999984              -0.000613105               0.000494929               0.999999984              -0.000604392               0.000487273               0.999999984              -0.000602025               0.000492590               0.999999984              -0.000603280               0.000503882               0.999999984              -0.000605997               0.000517304               0.999999984              -0.000608547               0.000530238               0.999999984              -0.000609450               0.000540914               0.999999984              -0.000607578               0.000547916               0.999999984              -0.000602211               0.000550125               0.999999984              -0.000593142               0.000546914               0.999999984              -0.000580323               0.000538035               0.999999984              -0.000564125               0.000523637               0.999999984              -0.000545172               0.000504067               0.999999984              -0.000524143               0.000479980               0.999999984              -0.000501813               0.000452464               0.999999984              -0.000620615               0.000756716               0.999999984              -0.000563690               0.000634748               0.999999984              -0.000536971               0.000597101               0.999999984              -0.000526316               0.000591743               0.999999984              -0.000523567               0.000599775               0.999999984              -0.000524212               0.000613827               0.999999984              -0.000525493               0.000629659               0.999999984              -0.000525186               0.000644162               0.999999984              -0.000521629               0.000655368               0.999999984              -0.000513677               0.000662064               0.999999984              -0.000501054               0.000663285               0.999999984              -0.000483884               0.000658764               0.999999984              -0.000462578               0.000648662               0.999999984              -0.000437754               0.000633628               0.999999984              -0.000410194               0.000614563               0.999999984              -0.000380706               0.000592380               0.999999984              -0.000349992               0.000568192               0.999999984              -0.000573380               0.000863764               0.999999984              -0.000491958               0.000735501               0.999999984              -0.000460624               0.000699088               0.999999984              -0.000450542               0.000695974               0.999999984              -0.000448540               0.000706386               0.999999984              -0.000449207               0.000722822               0.999999984              -0.000449073               0.000740474               0.999999984              -0.000445370               0.000755843               0.999999984              -0.000436478               0.000767118               0.999999984              -0.000421611               0.000773087               0.999999984              -0.000400937               0.000773204               0.999999984              -0.000374909               0.000767740               0.999999984              -0.000344315               0.000757098               0.999999984              -0.000309970               0.000742418               0.999999984              -0.000272981               0.000724863               0.999999984              -0.000234250               0.000705340               0.999999984              -0.000194676               0.000684721               0.999999984              -0.000522134               0.000961537               0.999999984              -0.000418994               0.000834483               0.999999984              -0.000388032               0.000799417               0.999999984              -0.000380292               0.000798006               0.999999984              -0.000380024               0.000810410               0.999999984              -0.000380822               0.000828688               0.999999984              -0.000378683               0.000847699               0.999999984              -0.000370561               0.000863611               0.999999984              -0.000355110               0.000874567               0.999999984              -0.000332217               0.000879588               0.999999984              -0.000302327               0.000878693               0.999999984              -0.000266281               0.000872586               0.999999984              -0.000225129               0.000862238               0.999999984              -0.000180322               0.000848929               0.999999984              -0.000133358               0.000833937               0.999999984              -0.000085424               0.000818038               0.999999984              -0.000037284               0.000801717               0.999999984              -0.000469068               0.001053785               0.999999984              -0.000358149               0.000944563               0.999999984              -0.000323915               0.000905428               0.999999984              -0.000315176               0.000898479               0.999999984              -0.000314688               0.000906437               0.999999984              -0.000315844               0.000921624               0.999999984              -0.000315341               0.000939720               0.999999984              -0.000309966               0.000957317               0.999999984              -0.000298304               0.000972066               0.999999984              -0.000279712               0.000982723               0.999999984              -0.000254198               0.000988756               0.999999984              -0.000222236               0.000990405               0.999999984              -0.000184433               0.000988327               0.999999984              -0.000141588               0.000983206               0.999999984              -0.000095281               0.000976092               0.999999984              -0.000047131               0.000967845               0.999999984               0.000001666               0.000959095               0.999999984              -0.000410864               0.001137644               0.999999984              -0.000300161               0.001050854               0.999999984              -0.000263071               0.001013838               0.999999984              -0.000252430               0.001004006               0.999999984              -0.000251003               0.001008898               0.999999984              -0.000251855               0.001021775               0.999999984              -0.000251934               0.001038893               0.999999984              -0.000248571               0.001057366               0.999999984              -0.000240129               0.001075003               0.999999984              -0.000225611               0.001090248               0.999999984              -0.000204465               0.001102209               0.999999984              -0.000176978               0.001110621               0.999999984              -0.000143179               0.001115809               0.999999984              -0.000103499               0.001118176               0.999999984              -0.000058847               0.001118397               0.999999984              -0.000010828               0.001117238               0.999999984               0.000038838               0.001115574               0.999999984              -0.000348756               0.001211180               0.999999984              -0.000244954               0.001150364               0.999999984              -0.000206917               0.001120002               0.999999984              -0.000194252               0.001110635               0.999999984              -0.000191379               0.001114409               0.999999984              -0.000191335               0.001126243               0.999999984              -0.000191279               0.001142922               0.999999984              -0.000189105               0.001162169               0.999999984              -0.000183192               0.001182063               0.999999984              -0.000172216               0.001201103               0.999999984              -0.000155516               0.001218250               0.999999984              -0.000132636               0.001232851               0.999999984              -0.000103352               0.001244696               0.999999984              -0.000067553               0.001254065               0.999999984              -0.000025575               0.001261298               0.999999984               0.000021619               0.001266924               0.999999984               0.000072508               0.001271790               0.999999984              -0.000283300               0.001273249               0.999999984              -0.000192506               0.001239042               0.999999984              -0.000156129               0.001218766               0.999999984              -0.000142424               0.001212702               0.999999984              -0.000138158               0.001217389               0.999999984              -0.000137096               0.001229598               0.999999984              -0.000136459               0.001246932               0.999999984              -0.000134710               0.001267582               0.999999984              -0.000130454               0.001289778               0.999999984              -0.000122455               0.001312290               0.999999984              -0.000109822               0.001334109               0.999999984              -0.000091631               0.001354526               0.999999984              -0.000067278               0.001372951               0.999999984              -0.000036317               0.001389173               0.999999984               0.000001612               0.001403293               0.999999984               0.000046435               0.001415751               0.999999984               0.000097765               0.001427076               0.999999984              -0.000215040               0.001322846               0.999999984              -0.000142389               0.001312939               0.999999984              -0.000110967               0.001304085               0.999999984              -0.000097878               0.001303394               0.999999984              -0.000092908               0.001310793               0.999999984              -0.000091131               0.001324713               0.999999984              -0.000089915               0.001343621               0.999999984              -0.000088262               0.001366109               0.999999984              -0.000085171               0.001390901               0.999999984              -0.000079536               0.001416895               0.999999984              -0.000070294               0.001443172               0.999999984              -0.000056640               0.001469144               0.999999984              -0.000037842               0.001494128               0.999999984              -0.000012882               0.001517595               0.999999984               0.000019069               0.001539092               0.999999984               0.000058993               0.001558778               0.999999984               0.000107917               0.001576963               0.999999984              -0.000144616               0.001358948               0.999999984              -0.000093999               0.001368521               0.999999984              -0.000070833               0.001370173               0.999999984              -0.000060476               0.001375234               0.999999984              -0.000056056               0.001386093               0.999999984              -0.000053987               0.001402492               0.999999984              -0.000052718               0.001423510               0.999999984              -0.000051301               0.001448138               0.999999984              -0.000049136               0.001475527               0.999999984              -0.000045379               0.001504870               0.999999984              -0.000039318               0.001535298               0.999999984              -0.000030205               0.001566235               0.999999984              -0.000017343               0.001597178               0.999999984               0.000000193               0.001627383               0.999999984               0.000023657               0.001656183               0.999999984               0.000054591               0.001683234               0.999999984               0.000094870               0.001708344               0.999999984              -0.000072691               0.001380902               0.999999984              -0.000046710               0.001403045               0.999999984              -0.000034426               0.001412081               0.999999984              -0.000028702               0.001421575               0.999999984              -0.000026063               0.001435361               0.999999984              -0.000024723               0.001453823               0.999999984              -0.000023868               0.001476597               0.999999984              -0.000023094               0.001502971               0.999999984              -0.000021873               0.001532277               0.999999984              -0.000019987               0.001563965               0.999999984              -0.000017030               0.001597379               0.999999984              -0.000012401               0.001631993               0.999999984              -0.000005877               0.001667243               0.999999984               0.000003122               0.001702522               0.999999984               0.000015702               0.001737163               0.999999984               0.000032935               0.001770214               0.999999984               0.000056142               0.001800934               0.999999984               0.000000000               0.001388280               0.999999984              -0.000000000               0.001414741               0.999999984               0.000000000               0.001426411               0.999999984               0.000000000               0.001437595               0.999999984              -0.000000000               0.001452560               0.999999984              -0.000000000               0.001471912               0.999999984              -0.000000000               0.001495364               0.999999984               0.000000000               0.001522382               0.999999984              -0.000000000               0.001552414               0.999999984               0.000000000               0.001584909               0.999999984               0.000000000               0.001619321               0.999999984               0.000000000               0.001655173               0.999999984               0.000000000               0.001692022               0.999999984               0.000000000               0.001729225               0.999999984               0.000000000               0.001766074               0.999999984              -0.000000000               0.001801529               0.999999984               0.000000000               0.001834480               0.999999984              -0.000763003              -0.000000000               0.999999984              -0.000814787               0.000000000               0.999999984              -0.000837409              -0.000000000               0.999999984              -0.000849991               0.000000000               0.999999984              -0.000859579              -0.000000000               0.999999984              -0.000869011               0.000000000               0.999999984              -0.000879315              -0.000000000               0.999999984              -0.000890789              -0.000000000               0.999999984              -0.000903353               0.000000000               0.999999984              -0.000916896              -0.000000000               0.999999984              -0.000931189               0.000000000               0.999999984              -0.000946079               0.000000000               0.999999984              -0.000961251               0.000000000               0.999999984              -0.000976056               0.000000000               0.999999984              -0.000989947               0.000000000               0.999999984              -0.001002359               0.000000000               0.999999984              -0.001012548              -0.000000000               0.999999984              -0.000758825              -0.000133617               0.999999984              -0.000806679              -0.000108449               0.999999984              -0.000826767              -0.000097132               0.999999984              -0.000837684              -0.000092762               0.999999984              -0.000846233              -0.000091878               0.999999984              -0.000854961              -0.000093150               0.999999984              -0.000864693              -0.000095316               0.999999984              -0.000875680              -0.000097812               0.999999984              -0.000887791              -0.000100336               0.999999984              -0.000900746              -0.000102444               0.999999984              -0.000914296              -0.000103869               0.999999984              -0.000928093              -0.000104308               0.999999984              -0.000941797              -0.000103082               0.999999984              -0.000954982              -0.000099736               0.999999984              -0.000966980              -0.000093631               0.999999984              -0.000977263              -0.000084252               0.999999984              -0.000985217              -0.000070422               0.999999984              -0.000746296              -0.000265883               0.999999984              -0.000782707              -0.000216228               0.999999984              -0.000795829              -0.000194790               0.999999984              -0.000802482              -0.000186999               0.999999984              -0.000808256              -0.000186150               0.999999984              -0.000815158              -0.000189088               0.999999984              -0.000823535              -0.000193881               0.999999984              -0.000833221              -0.000199025               0.999999984              -0.000843838              -0.000204037               0.999999984              -0.000854915              -0.000208156               0.999999984              -0.000865995              -0.000210645               0.999999984              -0.000876560              -0.000211047               0.999999984              -0.000886147              -0.000208344               0.999999984              -0.000894293              -0.000201567               0.999999984              -0.000900686              -0.000189996               0.999999984              -0.000904908              -0.000172591               0.999999984              -0.000906654              -0.000147724               0.999999984              -0.000725757              -0.000395541               0.999999984              -0.000744171              -0.000322900               0.999999984              -0.000747092              -0.000293526               0.999999984              -0.000748099              -0.000284046               0.999999984              -0.000750645              -0.000284335               0.999999984              -0.000755337              -0.000289749               0.999999984              -0.000761781              -0.000297379               0.999999984              -0.000769346              -0.000305312               0.999999984              -0.000777405              -0.000312753               0.999999984              -0.000785285              -0.000318516               0.999999984              -0.000792122              -0.000321603               0.999999984              -0.000797381              -0.000321168               0.999999984              -0.000800615              -0.000316350               0.999999984              -0.000801413              -0.000306399               0.999999984              -0.000799668              -0.000290526               0.999999984              -0.000795438              -0.000267775               0.999999984              -0.000789058              -0.000237261               0.999999984              -0.000697584              -0.000521389               0.999999984              -0.000692960              -0.000428294               0.999999984              -0.000684657              -0.000393588               0.999999984              -0.000680171              -0.000384296               0.999999984              -0.000679713              -0.000386783               0.999999984              -0.000682291              -0.000395183               0.999999984              -0.000686724              -0.000405767               0.999999984              -0.000691871              -0.000416428               0.999999984              -0.000696692              -0.000425833               0.999999984              -0.000700143              -0.000432606               0.999999984              -0.000701402              -0.000435448               0.999999984              -0.000699898              -0.000433727               0.999999984              -0.000695318              -0.000426758               0.999999984              -0.000687653              -0.000414064               0.999999984              -0.000677152              -0.000395432               0.999999984              -0.000664261              -0.000370657               0.999999984              -0.000649721              -0.000340120               0.999999984              -0.000662350              -0.000642164               0.999999984              -0.000631794              -0.000532256               0.999999984              -0.000613105              -0.000494929               0.999999984              -0.000604392              -0.000487273               0.999999984              -0.000602025              -0.000492590               0.999999984              -0.000603280              -0.000503882               0.999999984              -0.000605997              -0.000517304               0.999999984              -0.000608547              -0.000530238               0.999999984              -0.000609450              -0.000540914               0.999999984              -0.000607578              -0.000547916               0.999999984              -0.000602211              -0.000550125               0.999999984              -0.000593142              -0.000546914               0.999999984              -0.000580323              -0.000538035               0.999999984              -0.000564125              -0.000523637               0.999999984              -0.000545172              -0.000504067               0.999999984              -0.000524143              -0.000479980               0.999999984              -0.000501813              -0.000452464               0.999999984              -0.000620615              -0.000756716               0.999999984              -0.000563690              -0.000634748               0.999999984              -0.000536971              -0.000597101               0.999999984              -0.000526316              -0.000591743               0.999999984              -0.000523567              -0.000599775               0.999999984              -0.000524212              -0.000613827               0.999999984              -0.000525493              -0.000629659               0.999999984              -0.000525186              -0.000644162               0.999999984              -0.000521629              -0.000655368               0.999999984              -0.000513677              -0.000662064               0.999999984              -0.000501054              -0.000663285               0.999999984              -0.000483884              -0.000658764               0.999999984              -0.000462578              -0.000648662               0.999999984              -0.000437754              -0.000633628               0.999999984              -0.000410194              -0.000614563               0.999999984              -0.000380706              -0.000592380               0.999999984              -0.000349992              -0.000568192               0.999999984              -0.000573380              -0.000863764               0.999999984              -0.000491958              -0.000735501               0.999999984              -0.000460624              -0.000699088               0.999999984              -0.000450542              -0.000695974               0.999999984              -0.000448540              -0.000706386               0.999999984              -0.000449207              -0.000722822               0.999999984              -0.000449073              -0.000740474               0.999999984              -0.000445370              -0.000755843               0.999999984              -0.000436478              -0.000767118               0.999999984              -0.000421611              -0.000773087               0.999999984              -0.000400937              -0.000773204               0.999999984              -0.000374909              -0.000767740               0.999999984              -0.000344315              -0.000757098               0.999999984              -0.000309970              -0.000742418               0.999999984              -0.000272981              -0.000724863               0.999999984              -0.000234250              -0.000705340               0.999999984              -0.000194676              -0.000684721               0.999999984              -0.000522134              -0.000961537               0.999999984              -0.000418994              -0.000834483               0.999999984              -0.000388032              -0.000799417               0.999999984              -0.000380292              -0.000798006               0.999999984              -0.000380024              -0.000810410               0.999999984              -0.000380822              -0.000828688               0.999999984              -0.000378683              -0.000847699               0.999999984              -0.000370561              -0.000863611               0.999999984              -0.000355110              -0.000874567               0.999999984              -0.000332217              -0.000879588               0.999999984              -0.000302327              -0.000878693               0.999999984              -0.000266281              -0.000872586               0.999999984              -0.000225129              -0.000862238               0.999999984              -0.000180322              -0.000848929               0.999999984              -0.000133358              -0.000833937               0.999999984              -0.000085424              -0.000818038               0.999999984              -0.000037284              -0.000801717               0.999999984              -0.000469068              -0.001053785               0.999999984              -0.000358149              -0.000944563               0.999999984              -0.000323915              -0.000905428               0.999999984              -0.000315176              -0.000898479               0.999999984              -0.000314688              -0.000906437               0.999999984              -0.000315844              -0.000921624               0.999999984              -0.000315341              -0.000939720               0.999999984              -0.000309966              -0.000957317               0.999999984              -0.000298304              -0.000972066               0.999999984              -0.000279712              -0.000982723               0.999999984              -0.000254198              -0.000988756               0.999999984              -0.000222236              -0.000990405               0.999999984              -0.000184433              -0.000988327               0.999999984              -0.000141588              -0.000983206               0.999999984              -0.000095281              -0.000976092               0.999999984              -0.000047131              -0.000967845               0.999999984               0.000001666              -0.000959095               0.999999984              -0.000410864              -0.001137644               0.999999984              -0.000300161              -0.001050854               0.999999984              -0.000263071              -0.001013838               0.999999984              -0.000252430              -0.001004006               0.999999984              -0.000251003              -0.001008898               0.999999984              -0.000251855              -0.001021775               0.999999984              -0.000251934              -0.001038893               0.999999984              -0.000248571              -0.001057366               0.999999984              -0.000240129              -0.001075003               0.999999984              -0.000225611              -0.001090248               0.999999984              -0.000204465              -0.001102209               0.999999984              -0.000176978              -0.001110621               0.999999984              -0.000143179              -0.001115809               0.999999984              -0.000103499              -0.001118176               0.999999984              -0.000058847              -0.001118397               0.999999984              -0.000010828              -0.001117238               0.999999984               0.000038838              -0.001115574               0.999999984              -0.000348756              -0.001211180               0.999999984              -0.000244954              -0.001150364               0.999999984              -0.000206917              -0.001120002               0.999999984              -0.000194252              -0.001110635               0.999999984              -0.000191379              -0.001114409               0.999999984              -0.000191335              -0.001126243               0.999999984              -0.000191279              -0.001142922               0.999999984              -0.000189105              -0.001162169               0.999999984              -0.000183192              -0.001182063               0.999999984              -0.000172216              -0.001201103               0.999999984              -0.000155516              -0.001218250               0.999999984              -0.000132636              -0.001232851               0.999999984              -0.000103352              -0.001244696               0.999999984              -0.000067553              -0.001254065               0.999999984              -0.000025575              -0.001261298               0.999999984               0.000021619              -0.001266924               0.999999984               0.000072508              -0.001271790               0.999999984              -0.000283300              -0.001273249               0.999999984              -0.000192506              -0.001239042               0.999999984              -0.000156129              -0.001218766               0.999999984              -0.000142424              -0.001212702               0.999999984              -0.000138158              -0.001217389               0.999999984              -0.000137096              -0.001229598               0.999999984              -0.000136459              -0.001246932               0.999999984              -0.000134710              -0.001267582               0.999999984              -0.000130454              -0.001289778               0.999999984              -0.000122455              -0.001312290               0.999999984              -0.000109822              -0.001334109               0.999999984              -0.000091631              -0.001354526               0.999999984              -0.000067278              -0.001372951               0.999999984              -0.000036317              -0.001389173               0.999999984               0.000001612              -0.001403293               0.999999984               0.000046435              -0.001415751               0.999999984               0.000097765              -0.001427076               0.999999984              -0.000215040              -0.001322846               0.999999984              -0.000142389              -0.001312939               0.999999984              -0.000110967              -0.001304085               0.999999984              -0.000097878              -0.001303394               0.999999984              -0.000092908              -0.001310793               0.999999984              -0.000091131              -0.001324713               0.999999984              -0.000089915              -0.001343621               0.999999984              -0.000088262              -0.001366109               0.999999984              -0.000085171              -0.001390901               0.999999984              -0.000079536              -0.001416895               0.999999984              -0.000070294              -0.001443172               0.999999984              -0.000056640              -0.001469144               0.999999984              -0.000037842              -0.001494128               0.999999984              -0.000012882              -0.001517595               0.999999984               0.000019069              -0.001539092               0.999999984               0.000058993              -0.001558778               0.999999984               0.000107917              -0.001576963               0.999999984              -0.000144616              -0.001358948               0.999999984              -0.000093999              -0.001368521               0.999999984              -0.000070833              -0.001370173               0.999999984              -0.000060476              -0.001375234               0.999999984              -0.000056056              -0.001386093               0.999999984              -0.000053987              -0.001402492               0.999999984              -0.000052718              -0.001423510               0.999999984              -0.000051301              -0.001448138               0.999999984              -0.000049136              -0.001475527               0.999999984              -0.000045379              -0.001504870               0.999999984              -0.000039318              -0.001535298               0.999999984              -0.000030205              -0.001566235               0.999999984              -0.000017343              -0.001597178               0.999999984               0.000000193              -0.001627383               0.999999984               0.000023657              -0.001656183               0.999999984               0.000054591              -0.001683234               0.999999984               0.000094870              -0.001708344               0.999999984              -0.000072691              -0.001380902               0.999999984              -0.000046710              -0.001403045               0.999999984              -0.000034426              -0.001412081               0.999999984              -0.000028702              -0.001421575               0.999999984              -0.000026063              -0.001435361               0.999999984              -0.000024723              -0.001453823               0.999999984              -0.000023868              -0.001476597               0.999999984              -0.000023094              -0.001502971               0.999999984              -0.000021873              -0.001532277               0.999999984              -0.000019987              -0.001563965               0.999999984              -0.000017030              -0.001597379               0.999999984              -0.000012401              -0.001631993               0.999999984              -0.000005877              -0.001667243               0.999999984               0.000003122              -0.001702522               0.999999984               0.000015702              -0.001737163               0.999999984               0.000032935              -0.001770214               0.999999984               0.000056142              -0.001800934               0.999999984              -0.000000000              -0.001388280               0.999999984              -0.000000000              -0.001414741               0.999999984              -0.000000000              -0.001426411               0.999999984              -0.000000000              -0.001437595               0.999999984               0.000000000              -0.001452560               0.999999984              -0.000000000              -0.001471912               0.999999984              -0.000000000              -0.001495364               0.999999984               0.000000000              -0.001522382               0.999999984               0.000000000              -0.001552414               0.999999984               0.000000000              -0.001584909               0.999999984              -0.000000000              -0.001619321               0.999999984              -0.000000000              -0.001655173               0.999999984               0.000000000              -0.001692022               0.999999984              -0.000000000              -0.001729225               0.999999984              -0.000000000              -0.001766074               0.999999984              -0.000000000              -0.001801529               0.999999984               0.000000000              -0.001834480               0.999999984               0.000763003               0.000000000               0.999999984               0.000814787               0.000000000               0.999999984               0.000837409              -0.000000000               0.999999984               0.000849991              -0.000000000               0.999999984               0.000859579              -0.000000000               0.999999984               0.000869011              -0.000000000               0.999999984               0.000879315              -0.000000000               0.999999984               0.000890789               0.000000000               0.999999984               0.000903353              -0.000000000               0.999999984               0.000916896              -0.000000000               0.999999984               0.000931189               0.000000000               0.999999984               0.000946079               0.000000000               0.999999984               0.000961251               0.000000000               0.999999984               0.000976056              -0.000000000               0.999999984               0.000989947              -0.000000000               0.999999984               0.001002359              -0.000000000               0.999999984               0.001012548              -0.000000000               0.999999984               0.000758825              -0.000133617               0.999999984               0.000806679              -0.000108449               0.999999984               0.000826767              -0.000097132               0.999999984               0.000837684              -0.000092762               0.999999984               0.000846233              -0.000091878               0.999999984               0.000854961              -0.000093150               0.999999984               0.000864693              -0.000095316               0.999999984               0.000875680              -0.000097812               0.999999984               0.000887791              -0.000100336               0.999999984               0.000900746              -0.000102444               0.999999984               0.000914296              -0.000103869               0.999999984               0.000928093              -0.000104308               0.999999984               0.000941797              -0.000103082               0.999999984               0.000954982              -0.000099736               0.999999984               0.000966980              -0.000093631               0.999999984               0.000977263              -0.000084252               0.999999984               0.000985217              -0.000070422               0.999999984               0.000746296              -0.000265883               0.999999984               0.000782707              -0.000216228               0.999999984               0.000795829              -0.000194790               0.999999984               0.000802482              -0.000186999               0.999999984               0.000808256              -0.000186150               0.999999984               0.000815158              -0.000189088               0.999999984               0.000823535              -0.000193881               0.999999984               0.000833221              -0.000199025               0.999999984               0.000843838              -0.000204037               0.999999984               0.000854915              -0.000208156               0.999999984               0.000865995              -0.000210645               0.999999984               0.000876560              -0.000211047               0.999999984               0.000886147              -0.000208344               0.999999984               0.000894293              -0.000201567               0.999999984               0.000900686              -0.000189996               0.999999984               0.000904908              -0.000172591               0.999999984               0.000906654              -0.000147724               0.999999984               0.000725757              -0.000395541               0.999999984               0.000744171              -0.000322900               0.999999984               0.000747092              -0.000293526               0.999999984               0.000748099              -0.000284046               0.999999984               0.000750645              -0.000284335               0.999999984               0.000755337              -0.000289749               0.999999984               0.000761781              -0.000297379               0.999999984               0.000769346              -0.000305312               0.999999984               0.000777405              -0.000312753               0.999999984               0.000785285              -0.000318516               0.999999984               0.000792122              -0.000321603               0.999999984               0.000797381              -0.000321168               0.999999984               0.000800615              -0.000316350               0.999999984               0.000801413              -0.000306399               0.999999984               0.000799668              -0.000290526               0.999999984               0.000795438              -0.000267775               0.999999984               0.000789058              -0.000237261               0.999999984               0.000697584              -0.000521389               0.999999984               0.000692960              -0.000428294               0.999999984               0.000684657              -0.000393588               0.999999984               0.000680171              -0.000384296               0.999999984               0.000679713              -0.000386783               0.999999984               0.000682291              -0.000395183               0.999999984               0.000686724              -0.000405767               0.999999984               0.000691871              -0.000416428               0.999999984               0.000696692              -0.000425833               0.999999984               0.000700143              -0.000432606               0.999999984               0.000701402              -0.000435448               0.999999984               0.000699898              -0.000433727               0.999999984               0.000695318              -0.000426758               0.999999984               0.000687653              -0.000414064               0.999999984               0.000677152              -0.000395432               0.999999984               0.000664261              -0.000370657               0.999999984               0.000649721              -0.000340120               0.999999984               0.000662350              -0.000642164               0.999999984               0.000631794              -0.000532256               0.999999984               0.000613105              -0.000494929               0.999999984               0.000604392              -0.000487273               0.999999984               0.000602025              -0.000492590               0.999999984               0.000603280              -0.000503882               0.999999984               0.000605997              -0.000517304               0.999999984               0.000608547              -0.000530238               0.999999984               0.000609450              -0.000540914               0.999999984               0.000607578              -0.000547916               0.999999984               0.000602211              -0.000550125               0.999999984               0.000593142              -0.000546914               0.999999984               0.000580323              -0.000538035               0.999999984               0.000564125              -0.000523637               0.999999984               0.000545172              -0.000504067               0.999999984               0.000524143              -0.000479980               0.999999984               0.000501813              -0.000452464               0.999999984               0.000620615              -0.000756716               0.999999984               0.000563690              -0.000634748               0.999999984               0.000536971              -0.000597101               0.999999984               0.000526316              -0.000591743               0.999999984               0.000523567              -0.000599775               0.999999984               0.000524212              -0.000613827               0.999999984               0.000525493              -0.000629659               0.999999984               0.000525186              -0.000644162               0.999999984               0.000521629              -0.000655368               0.999999984               0.000513677              -0.000662064               0.999999984               0.000501054              -0.000663285               0.999999984               0.000483884              -0.000658764               0.999999984               0.000462578              -0.000648662               0.999999984               0.000437754              -0.000633628               0.999999984               0.000410194              -0.000614563               0.999999984               0.000380706              -0.000592380               0.999999984               0.000349992              -0.000568192               0.999999984               0.000573380              -0.000863764               0.999999984               0.000491958              -0.000735501               0.999999984               0.000460624              -0.000699088               0.999999984               0.000450542              -0.000695974               0.999999984               0.000448540              -0.000706386               0.999999984               0.000449207              -0.000722822               0.999999984               0.000449073              -0.000740474               0.999999984               0.000445370              -0.000755843               0.999999984               0.000436478              -0.000767118               0.999999984               0.000421611              -0.000773087               0.999999984               0.000400937              -0.000773204               0.999999984               0.000374909              -0.000767740               0.999999984               0.000344315              -0.000757098               0.999999984               0.000309970              -0.000742418               0.999999984               0.000272981              -0.000724863               0.999999984               0.000234250              -0.000705340               0.999999984               0.000194676              -0.000684721               0.999999984               0.000522134              -0.000961537               0.999999984               0.000418994              -0.000834483               0.999999984               0.000388032              -0.000799417               0.999999984               0.000380292              -0.000798006               0.999999984               0.000380024              -0.000810410               0.999999984               0.000380822              -0.000828688               0.999999984               0.000378683              -0.000847699               0.999999984               0.000370561              -0.000863611               0.999999984               0.000355110              -0.000874567               0.999999984               0.000332217              -0.000879588               0.999999984               0.000302327              -0.000878693               0.999999984               0.000266281              -0.000872586               0.999999984               0.000225129              -0.000862238               0.999999984               0.000180322              -0.000848929               0.999999984               0.000133358              -0.000833937               0.999999984               0.000085424              -0.000818038               0.999999984               0.000037284              -0.000801717               0.999999984               0.000469068              -0.001053785               0.999999984               0.000358149              -0.000944563               0.999999984               0.000323915              -0.000905428               0.999999984               0.000315176              -0.000898479               0.999999984               0.000314688              -0.000906437               0.999999984               0.000315844              -0.000921624               0.999999984               0.000315341              -0.000939720               0.999999984               0.000309966              -0.000957317               0.999999984               0.000298304              -0.000972066               0.999999984               0.000279712              -0.000982723               0.999999984               0.000254198              -0.000988756               0.999999984               0.000222236              -0.000990405               0.999999984               0.000184433              -0.000988327               0.999999984               0.000141588              -0.000983206               0.999999984               0.000095281              -0.000976092               0.999999984               0.000047131              -0.000967845               0.999999984              -0.000001666              -0.000959095               0.999999984               0.000410864              -0.001137644               0.999999984               0.000300161              -0.001050854               0.999999984               0.000263071              -0.001013838               0.999999984               0.000252430              -0.001004006               0.999999984               0.000251003              -0.001008898               0.999999984               0.000251855              -0.001021775               0.999999984               0.000251934              -0.001038893               0.999999984               0.000248571              -0.001057366               0.999999984               0.000240129              -0.001075003               0.999999984               0.000225611              -0.001090248               0.999999984               0.000204465              -0.001102209               0.999999984               0.000176978              -0.001110621               0.999999984               0.000143179              -0.001115809               0.999999984               0.000103499              -0.001118176               0.999999984               0.000058847              -0.001118397               0.999999984               0.000010828              -0.001117238               0.999999984              -0.000038838              -0.001115574               0.999999984               0.000348756              -0.001211180               0.999999984               0.000244954              -0.001150364               0.999999984               0.000206917              -0.001120002               0.999999984               0.000194252              -0.001110635               0.999999984               0.000191379              -0.001114409               0.999999984               0.000191335              -0.001126243               0.999999984               0.000191279              -0.001142922               0.999999984               0.000189105              -0.001162169               0.999999984               0.000183192              -0.001182063               0.999999984               0.000172216              -0.001201103               0.999999984               0.000155516              -0.001218250               0.999999984               0.000132636              -0.001232851               0.999999984               0.000103352              -0.001244696               0.999999984               0.000067553              -0.001254065               0.999999984               0.000025575              -0.001261298               0.999999984              -0.000021619              -0.001266924               0.999999984              -0.000072508              -0.001271790               0.999999984               0.000283300              -0.001273249               0.999999984               0.000192506              -0.001239042               0.999999984               0.000156129              -0.001218766               0.999999984               0.000142424              -0.001212702               0.999999984               0.000138158              -0.001217389               0.999999984               0.000137096              -0.001229598               0.999999984               0.000136459              -0.001246932               0.999999984               0.000134710              -0.001267582               0.999999984               0.000130454              -0.001289778               0.999999984               0.000122455              -0.001312290               0.999999984               0.000109822              -0.001334109               0.999999984               0.000091631              -0.001354526               0.999999984               0.000067278              -0.001372951               0.999999984               0.000036317              -0.001389173               0.999999984              -0.000001612              -0.001403293               0.999999984              -0.000046435              -0.001415751               0.999999984              -0.000097765              -0.001427076               0.999999984               0.000215040              -0.001322846               0.999999984               0.000142389              -0.001312939               0.999999984               0.000110967              -0.001304085               0.999999984               0.000097878              -0.001303394               0.999999984               0.000092908              -0.001310793               0.999999984               0.000091131              -0.001324713               0.999999984               0.000089915              -0.001343621               0.999999984               0.000088262              -0.001366109               0.999999984               0.000085171              -0.001390901               0.999999984               0.000079536              -0.001416895               0.999999984               0.000070294              -0.001443172               0.999999984               0.000056640              -0.001469144               0.999999984               0.000037842              -0.001494128               0.999999984               0.000012882              -0.001517595               0.999999984              -0.000019069              -0.001539092               0.999999984              -0.000058993              -0.001558778               0.999999984              -0.000107917              -0.001576963               0.999999984               0.000144616              -0.001358948               0.999999984               0.000093999              -0.001368521               0.999999984               0.000070833              -0.001370173               0.999999984               0.000060476              -0.001375234               0.999999984               0.000056056              -0.001386093               0.999999984               0.000053987              -0.001402492               0.999999984               0.000052718              -0.001423510               0.999999984               0.000051301              -0.001448138               0.999999984               0.000049136              -0.001475527               0.999999984               0.000045379              -0.001504870               0.999999984               0.000039318              -0.001535298               0.999999984               0.000030205              -0.001566235               0.999999984               0.000017343              -0.001597178               0.999999984              -0.000000193              -0.001627383               0.999999984              -0.000023657              -0.001656183               0.999999984              -0.000054591              -0.001683234               0.999999984              -0.000094870              -0.001708344               0.999999984               0.000072691              -0.001380902               0.999999984               0.000046710              -0.001403045               0.999999984               0.000034426              -0.001412081               0.999999984               0.000028702              -0.001421575               0.999999984               0.000026063              -0.001435361               0.999999984               0.000024723              -0.001453823               0.999999984               0.000023868              -0.001476597               0.999999984               0.000023094              -0.001502971               0.999999984               0.000021873              -0.001532277               0.999999984               0.000019987              -0.001563965               0.999999984               0.000017030              -0.001597379               0.999999984               0.000012401              -0.001631993               0.999999984               0.000005877              -0.001667243               0.999999984              -0.000003122              -0.001702522               0.999999984              -0.000015702              -0.001737163               0.999999984              -0.000032935              -0.001770214               0.999999984              -0.000056142              -0.001800934               0.999999984              -0.000000000              -0.001388280               0.999999984              -0.000000000              -0.001414741               0.999999984              -0.000000000              -0.001426411               0.999999984              -0.000000000              -0.001437595               0.999999984               0.000000000              -0.001452560               0.999999984              -0.000000000              -0.001471912               0.999999984              -0.000000000              -0.001495364               0.999999984               0.000000000              -0.001522382               0.999999984               0.000000000              -0.001552414               0.999999984               0.000000000              -0.001584909               0.999999984              -0.000000000              -0.001619321               0.999999984              -0.000000000              -0.001655173               0.999999984               0.000000000              -0.001692022               0.999999984              -0.000000000              -0.001729225               0.999999984              -0.000000000              -0.001766074               0.999999984              -0.000000000              -0.001801529               0.999999984               0.000000000              -0.001834480               0.999999984               0.000763003               0.000000000               0.999999984               0.000814787               0.000000000               0.999999984               0.000837409              -0.000000000               0.999999984               0.000849991              -0.000000000               0.999999984               0.000859579              -0.000000000               0.999999984               0.000869011              -0.000000000               0.999999984               0.000879315              -0.000000000               0.999999984               0.000890789               0.000000000               0.999999984               0.000903353              -0.000000000               0.999999984               0.000916896              -0.000000000               0.999999984               0.000931189               0.000000000               0.999999984               0.000946079               0.000000000               0.999999984               0.000961251               0.000000000               0.999999984               0.000976056              -0.000000000               0.999999984               0.000989947              -0.000000000               0.999999984               0.001002359              -0.000000000               0.999999984               0.001012548              -0.000000000               0.999999984               0.000758825               0.000133617               0.999999984               0.000806679               0.000108449               0.999999984               0.000826767               0.000097132               0.999999984               0.000837684               0.000092762               0.999999984               0.000846233               0.000091878               0.999999984               0.000854961               0.000093150               0.999999984               0.000864693               0.000095316               0.999999984               0.000875680               0.000097812               0.999999984               0.000887791               0.000100336               0.999999984               0.000900746               0.000102444               0.999999984               0.000914296               0.000103869               0.999999984               0.000928093               0.000104308               0.999999984               0.000941797               0.000103082               0.999999984               0.000954982               0.000099736               0.999999984               0.000966980               0.000093631               0.999999984               0.000977263               0.000084252               0.999999984               0.000985217               0.000070422               0.999999984               0.000746296               0.000265883               0.999999984               0.000782707               0.000216228               0.999999984               0.000795829               0.000194790               0.999999984               0.000802482               0.000186999               0.999999984               0.000808256               0.000186150               0.999999984               0.000815158               0.000189088               0.999999984               0.000823535               0.000193881               0.999999984               0.000833221               0.000199025               0.999999984               0.000843838               0.000204037               0.999999984               0.000854915               0.000208156               0.999999984               0.000865995               0.000210645               0.999999984               0.000876560               0.000211047               0.999999984               0.000886147               0.000208344               0.999999984               0.000894293               0.000201567               0.999999984               0.000900686               0.000189996               0.999999984               0.000904908               0.000172591               0.999999984               0.000906654               0.000147724               0.999999984               0.000725757               0.000395541               0.999999984               0.000744171               0.000322900               0.999999984               0.000747092               0.000293526               0.999999984               0.000748099               0.000284046               0.999999984               0.000750645               0.000284335               0.999999984               0.000755337               0.000289749               0.999999984               0.000761781               0.000297379               0.999999984               0.000769346               0.000305312               0.999999984               0.000777405               0.000312753               0.999999984               0.000785285               0.000318516               0.999999984               0.000792122               0.000321603               0.999999984               0.000797381               0.000321168               0.999999984               0.000800615               0.000316350               0.999999984               0.000801413               0.000306399               0.999999984               0.000799668               0.000290526               0.999999984               0.000795438               0.000267775               0.999999984               0.000789058               0.000237261               0.999999984               0.000697584               0.000521389               0.999999984               0.000692960               0.000428294               0.999999984               0.000684657               0.000393588               0.999999984               0.000680171               0.000384296               0.999999984               0.000679713               0.000386783               0.999999984               0.000682291               0.000395183               0.999999984               0.000686724               0.000405767               0.999999984               0.000691871               0.000416428               0.999999984               0.000696692               0.000425833               0.999999984               0.000700143               0.000432606               0.999999984               0.000701402               0.000435448               0.999999984               0.000699898               0.000433727               0.999999984               0.000695318               0.000426758               0.999999984               0.000687653               0.000414064               0.999999984               0.000677152               0.000395432               0.999999984               0.000664261               0.000370657               0.999999984               0.000649721               0.000340120               0.999999984               0.000662350               0.000642164               0.999999984               0.000631794               0.000532256               0.999999984               0.000613105               0.000494929               0.999999984               0.000604392               0.000487273               0.999999984               0.000602025               0.000492590               0.999999984               0.000603280               0.000503882               0.999999984               0.000605997               0.000517304               0.999999984               0.000608547               0.000530238               0.999999984               0.000609450               0.000540914               0.999999984               0.000607578               0.000547916               0.999999984               0.000602211               0.000550125               0.999999984               0.000593142               0.000546914               0.999999984               0.000580323               0.000538035               0.999999984               0.000564125               0.000523637               0.999999984               0.000545172               0.000504067               0.999999984               0.000524143               0.000479980               0.999999984               0.000501813               0.000452464               0.999999984               0.000620615               0.000756716               0.999999984               0.000563690               0.000634748               0.999999984               0.000536971               0.000597101               0.999999984               0.000526316               0.000591743               0.999999984               0.000523567               0.000599775               0.999999984               0.000524212               0.000613827               0.999999984               0.000525493               0.000629659               0.999999984               0.000525186               0.000644162               0.999999984               0.000521629               0.000655368               0.999999984               0.000513677               0.000662064               0.999999984               0.000501054               0.000663285               0.999999984               0.000483884               0.000658764               0.999999984               0.000462578               0.000648662               0.999999984               0.000437754               0.000633628               0.999999984               0.000410194               0.000614563               0.999999984               0.000380706               0.000592380               0.999999984               0.000349992               0.000568192               0.999999984               0.000573380               0.000863764               0.999999984               0.000491958               0.000735501               0.999999984               0.000460624               0.000699088               0.999999984               0.000450542               0.000695974               0.999999984               0.000448540               0.000706386               0.999999984               0.000449207               0.000722822               0.999999984               0.000449073               0.000740474               0.999999984               0.000445370               0.000755843               0.999999984               0.000436478               0.000767118               0.999999984               0.000421611               0.000773087               0.999999984               0.000400937               0.000773204               0.999999984               0.000374909               0.000767740               0.999999984               0.000344315               0.000757098               0.999999984               0.000309970               0.000742418               0.999999984               0.000272981               0.000724863               0.999999984               0.000234250               0.000705340               0.999999984               0.000194676               0.000684721               0.999999984               0.000522134               0.000961537               0.999999984               0.000418994               0.000834483               0.999999984               0.000388032               0.000799417               0.999999984               0.000380292               0.000798006               0.999999984               0.000380024               0.000810410               0.999999984               0.000380822               0.000828688               0.999999984               0.000378683               0.000847699               0.999999984               0.000370561               0.000863611               0.999999984               0.000355110               0.000874567               0.999999984               0.000332217               0.000879588               0.999999984               0.000302327               0.000878693               0.999999984               0.000266281               0.000872586               0.999999984               0.000225129               0.000862238               0.999999984               0.000180322               0.000848929               0.999999984               0.000133358               0.000833937               0.999999984               0.000085424               0.000818038               0.999999984               0.000037284               0.000801717               0.999999984               0.000469068               0.001053785               0.999999984               0.000358149               0.000944563               0.999999984               0.000323915               0.000905428               0.999999984               0.000315176               0.000898479               0.999999984               0.000314688               0.000906437               0.999999984               0.000315844               0.000921624               0.999999984               0.000315341               0.000939720               0.999999984               0.000309966               0.000957317               0.999999984               0.000298304               0.000972066               0.999999984               0.000279712               0.000982723               0.999999984               0.000254198               0.000988756               0.999999984               0.000222236               0.000990405               0.999999984               0.000184433               0.000988327               0.999999984               0.000141588               0.000983206               0.999999984               0.000095281               0.000976092               0.999999984               0.000047131               0.000967845               0.999999984              -0.000001666               0.000959095               0.999999984               0.000410864               0.001137644               0.999999984               0.000300161               0.001050854               0.999999984               0.000263071               0.001013838               0.999999984               0.000252430               0.001004006               0.999999984               0.000251003               0.001008898               0.999999984               0.000251855               0.001021775               0.999999984               0.000251934               0.001038893               0.999999984               0.000248571               0.001057366               0.999999984               0.000240129               0.001075003               0.999999984               0.000225611               0.001090248               0.999999984               0.000204465               0.001102209               0.999999984               0.000176978               0.001110621               0.999999984               0.000143179               0.001115809               0.999999984               0.000103499               0.001118176               0.999999984               0.000058847               0.001118397               0.999999984               0.000010828               0.001117238               0.999999984              -0.000038838               0.001115574               0.999999984               0.000348756               0.001211180               0.999999984               0.000244954               0.001150364               0.999999984               0.000206917               0.001120002               0.999999984               0.000194252               0.001110635               0.999999984               0.000191379               0.001114409               0.999999984               0.000191335               0.001126243               0.999999984               0.000191279               0.001142922               0.999999984               0.000189105               0.001162169               0.999999984               0.000183192               0.001182063               0.999999984               0.000172216               0.001201103               0.999999984               0.000155516               0.001218250               0.999999984               0.000132636               0.001232851               0.999999984               0.000103352               0.001244696               0.999999984               0.000067553               0.001254065               0.999999984               0.000025575               0.001261298               0.999999984              -0.000021619               0.001266924               0.999999984              -0.000072508               0.001271790               0.999999984               0.000283300               0.001273249               0.999999984               0.000192506               0.001239042               0.999999984               0.000156129               0.001218766               0.999999984               0.000142424               0.001212702               0.999999984               0.000138158               0.001217389               0.999999984               0.000137096               0.001229598               0.999999984               0.000136459               0.001246932               0.999999984               0.000134710               0.001267582               0.999999984               0.000130454               0.001289778               0.999999984               0.000122455               0.001312290               0.999999984               0.000109822               0.001334109               0.999999984               0.000091631               0.001354526               0.999999984               0.000067278               0.001372951               0.999999984               0.000036317               0.001389173               0.999999984              -0.000001612               0.001403293               0.999999984              -0.000046435               0.001415751               0.999999984              -0.000097765               0.001427076               0.999999984               0.000215040               0.001322846               0.999999984               0.000142389               0.001312939               0.999999984               0.000110967               0.001304085               0.999999984               0.000097878               0.001303394               0.999999984               0.000092908               0.001310793               0.999999984               0.000091131               0.001324713               0.999999984               0.000089915               0.001343621               0.999999984               0.000088262               0.001366109               0.999999984               0.000085171               0.001390901               0.999999984               0.000079536               0.001416895               0.999999984               0.000070294               0.001443172               0.999999984               0.000056640               0.001469144               0.999999984               0.000037842               0.001494128               0.999999984               0.000012882               0.001517595               0.999999984              -0.000019069               0.001539092               0.999999984              -0.000058993               0.001558778               0.999999984              -0.000107917               0.001576963               0.999999984               0.000144616               0.001358948               0.999999984               0.000093999               0.001368521               0.999999984               0.000070833               0.001370173               0.999999984               0.000060476               0.001375234               0.999999984               0.000056056               0.001386093               0.999999984               0.000053987               0.001402492               0.999999984               0.000052718               0.001423510               0.999999984               0.000051301               0.001448138               0.999999984               0.000049136               0.001475527               0.999999984               0.000045379               0.001504870               0.999999984               0.000039318               0.001535298               0.999999984               0.000030205               0.001566235               0.999999984               0.000017343               0.001597178               0.999999984              -0.000000193               0.001627383               0.999999984              -0.000023657               0.001656183               0.999999984              -0.000054591               0.001683234               0.999999984              -0.000094870               0.001708344               0.999999984               0.000072691               0.001380902               0.999999984               0.000046710               0.001403045               0.999999984               0.000034426               0.001412081               0.999999984               0.000028702               0.001421575               0.999999984               0.000026063               0.001435361               0.999999984               0.000024723               0.001453823               0.999999984               0.000023868               0.001476597               0.999999984               0.000023094               0.001502971               0.999999984               0.000021873               0.001532277               0.999999984               0.000019987               0.001563965               0.999999984               0.000017030               0.001597379               0.999999984               0.000012401               0.001631993               0.999999984               0.000005877               0.001667243               0.999999984              -0.000003122               0.001702522               0.999999984              -0.000015702               0.001737163               0.999999984              -0.000032935               0.001770214               0.999999984              -0.000056142               0.001800934               0.999999984               0.000000000               0.001388280               0.999999984              -0.000000000               0.001414741               0.999999984               0.000000000               0.001426411               0.999999984               0.000000000               0.001437595               0.999999984              -0.000000000               0.001452560               0.999999984              -0.000000000               0.001471912               0.999999984              -0.000000000               0.001495364               0.999999984               0.000000000               0.001522382               0.999999984              -0.000000000               0.001552414               0.999999984               0.000000000               0.001584909               0.999999984               0.000000000               0.001619321               0.999999984               0.000000000               0.001655173               0.999999984               0.000000000               0.001692022               0.999999984               0.000000000               0.001729225               0.999999984               0.000000000               0.001766074               0.999999984              -0.000000000               0.001801529               0.999999984               0.000000000               0.001834480               0.999999984 </DataArray>
<DataArray type="Float64"                                    Name="stress"                                                      NumberOfComponents="10" format="ascii">
              0.002231534               0.024392931               0.000000000              -0.002212285               0.008868324               0.006656039               0.000000000               0.000000000               0.000000000               0.000000000               0.002185904               0.018985146               0.000000000              -0.001553425               0.006846127               0.005292702               0.000000000               0.000000000               0.000000000               0.000000000               0.002858311               0.014563856              -0.000000000              -0.000748614               0.005104108               0.004355494               0.000000000               0.000000000               0.000000000               0.000000000               0.002724762               0.012051026              -0.000000000              -0.000484591               0.004178499               0.003693908               0.000000000               0.000000000               0.000000000               0.000000000               0.002353666               0.010459398               0.000000000              -0.000424799               0.003628031               0.003203232               0.000000000               0.000000000               0.000000000               0.000000000               0.001942814               0.009374310              -0.000000000              -0.000443233               0.003272483               0.002829250               0.000000000               0.000000000               0.000000000               0.000000000               0.001553946               0.008566609              -0.000000000              -0.000488095               0.003018206               0.002530111               0.000000000               0.000000000               0.000000000               0.000000000               0.001209305               0.007922884               0.000000000              -0.000536870               0.002819891               0.002283022               0.000000000               0.000000000               0.000000000               0.000000000               0.000913923               0.007382211              -0.000000000              -0.000580054               0.002654063               0.002074010               0.000000000               0.000000000               0.000000000               0.000000000               0.000659675               0.006896834              -0.000000000              -0.000614725               0.002503830               0.001889105               0.000000000               0.000000000               0.000000000               0.000000000               0.000439500               0.006437327               0.000000000              -0.000639852               0.002359038               0.001719186               0.000000000               0.000000000               0.000000000               0.000000000               0.000250472               0.005979463               0.000000000              -0.000653504               0.002210969               0.001557465               0.000000000               0.000000000               0.000000000               0.000000000               0.000105251               0.005498302              -0.000000000              -0.000647817               0.002048688               0.001400871               0.000000000               0.000000000               0.000000000               0.000000000               0.000013944               0.004977667              -0.000000000              -0.000616978               0.001864865               0.001247887               0.000000000               0.000000000               0.000000000               0.000000000              -0.000031871               0.004396419               0.000000000              -0.000561503               0.001652626               0.001091123               0.000000000               0.000000000               0.000000000               0.000000000              -0.000030871               0.003737850              -0.000000000              -0.000478807               0.001405540               0.000926733               0.000000000               0.000000000               0.000000000               0.000000000              -0.000072147               0.003230847              -0.000000000              -0.000430910               0.001220575               0.000789665               0.000000000               0.000000000               0.000000000               0.000000000               0.002306551               0.023879547              -0.001656851              -0.002119982               0.008666430               0.006546448               0.000000000               0.000000000               0.000000000               0.000000000               0.002136148               0.018650832              -0.000816903              -0.001530295               0.006726980               0.005196685               0.000000000               0.000000000               0.000000000               0.000000000               0.002676701               0.014418391               0.000016078              -0.000798534               0.005072260               0.004273726               0.000000000               0.000000000               0.000000000               0.000000000               0.002489720               0.012003105               0.000364972              -0.000566742               0.004189909               0.003623167               0.000000000               0.000000000               0.000000000               0.000000000               0.002102608               0.010466909               0.000509515              -0.000519884               0.003662229               0.003142345               0.000000000               0.000000000               0.000000000               0.000000000               0.001694890               0.009405989               0.000559152              -0.000540164               0.003315353               0.002775189               0.000000000               0.000000000               0.000000000               0.000000000               0.001321423               0.008613571               0.000558934              -0.000581161               0.003064882               0.002483721               0.000000000               0.000000000               0.000000000               0.000000000               0.000994192               0.007973390               0.000540839              -0.000623850               0.002865720               0.002241870               0.000000000               0.000000000               0.000000000               0.000000000               0.000720684               0.007430508               0.000514398              -0.000658555               0.002696330               0.002037774               0.000000000               0.000000000               0.000000000               0.000000000               0.000492444               0.006941254               0.000482834              -0.000682989               0.002541391               0.001858402               0.000000000               0.000000000               0.000000000               0.000000000               0.000302618               0.006474561               0.000451140              -0.000695837               0.002390111               0.001694274               0.000000000               0.000000000               0.000000000               0.000000000               0.000148911               0.006010909               0.000413680              -0.000695520               0.002235457               0.001539936               0.000000000               0.000000000               0.000000000               0.000000000               0.000031625               0.005527877               0.000366392              -0.000679123               0.002068982               0.001389858               0.000000000               0.000000000               0.000000000               0.000000000              -0.000039227               0.005011202               0.000308206              -0.000641109               0.001884087               0.001242978               0.000000000               0.000000000               0.000000000               0.000000000              -0.000063148               0.004450135               0.000235033              -0.000579946               0.001676679               0.001096733               0.000000000               0.000000000               0.000000000               0.000000000              -0.000044464               0.003828499               0.000133590              -0.000495235               0.001441232               0.000945997               0.000000000               0.000000000               0.000000000               0.000000000              -0.000075752               0.003358076               0.000084635              -0.000448166               0.001268736               0.000820571               0.000000000               0.000000000               0.000000000               0.000000000               0.002489912               0.022417736              -0.003076422              -0.001868497               0.008095336               0.006226839               0.000000000               0.000000000               0.000000000               0.000000000               0.001973480               0.017707848              -0.001515410              -0.001473423               0.006393698               0.004920275               0.000000000               0.000000000               0.000000000               0.000000000               0.002143922               0.014012069               0.000016473              -0.000947535               0.004986488               0.004038953               0.000000000               0.000000000               0.000000000               0.000000000               0.001825013               0.011869213               0.000634439              -0.000799270               0.004222788               0.003423518               0.000000000               0.000000000               0.000000000               0.000000000               0.001412576               0.010474611               0.000878107              -0.000779609               0.003751372               0.002971763               0.000000000               0.000000000               0.000000000               0.000000000               0.001023501               0.009479692               0.000958550              -0.000801147               0.003426915               0.002625768               0.000000000               0.000000000               0.000000000               0.000000000               0.000695453               0.008715284               0.000957102              -0.000828614               0.003181270               0.002352656               0.000000000               0.000000000               0.000000000               0.000000000               0.000427625               0.008084301               0.000925235              -0.000850177               0.002978132               0.002127956               0.000000000               0.000000000               0.000000000               0.000000000               0.000219650               0.007538262               0.000882638              -0.000859912               0.002799366               0.001939454               0.000000000               0.000000000               0.000000000               0.000000000               0.000064962               0.007038267               0.000828977              -0.000855421               0.002631205               0.001775785               0.000000000               0.000000000               0.000000000               0.000000000              -0.000045275               0.006555601               0.000773537              -0.000836426               0.002463987               0.001627561               0.000000000               0.000000000               0.000000000               0.000000000              -0.000117612               0.006073637               0.000710033              -0.000803307               0.002292294               0.001488987               0.000000000               0.000000000               0.000000000               0.000000000              -0.000153537               0.005587685               0.000628122              -0.000756035               0.002114555               0.001358519               0.000000000               0.000000000               0.000000000               0.000000000              -0.000157372               0.005093839               0.000528379              -0.000695743               0.001929843               0.001234101               0.000000000               0.000000000               0.000000000               0.000000000              -0.000129965               0.004590362               0.000402081              -0.000622531               0.001737616               0.001115085               0.000000000               0.000000000               0.000000000               0.000000000              -0.000072211               0.004074727               0.000227061              -0.000536419               0.001537035               0.001000616               0.000000000               0.000000000               0.000000000               0.000000000              -0.000077111               0.003711358               0.000140711              -0.000492835               0.001401385               0.000908550               0.000000000               0.000000000               0.000000000               0.000000000               0.002669367               0.020209406              -0.004080387              -0.001525162               0.007244788               0.005719626               0.000000000               0.000000000               0.000000000               0.000000000               0.001672756               0.016306419              -0.002016165              -0.001411016               0.005905757               0.004494741               0.000000000               0.000000000               0.000000000               0.000000000               0.001326486               0.013409284              -0.000021703              -0.001178725               0.004862625               0.003683900               0.000000000               0.000000000               0.000000000               0.000000000               0.000846419               0.011647403               0.000738772              -0.001138516               0.004261934               0.003123418               0.000000000               0.000000000               0.000000000               0.000000000               0.000431307               0.010436070               0.001024880              -0.001142766               0.003859577               0.002716811               0.000000000               0.000000000               0.000000000               0.000000000               0.000106281               0.009528956               0.001114827              -0.001151262               0.003560041               0.002408779               0.000000000               0.000000000               0.000000000               0.000000000              -0.000133645               0.008795903               0.001112090              -0.001149602               0.003315139               0.002165537               0.000000000               0.000000000               0.000000000               0.000000000              -0.000301770               0.008175689               0.001075230              -0.001135122               0.003103577               0.001968454               0.000000000               0.000000000               0.000000000               0.000000000              -0.000409979               0.007621535               0.001025373              -0.001106431               0.002909297               0.001802865               0.000000000               0.000000000               0.000000000               0.000000000              -0.000458406               0.007103956               0.000961726              -0.001059894               0.002721260               0.001661365               0.000000000               0.000000000               0.000000000               0.000000000              -0.000458856               0.006603146               0.000891405              -0.000997462               0.002533514               0.001536052               0.000000000               0.000000000               0.000000000               0.000000000              -0.000428200               0.006110804               0.000811774              -0.000924423               0.002345055               0.001420632               0.000000000               0.000000000               0.000000000               0.000000000              -0.000366888               0.005635698               0.000715093              -0.000842044               0.002159228               0.001317185               0.000000000               0.000000000               0.000000000               0.000000000              -0.000283720               0.005186748               0.000595921              -0.000754737               0.001980478               0.001225741               0.000000000               0.000000000               0.000000000               0.000000000              -0.000190988               0.004771029               0.000442892              -0.000667997               0.001812993               0.001144995               0.000000000               0.000000000               0.000000000               0.000000000              -0.000097159               0.004404036               0.000242945              -0.000586938               0.001663643               0.001076705               0.000000000               0.000000000               0.000000000               0.000000000              -0.000074260               0.004184613               0.000142640              -0.000550923               0.001578498               0.001027575               0.000000000               0.000000000               0.000000000               0.000000000               0.002699007               0.017509661              -0.004579044              -0.001176581               0.006228688               0.005052107               0.000000000               0.000000000               0.000000000               0.000000000               0.001198004               0.014619245              -0.002297273              -0.001378152               0.005332416               0.003954265               0.000000000               0.000000000               0.000000000               0.000000000               0.000314318               0.012671721              -0.000128429              -0.001466092               0.004712562               0.003246470               0.000000000               0.000000000               0.000000000               0.000000000              -0.000272189               0.011326287               0.000649307              -0.001517853               0.004281342               0.002763489               0.000000000               0.000000000               0.000000000               0.000000000              -0.000633972               0.010302563               0.000930943              -0.001525556               0.003942672               0.002417116               0.000000000               0.000000000               0.000000000               0.000000000              -0.000851700               0.009474043               0.001018372              -0.001503639               0.003659196               0.002155557               0.000000000               0.000000000               0.000000000               0.000000000              -0.000967158               0.008775818               0.001017207              -0.001459658               0.003411796               0.001952138               0.000000000               0.000000000               0.000000000               0.000000000              -0.001005243               0.008164776               0.000983167              -0.001397560               0.003187418               0.001789858               0.000000000               0.000000000               0.000000000               0.000000000              -0.000982336               0.007601299               0.000936504              -0.001318535               0.002973253               0.001654717               0.000000000               0.000000000               0.000000000               0.000000000              -0.000906971               0.007069697               0.000874983              -0.001223823               0.002764483               0.001540660               0.000000000               0.000000000               0.000000000               0.000000000              -0.000793697               0.006564426               0.000802662              -0.001118187               0.002560849               0.001442662               0.000000000               0.000000000               0.000000000               0.000000000              -0.000656175               0.006088009               0.000719954              -0.001007064               0.002365004               0.001357940               0.000000000               0.000000000               0.000000000               0.000000000              -0.000506415               0.005650146               0.000620558              -0.000896172               0.002182087               0.001285915               0.000000000               0.000000000               0.000000000               0.000000000              -0.000357930               0.005264256               0.000500814              -0.000792254               0.002018819               0.001226565               0.000000000               0.000000000               0.000000000               0.000000000              -0.000219561               0.004947559               0.000354601              -0.000700779               0.001882763               0.001181984               0.000000000               0.000000000               0.000000000               0.000000000              -0.000102256               0.004721534               0.000183389              -0.000628536               0.001783341               0.001154805               0.000000000               0.000000000               0.000000000               0.000000000              -0.000059444               0.004618969               0.000098750              -0.000599661               0.001739528               0.001139867               0.000000000               0.000000000               0.000000000               0.000000000               0.002442751               0.014590639              -0.004581416              -0.000907800               0.005166097               0.004258297               0.000000000               0.000000000               0.000000000               0.000000000               0.000546422               0.012824566              -0.002384762              -0.001398160               0.004740865               0.003342705               0.000000000               0.000000000               0.000000000               0.000000000              -0.000772797               0.011860232              -0.000320797              -0.001772324               0.004544146               0.002771822               0.000000000               0.000000000               0.000000000               0.000000000              -0.001363935               0.010897563               0.000378128              -0.001873666               0.004257040               0.002383374               0.000000000               0.000000000               0.000000000               0.000000000              -0.001609089               0.010033671               0.000627201              -0.001857612               0.003963728               0.002106115               0.000000000               0.000000000               0.000000000               0.000000000              -0.001678740               0.009280781               0.000714420              -0.001789621               0.003690103               0.001900482               0.000000000               0.000000000               0.000000000               0.000000000              -0.001640826               0.008620561               0.000727528              -0.001692876               0.003437783               0.001744908               0.000000000               0.000000000               0.000000000               0.000000000              -0.001530433               0.008018907               0.000709602              -0.001576272               0.003198366               0.001622094               0.000000000               0.000000000               0.000000000               0.000000000              -0.001365506               0.007455696               0.000679278              -0.001444023               0.002966548               0.001522525               0.000000000               0.000000000               0.000000000               0.000000000              -0.001165954               0.006928959               0.000634265              -0.001303349               0.002744080               0.001440730               0.000000000               0.000000000               0.000000000               0.000000000              -0.000953533               0.006441610               0.000573391              -0.001162773               0.002534773               0.001372000               0.000000000               0.000000000               0.000000000               0.000000000              -0.000738591               0.006000280               0.000498950              -0.001027004               0.002342408               0.001315404               0.000000000               0.000000000               0.000000000               0.000000000              -0.000531120               0.005617341               0.000411714              -0.000901335               0.002172873               0.001271538               0.000000000               0.000000000               0.000000000               0.000000000              -0.000349107               0.005304434               0.000313165              -0.000793967               0.002032783               0.001238815               0.000000000               0.000000000               0.000000000               0.000000000              -0.000199209               0.005073139               0.000204893              -0.000708844               0.001927311               0.001218467               0.000000000               0.000000000               0.000000000               0.000000000              -0.000086132               0.004930926               0.000096711              -0.000648664               0.001859847               0.001211183               0.000000000               0.000000000               0.000000000               0.000000000              -0.000045900               0.004875832               0.000048415              -0.000626690               0.001834158               0.001207468               0.000000000               0.000000000               0.000000000               0.000000000               0.001836446               0.011697870              -0.004173765              -0.000773568               0.004157106               0.003383537               0.000000000               0.000000000               0.000000000               0.000000000              -0.000242155               0.011067974              -0.002335444              -0.001474303               0.004180721               0.002706419               0.000000000               0.000000000               0.000000000               0.000000000              -0.001813733               0.011006183              -0.000608819              -0.002055918               0.004353997               0.002298079               0.000000000               0.000000000               0.000000000               0.000000000              -0.002295736               0.010359812              -0.000039103              -0.002155872               0.004171860               0.002015988               0.000000000               0.000000000               0.000000000               0.000000000              -0.002366648               0.009636144               0.000186603              -0.002092006               0.003909351               0.001817345               0.000000000               0.000000000               0.000000000               0.000000000              -0.002264529               0.008964881               0.000290159              -0.001969804               0.003644865               0.001675061               0.000000000               0.000000000               0.000000000               0.000000000              -0.002066975               0.008344217               0.000331531              -0.001818138               0.003387424               0.001569286               0.000000000               0.000000000               0.000000000               0.000000000              -0.001810789               0.007759442               0.000344719              -0.001648972               0.003136112               0.001487140               0.000000000               0.000000000               0.000000000               0.000000000              -0.001516378               0.007214371               0.000344824              -0.001470434               0.002894911               0.001424477               0.000000000               0.000000000               0.000000000               0.000000000              -0.001215637               0.006709580               0.000328538              -0.001294558               0.002668024               0.001373465               0.000000000               0.000000000               0.000000000               0.000000000              -0.000933702               0.006252990               0.000293718              -0.001131759               0.002461562               0.001329803               0.000000000               0.000000000               0.000000000               0.000000000              -0.000677605               0.005859257               0.000244812              -0.000986507               0.002281902               0.001295395               0.000000000               0.000000000               0.000000000               0.000000000              -0.000453330               0.005535707               0.000188554              -0.000861960               0.002132537               0.001270577               0.000000000               0.000000000               0.000000000               0.000000000              -0.000272330               0.005287881               0.000132466              -0.000763107               0.002016978               0.001253871               0.000000000               0.000000000               0.000000000               0.000000000              -0.000139570               0.005116238               0.000077968              -0.000691867               0.001936018               0.001244151               0.000000000               0.000000000               0.000000000               0.000000000              -0.000053915               0.005011684               0.000032085              -0.000646677               0.001886104               0.001239427               0.000000000               0.000000000               0.000000000               0.000000000              -0.000030829               0.004965646               0.000017310              -0.000632265               0.001865954               0.001233689               0.000000000               0.000000000               0.000000000               0.000000000               0.000918898               0.009023740              -0.003467221              -0.000783382               0.003269009               0.002485628               0.000000000               0.000000000               0.000000000               0.000000000              -0.001117385               0.009453816              -0.002206675              -0.001600744               0.003684821               0.002084078               0.000000000               0.000000000               0.000000000               0.000000000              -0.002700440               0.010121451              -0.000984629              -0.002277841               0.004133063               0.001855222               0.000000000               0.000000000               0.000000000               0.000000000              -0.002969971               0.009729023              -0.000536657              -0.002329861               0.004019595               0.001689734               0.000000000               0.000000000               0.000000000               0.000000000              -0.002836626               0.009142944              -0.000309563              -0.002206597               0.003783150               0.001576553               0.000000000               0.000000000               0.000000000               0.000000000              -0.002570302               0.008550616              -0.000169834              -0.002032685               0.003527739               0.001495054               0.000000000               0.000000000               0.000000000               0.000000000              -0.002226974               0.007977299              -0.000084404              -0.001832273               0.003269831               0.001437558               0.000000000               0.000000000               0.000000000               0.000000000              -0.001844698               0.007427976              -0.000025577              -0.001620255               0.003016052               0.001395797               0.000000000               0.000000000               0.000000000               0.000000000              -0.001458684               0.006912589               0.000017093              -0.001411077               0.002774532               0.001363456               0.000000000               0.000000000               0.000000000               0.000000000              -0.001098201               0.006437392               0.000039202              -0.001216497               0.002551275               0.001334778               0.000000000               0.000000000               0.000000000               0.000000000              -0.000782826               0.006020223               0.000045291              -0.001046085               0.002355416               0.001309331               0.000000000               0.000000000               0.000000000               0.000000000              -0.000517885               0.005675929               0.000039337              -0.000903696               0.002193189               0.001289493               0.000000000               0.000000000               0.000000000               0.000000000              -0.000308026               0.005409752               0.000028980              -0.000791727               0.002067142               0.001275415               0.000000000               0.000000000               0.000000000               0.000000000              -0.000158597               0.005218779               0.000022225              -0.000711819               0.001976849               0.001265029               0.000000000               0.000000000               0.000000000               0.000000000              -0.000066081               0.005094428               0.000014837              -0.000661582               0.001918653               0.001257071               0.000000000               0.000000000               0.000000000               0.000000000              -0.000020141               0.005022031               0.000006827              -0.000635305               0.001885762               0.001250457               0.000000000               0.000000000               0.000000000               0.000000000              -0.000014664               0.004990078               0.000006556              -0.000629257               0.001873095               0.001243838               0.000000000               0.000000000               0.000000000               0.000000000              -0.000193273               0.006768038              -0.002587882              -0.000918482               0.002562150               0.001643668               0.000000000               0.000000000               0.000000000               0.000000000              -0.001975832               0.008016892              -0.002053132              -0.001743045               0.003253285               0.001510240               0.000000000               0.000000000               0.000000000               0.000000000              -0.003385585               0.009259956              -0.001432691              -0.002427083               0.003895649               0.001468565               0.000000000               0.000000000               0.000000000               0.000000000              -0.003414827               0.009133959              -0.001067921              -0.002422299               0.003852055               0.001429756               0.000000000               0.000000000               0.000000000               0.000000000              -0.003102261               0.008710223              -0.000820764              -0.002252120               0.003654085               0.001401965               0.000000000               0.000000000               0.000000000               0.000000000              -0.002701040               0.008217306              -0.000632492              -0.002040048               0.003419091               0.001379042               0.000000000               0.000000000               0.000000000               0.000000000              -0.002247542               0.007706922              -0.000489348              -0.001806189               0.003171011               0.001364822               0.000000000               0.000000000               0.000000000               0.000000000              -0.001779107               0.007203339              -0.000375893              -0.001567578               0.002923615               0.001356037               0.000000000               0.000000000               0.000000000               0.000000000              -0.001337634               0.006719357              -0.000286396              -0.001341529               0.002686940               0.001345411               0.000000000               0.000000000               0.000000000               0.000000000              -0.000946432               0.006271663              -0.000218347              -0.001138867               0.002470156               0.001331289               0.000000000               0.000000000               0.000000000               0.000000000              -0.000616472               0.005884330              -0.000163114              -0.000966716               0.002283662               0.001316947               0.000000000               0.000000000               0.000000000               0.000000000              -0.000351358               0.005572242              -0.000115909              -0.000828288               0.002133491               0.001305204               0.000000000               0.000000000               0.000000000               0.000000000              -0.000159652               0.005339760              -0.000074024              -0.000727338               0.002022348               0.001295010               0.000000000               0.000000000               0.000000000               0.000000000              -0.000047919               0.005179060              -0.000036322              -0.000665351               0.001948120               0.001282769               0.000000000               0.000000000               0.000000000               0.000000000              -0.000001149               0.005078203              -0.000009951              -0.000635205               0.001904452               0.001269248               0.000000000               0.000000000               0.000000000               0.000000000               0.000006906               0.005022158               0.000001219              -0.000625178               0.001882429               0.001257250               0.000000000               0.000000000               0.000000000               0.000000000               0.000002445               0.005003165               0.000003896              -0.000624477               0.001875864               0.001251387               0.000000000               0.000000000               0.000000000               0.000000000              -0.001512260               0.004677762              -0.001655985              -0.001151816               0.001943177               0.000791361               0.000000000               0.000000000               0.000000000               0.000000000              -0.002691578               0.006383360              -0.001880362              -0.001807258               0.002730184               0.000922926               0.000000000               0.000000000               0.000000000               0.000000000              -0.003773147               0.008048042              -0.001907019              -0.002420930               0.003489630               0.001068700               0.000000000               0.000000000               0.000000000               0.000000000              -0.003666546               0.008304351              -0.001640105              -0.002412993               0.003572420               0.001159427               0.000000000               0.000000000               0.000000000               0.000000000              -0.003275118               0.008136984              -0.001372707              -0.002245287               0.003460730               0.001215443               0.000000000               0.000000000               0.000000000               0.000000000              -0.002831611               0.007834454              -0.001140629              -0.002041156               0.003291844               0.001250688               0.000000000               0.000000000               0.000000000               0.000000000              -0.002363097               0.007476682              -0.000940287              -0.001820742               0.003099116               0.001278374               0.000000000               0.000000000               0.000000000               0.000000000              -0.001885241               0.007089631              -0.000768478              -0.001593166               0.002894242               0.001301076               0.000000000               0.000000000               0.000000000               0.000000000              -0.001427782               0.006694450              -0.000627502              -0.001372221               0.002688868               0.001316647               0.000000000               0.000000000               0.000000000               0.000000000              -0.001016890               0.006309069              -0.000507393              -0.001169965               0.002492990               0.001323026               0.000000000               0.000000000               0.000000000               0.000000000              -0.000667480               0.005955847              -0.000401153              -0.000994783               0.002316857               0.001322074               0.000000000               0.000000000               0.000000000               0.000000000              -0.000379139               0.005659365              -0.000302359              -0.000849596               0.002169635               0.001320039               0.000000000               0.000000000               0.000000000               0.000000000              -0.000161614               0.005421294              -0.000205435              -0.000738265               0.002053169               0.001314903               0.000000000               0.000000000               0.000000000               0.000000000              -0.000023166               0.005241754              -0.000117992              -0.000663905               0.001968536               0.001304631               0.000000000               0.000000000               0.000000000               0.000000000               0.000041543               0.005119388              -0.000052716              -0.000624343               0.001914560               0.001290217               0.000000000               0.000000000               0.000000000               0.000000000               0.000054678               0.005045549              -0.000014775              -0.000610188               0.001885229               0.001275041               0.000000000               0.000000000               0.000000000               0.000000000               0.000050376               0.005021012              -0.000002459              -0.000608734               0.001876565               0.001267831               0.000000000               0.000000000               0.000000000               0.000000000              -0.003205896               0.002792339              -0.000740721              -0.001551250               0.001447853              -0.000103398               0.000000000               0.000000000               0.000000000               0.000000000              -0.003499784               0.004755861              -0.001642949              -0.001906898               0.002220903               0.000314005               0.000000000               0.000000000               0.000000000               0.000000000              -0.004057011               0.006656166              -0.002285292              -0.002353395               0.003003164               0.000649769               0.000000000               0.000000000               0.000000000               0.000000000              -0.003829128               0.007277414              -0.002182718              -0.002345594               0.003207645               0.000862050               0.000000000               0.000000000               0.000000000               0.000000000              -0.003395015               0.007399839              -0.001931051              -0.002198106               0.003199290               0.001001184               0.000000000               0.000000000               0.000000000               0.000000000              -0.002937097               0.007320704              -0.001674004              -0.002016495               0.003112375               0.001095880               0.000000000               0.000000000               0.000000000               0.000000000              -0.002480635               0.007143648              -0.001435605              -0.001823190               0.002988922               0.001165732               0.000000000               0.000000000               0.000000000               0.000000000              -0.002012223               0.006907110              -0.001221443              -0.001617968               0.002841669               0.001223701               0.000000000               0.000000000               0.000000000               0.000000000              -0.001550844               0.006631826              -0.001034849              -0.001410542               0.002680767               0.001270225               0.000000000               0.000000000               0.000000000               0.000000000              -0.001120272               0.006334233              -0.000867484              -0.001211878               0.002515349               0.001303471               0.000000000               0.000000000               0.000000000               0.000000000              -0.000735960               0.006036727              -0.000717462              -0.001030573               0.002355747               0.001325173               0.000000000               0.000000000               0.000000000               0.000000000              -0.000407449               0.005763917              -0.000574002              -0.000873281               0.002212380               0.001339099               0.000000000               0.000000000               0.000000000               0.000000000              -0.000143035               0.005525698              -0.000426614              -0.000744349               0.002089997               0.001345649               0.000000000               0.000000000               0.000000000               0.000000000               0.000047281               0.005327695              -0.000283187              -0.000648230               0.001991957               0.001343727               0.000000000               0.000000000               0.000000000               0.000000000               0.000153020               0.005172876              -0.000157872              -0.000589226               0.001920683               0.001331458               0.000000000               0.000000000               0.000000000               0.000000000               0.000180560               0.005068648              -0.000064192              -0.000565870               0.001878156               0.001312286               0.000000000               0.000000000               0.000000000               0.000000000               0.000168627               0.005026526              -0.000023654              -0.000565079               0.001863852               0.001298772               0.000000000               0.000000000               0.000000000               0.000000000              -0.005157537               0.001263842               0.000077106              -0.002092054               0.001118624              -0.000973429               0.000000000               0.000000000               0.000000000               0.000000000              -0.004455640               0.003234236              -0.001321895              -0.002075141               0.001769780              -0.000305361               0.000000000               0.000000000               0.000000000               0.000000000              -0.004296090               0.005093759              -0.002451562              -0.002247749               0.002447151               0.000199402               0.000000000               0.000000000               0.000000000               0.000000000              -0.003860761               0.005964552              -0.002547174              -0.002193350               0.002719280               0.000525930               0.000000000               0.000000000               0.000000000               0.000000000              -0.003365667               0.006352711              -0.002358836              -0.002056210               0.002802952               0.000746742               0.000000000               0.000000000               0.000000000               0.000000000              -0.002888678               0.006503790              -0.002112233              -0.001896224               0.002799982               0.000903758               0.000000000               0.000000000               0.000000000               0.000000000              -0.002440176               0.006526384              -0.001870536              -0.001730860               0.002752392               0.001021532               0.000000000               0.000000000               0.000000000               0.000000000              -0.001993445               0.006465293              -0.001645350              -0.001555700               0.002673643               0.001117942               0.000000000               0.000000000               0.000000000               0.000000000              -0.001548167               0.006337369              -0.001435815              -0.001372731               0.002570012               0.001197281               0.000000000               0.000000000               0.000000000               0.000000000              -0.001114483               0.006164851              -0.001241810              -0.001188535               0.002451108               0.001262573               0.000000000               0.000000000               0.000000000               0.000000000              -0.000706057               0.005966259              -0.001061749              -0.001010552               0.002325583               0.001315032               0.000000000               0.000000000               0.000000000               0.000000000              -0.000344611               0.005755637              -0.000884248              -0.000848682               0.002201420               0.001352738               0.000000000               0.000000000               0.000000000               0.000000000              -0.000037759               0.005552528              -0.000699532              -0.000708224               0.002086899               0.001378675               0.000000000               0.000000000               0.000000000               0.000000000               0.000204373               0.005368703              -0.000507398              -0.000594447               0.001987699               0.001393252               0.000000000               0.000000000               0.000000000               0.000000000               0.000364234               0.005207619              -0.000318856              -0.000514363               0.001907310               0.001392947               0.000000000               0.000000000               0.000000000               0.000000000               0.000428713               0.005084721              -0.000148627              -0.000474822               0.001853164               0.001378342               0.000000000               0.000000000               0.000000000               0.000000000               0.000421237               0.005026501              -0.000065342              -0.000470348               0.001832266               0.001361918               0.000000000               0.000000000               0.000000000               0.000000000              -0.007235993               0.000157395               0.000681381              -0.002733169               0.000963515              -0.001769655               0.000000000               0.000000000               0.000000000               0.000000000              -0.005499622               0.001891618              -0.000959849              -0.002298807               0.001396799              -0.000902009               0.000000000               0.000000000               0.000000000               0.000000000              -0.004508531               0.003479829              -0.002372584              -0.002125674               0.001868487              -0.000257187               0.000000000               0.000000000               0.000000000               0.000000000              -0.003787138               0.004464719              -0.002645765              -0.001978263               0.002147644               0.000169381               0.000000000               0.000000000               0.000000000               0.000000000              -0.003195901               0.005063908              -0.002549376              -0.001831448               0.002298434               0.000466986               0.000000000               0.000000000               0.000000000               0.000000000              -0.002683334               0.005433583              -0.002346057              -0.001685445               0.002372990               0.000687545               0.000000000               0.000000000               0.000000000               0.000000000              -0.002233184               0.005658917              -0.002128509              -0.001544806               0.002401221               0.000856416               0.000000000               0.000000000               0.000000000               0.000000000              -0.001810378               0.005774288              -0.001920300              -0.001400675               0.002391635               0.000990959               0.000000000               0.000000000               0.000000000               0.000000000              -0.001392051               0.005804670              -0.001720508              -0.001247600               0.002350737               0.001103137               0.000000000               0.000000000               0.000000000               0.000000000              -0.000973320               0.005777135              -0.001528472              -0.001087135               0.002288070               0.001200936               0.000000000               0.000000000               0.000000000               0.000000000              -0.000565343               0.005706804              -0.001339822              -0.000925352               0.002210699               0.001285347               0.000000000               0.000000000               0.000000000               0.000000000              -0.000178817               0.005603324              -0.001149918              -0.000767471               0.002123579               0.001356109               0.000000000               0.000000000               0.000000000               0.000000000               0.000174833               0.005476191              -0.000952441              -0.000618961               0.002031699               0.001412738               0.000000000               0.000000000               0.000000000               0.000000000               0.000480869               0.005338388              -0.000738038              -0.000486972               0.001941769               0.001454797               0.000000000               0.000000000               0.000000000               0.000000000               0.000721118               0.005206172              -0.000505350              -0.000380352               0.001862157               0.001481805               0.000000000               0.000000000               0.000000000               0.000000000               0.000866729               0.005092345              -0.000257867              -0.000311519               0.001801271               0.001489752               0.000000000               0.000000000               0.000000000               0.000000000               0.000905099               0.005035673              -0.000129763              -0.000290046               0.001775223               0.001485177               0.000000000               0.000000000               0.000000000               0.000000000              -0.009243173              -0.000558259               0.000974746              -0.003396405               0.000946042              -0.002450363               0.000000000               0.000000000               0.000000000               0.000000000              -0.006540595               0.000793549              -0.000616349              -0.002551914               0.001115146              -0.001436768               0.000000000               0.000000000               0.000000000               0.000000000              -0.004698350               0.001972627              -0.002043585              -0.002008457               0.001327018              -0.000681439               0.000000000               0.000000000               0.000000000               0.000000000              -0.003643220               0.002956644              -0.002415706              -0.001735785               0.001564131              -0.000171654               0.000000000               0.000000000               0.000000000               0.000000000              -0.002926188               0.003691849              -0.002407701              -0.001558799               0.001750202               0.000191404               0.000000000               0.000000000               0.000000000               0.000000000              -0.002372854               0.004232336              -0.002267457              -0.001418860               0.001883717               0.000464857               0.000000000               0.000000000               0.000000000               0.000000000              -0.001908291               0.004628634              -0.002096331              -0.001294186               0.001974257               0.000680071               0.000000000               0.000000000               0.000000000               0.000000000              -0.001494838               0.004907563              -0.001927830              -0.001174008               0.002027173               0.000853166               0.000000000               0.000000000               0.000000000               0.000000000              -0.001098590               0.005096768              -0.001763104              -0.001049066               0.002048594               0.000999528               0.000000000               0.000000000               0.000000000               0.000000000              -0.000704519               0.005215065              -0.001598007              -0.000916076               0.002043696               0.001127620               0.000000000               0.000000000               0.000000000               0.000000000              -0.000305908               0.005283747              -0.001430880              -0.000775183               0.002019625               0.001244443               0.000000000               0.000000000               0.000000000               0.000000000               0.000098274               0.005312954              -0.001261439              -0.000627266               0.001980055               0.001352789               0.000000000               0.000000000               0.000000000               0.000000000               0.000499409               0.005299279              -0.001080857              -0.000475131               0.001924785               0.001449654               0.000000000               0.000000000               0.000000000               0.000000000               0.000882073               0.005242030              -0.000875790              -0.000324476               0.001855484               0.001531008               0.000000000               0.000000000               0.000000000               0.000000000               0.001230463               0.005162666              -0.000633878              -0.000183909               0.001782175               0.001598265               0.000000000               0.000000000               0.000000000               0.000000000               0.001518646               0.005082326              -0.000340383              -0.000065799               0.001716025               0.001650226               0.000000000               0.000000000               0.000000000               0.000000000               0.001672564               0.005052455              -0.000185698              -0.000004346               0.001685583               0.001681238               0.000000000               0.000000000               0.000000000               0.000000000              -0.010932458              -0.000953917               0.000917902              -0.003980430               0.001008830              -0.002971599               0.000000000               0.000000000               0.000000000               0.000000000              -0.007443281              -0.000007635              -0.000339047              -0.002790274               0.000927540              -0.001862734               0.000000000               0.000000000               0.000000000               0.000000000              -0.004864632               0.000741085              -0.001497415              -0.001916871               0.000885978              -0.001030892               0.000000000               0.000000000               0.000000000               0.000000000              -0.003488422               0.001649825              -0.001849517              -0.001514384               0.001054728              -0.000459656               0.000000000               0.000000000               0.000000000               0.000000000              -0.002634906               0.002451176              -0.001888911              -0.001294484               0.001248544              -0.000045941               0.000000000               0.000000000               0.000000000               0.000000000              -0.002029488               0.003103106              -0.001811385              -0.001148944               0.001417339               0.000268395               0.000000000               0.000000000               0.000000000               0.000000000              -0.001545172               0.003622809              -0.001700998              -0.001032289               0.001551687               0.000519398               0.000000000               0.000000000               0.000000000               0.000000000              -0.001128979               0.004032633              -0.001585183              -0.000927445               0.001653345               0.000725900               0.000000000               0.000000000               0.000000000               0.000000000              -0.000747121               0.004355906              -0.001468163              -0.000824657               0.001726839               0.000902182               0.000000000               0.000000000               0.000000000               0.000000000              -0.000370109               0.004604102              -0.001350101              -0.000714303               0.001772786               0.001058483               0.000000000               0.000000000               0.000000000               0.000000000               0.000021588               0.004795253              -0.001229833              -0.000591311               0.001795505               0.001204194               0.000000000               0.000000000               0.000000000               0.000000000               0.000435048               0.004945358              -0.001105283              -0.000455026               0.001800112               0.001345085               0.000000000               0.000000000               0.000000000               0.000000000               0.000872060               0.005045735              -0.000969991              -0.000303694               0.001783126               0.001479432               0.000000000               0.000000000               0.000000000               0.000000000               0.001330527               0.005087667              -0.000808364              -0.000137011               0.001741542               0.001604531               0.000000000               0.000000000               0.000000000               0.000000000               0.001804062               0.005083656              -0.000603074               0.000041065               0.001680846               0.001721912               0.000000000               0.000000000               0.000000000               0.000000000               0.002288934               0.005050449              -0.000332895               0.000227042               0.001607785               0.001834827               0.000000000               0.000000000               0.000000000               0.000000000               0.002627130               0.005061943              -0.000191470               0.000352427               0.001569822               0.001922249               0.000000000               0.000000000               0.000000000               0.000000000              -0.012063755              -0.001129702               0.000550371              -0.004382693               0.001084323              -0.003298370               0.000000000               0.000000000               0.000000000               0.000000000              -0.008058503              -0.000489009              -0.000142317              -0.002960811               0.000823928              -0.002136882               0.000000000               0.000000000               0.000000000               0.000000000              -0.004983587              -0.000065311              -0.000790738              -0.001860680               0.000598452              -0.001262228               0.000000000               0.000000000               0.000000000               0.000000000              -0.003376561               0.000760465              -0.001004388              -0.001361267               0.000707239              -0.000654028               0.000000000               0.000000000               0.000000000               0.000000000              -0.002415636               0.001578306              -0.001042740              -0.001103150               0.000893812              -0.000209338               0.000000000               0.000000000               0.000000000               0.000000000              -0.001758299               0.002285849              -0.001012150              -0.000945091               0.001076972               0.000131881               0.000000000               0.000000000               0.000000000               0.000000000              -0.001256776               0.002877720              -0.000959822              -0.000831004               0.001236232               0.000405227               0.000000000               0.000000000               0.000000000               0.000000000              -0.000838813               0.003366452              -0.000900310              -0.000735360               0.001367259               0.000631899               0.000000000               0.000000000               0.000000000               0.000000000              -0.000460688               0.003774702              -0.000838911              -0.000644595               0.001473086               0.000828491               0.000000000               0.000000000               0.000000000               0.000000000              -0.000090859               0.004113022              -0.000778207              -0.000548199               0.001553726               0.001005527               0.000000000               0.000000000               0.000000000               0.000000000               0.000293734               0.004393121              -0.000713777              -0.000438989               0.001610689               0.001171699               0.000000000               0.000000000               0.000000000               0.000000000               0.000711189               0.004628115              -0.000647428              -0.000311818               0.001646629               0.001334811               0.000000000               0.000000000               0.000000000               0.000000000               0.001170716               0.004813719              -0.000577426              -0.000162696               0.001658789               0.001496093               0.000000000               0.000000000               0.000000000               0.000000000               0.001684159               0.004945353              -0.000488116               0.000013390               0.001643971               0.001657361               0.000000000               0.000000000               0.000000000               0.000000000               0.002265588               0.005013137              -0.000368063               0.000222951               0.001596712               0.001819663               0.000000000               0.000000000               0.000000000               0.000000000               0.002936178               0.005019459              -0.000206210               0.000473629               0.001515260               0.001988889               0.000000000               0.000000000               0.000000000               0.000000000               0.003456244               0.005066447              -0.000123350               0.000662779               0.001467872               0.002130651               0.000000000               0.000000000               0.000000000               0.000000000              -0.012461980              -0.001177523              -0.000000000              -0.004526049               0.001116168              -0.003409881               0.000000000               0.000000000               0.000000000               0.000000000              -0.008276071              -0.000649656              -0.000000000              -0.003022318               0.000790882              -0.002231436               0.000000000               0.000000000               0.000000000               0.000000000              -0.005026800              -0.000345610               0.000000000              -0.001841847               0.000498742              -0.001343105               0.000000000               0.000000000               0.000000000               0.000000000              -0.003335896               0.000446113              -0.000000000              -0.001306724               0.000584275              -0.000722449               0.000000000               0.000000000               0.000000000               0.000000000              -0.002333152               0.001265536              -0.000000000              -0.001033122               0.000766214              -0.000266908               0.000000000               0.000000000               0.000000000               0.000000000              -0.001656793               0.001986941               0.000000000              -0.000869663               0.000952195               0.000082532               0.000000000               0.000000000               0.000000000               0.000000000              -0.001148041               0.002600004               0.000000000              -0.000755514               0.001118497               0.000362983               0.000000000               0.000000000               0.000000000               0.000000000              -0.000730669               0.003114959              -0.000000000              -0.000663369               0.001259432               0.000596063               0.000000000               0.000000000               0.000000000               0.000000000              -0.000351439               0.003552069               0.000000000              -0.000575797               0.001375943               0.000800146               0.000000000               0.000000000               0.000000000               0.000000000               0.000014937               0.003920023               0.000000000              -0.000484400               0.001468128               0.000983728               0.000000000               0.000000000               0.000000000               0.000000000               0.000395058               0.004231161              -0.000000000              -0.000380748               0.001537289               0.001156541               0.000000000               0.000000000               0.000000000               0.000000000               0.000816001               0.004500127               0.000000000              -0.000256515               0.001585532               0.001329017               0.000000000               0.000000000               0.000000000               0.000000000               0.001283930               0.004720867               0.000000000              -0.000108635               0.001609818               0.001501184               0.000000000               0.000000000               0.000000000               0.000000000               0.001816115               0.004886695              -0.000000000               0.000070205               0.001605480               0.001675686               0.000000000               0.000000000               0.000000000               0.000000000               0.002442713               0.004985207              -0.000000000               0.000292863               0.001564098               0.001856961               0.000000000               0.000000000               0.000000000               0.000000000               0.003193243               0.005009202               0.000000000               0.000571310               0.001479281               0.002050591               0.000000000               0.000000000               0.000000000               0.000000000               0.003789908               0.005069296               0.000000000               0.000787546               0.001427233               0.002214779               0.000000000               0.000000000               0.000000000               0.000000000               0.000000000               0.000000000               0.000000000               0.000000000               0.000000000               0.000000000               0.000000000               0.000000000               0.000000000               0.000000000               0.000000000               0.000000000               0.000000000               0.000000000               0.000000000               0.000000000               0.000000000               0.000000000               0.000000000               0.000000000               0.000000000               0.000000000               0.000000000               0.000000000               0.000000000               0.000000000               0.000000000               0.000000000               0.000000000               0.000000000               0.000000000               0.000000000               0.000000000               0.000000000               0.000000000               0.000000000               0.000000000               0.000000000               0.000000000               0.000000000               0.000000000               0.000000000               0.000000000               0.000000000               0.000000000               0.000000000               0.000000000               0.000000000               0.000000000               0.000000000               0.000000000               0.000000000               0.000000000               0.000000000               0.000000000               0.000000000               0.000000000               0.000000000               0.000000000               0.000000000               0.000000000               0.000000000               0.000000000               0.000000000               0.000000000               0.000000000               0.000000000               0.000000000               0.000000000               0.000000000               0.000000000               0.000000000               0.000000000               0.000000000               0.000000000               0.000000000               0.000000000               0.000000000               0.000000000               0.000000000               0.000000000               0.000000000               0.000000000               0.000000000               0.000000000               0.000000000               0.000000000               0.000000000               0.000000000               0.000000000               0.000000000               0.000000000               0.000000000               0.000000000               0.000000000               0.000000000               0.000000000               0.000000000               0.000000000               0.000000000               0.000000000               0.000000000               0.000000000               0.000000000               0.000000000               0.000000000               0.000000000               0.000000000               0.000000000               0.000000000               0.000000000               0.000000000               0.000000000               0.000000000               0.000000000               0.000000000               0.000000000               0.000000000               0.000000000               0.000000000               0.000000000               0.000000000               0.000000000               0.000000000               0.000000000               0.000000000               0.000000000               0.000000000               0.000000000               0.000000000               0.000000000               0.000000000               0.000000000               0.000000000               0.000000000               0.000000000               0.000000000               0.000000000               0.000000000               0.000000000               0.000000000               0.000000000               0.000000000               0.000000000               0.000000000               0.000000000               0.000000000               0.000000000               0.000000000               0.000000000               0.000000000               0.000000000               0.000000000               0.000000000               0.000000000               0.000000000               0.000000000               0.000000000               0.000000000               0.000000000               0.000000000               0.000000000               0.000000000               0.000000000               0.000000000               0.000000000               0.000000000               0.000000000               0.000000000               0.000000000               0.002306551               0.023879547               0.001656851              -0.002119982               0.008666430               0.006546448               0.000000000               0.000000000               0.000000000               0.000000000               0.002136148               0.018650832               0.000816903              -0.001530295               0.006726980               0.005196685               0.000000000               0.000000000               0.000000000               0.000000000               0.002676701               0.014418391              -0.000016078              -0.000798534               0.005072260               0.004273726               0.000000000               0.000000000               0.000000000               0.000000000               0.002489720               0.012003105              -0.000364972              -0.000566742               0.004189909               0.003623167               0.000000000               0.000000000               0.000000000               0.000000000               0.002102608               0.010466909              -0.000509515              -0.000519884               0.003662229               0.003142345               0.000000000               0.000000000               0.000000000               0.000000000               0.001694890               0.009405989              -0.000559152              -0.000540164               0.003315353               0.002775189               0.000000000               0.000000000               0.000000000               0.000000000               0.001321423               0.008613571              -0.000558934              -0.000581161               0.003064882               0.002483721               0.000000000               0.000000000               0.000000000               0.000000000               0.000994192               0.007973390              -0.000540839              -0.000623850               0.002865720               0.002241870               0.000000000               0.000000000               0.000000000               0.000000000               0.000720684               0.007430508              -0.000514398              -0.000658555               0.002696330               0.002037774               0.000000000               0.000000000               0.000000000               0.000000000               0.000492444               0.006941254              -0.000482834              -0.000682989               0.002541391               0.001858402               0.000000000               0.000000000               0.000000000               0.000000000               0.000302618               0.006474561              -0.000451140              -0.000695837               0.002390111               0.001694274               0.000000000               0.000000000               0.000000000               0.000000000               0.000148911               0.006010909              -0.000413680              -0.000695520               0.002235457               0.001539936               0.000000000               0.000000000               0.000000000               0.000000000               0.000031625               0.005527877              -0.000366392              -0.000679123               0.002068982               0.001389858               0.000000000               0.000000000               0.000000000               0.000000000              -0.000039227               0.005011202              -0.000308206              -0.000641109               0.001884087               0.001242978               0.000000000               0.000000000               0.000000000               0.000000000              -0.000063148               0.004450135              -0.000235033              -0.000579946               0.001676679               0.001096733               0.000000000               0.000000000               0.000000000               0.000000000              -0.000044464               0.003828499              -0.000133590              -0.000495235               0.001441232               0.000945997               0.000000000               0.000000000               0.000000000               0.000000000              -0.000075752               0.003358076              -0.000084635              -0.000448166               0.001268736               0.000820571               0.000000000               0.000000000               0.000000000               0.000000000               0.002489912               0.022417736               0.003076422              -0.001868497               0.008095336               0.006226839               0.000000000               0.000000000               0.000000000               0.000000000               0.001973480               0.017707848               0.001515410              -0.001473423               0.006393698               0.004920275               0.000000000               0.000000000               0.000000000               0.000000000               0.002143922               0.014012069              -0.000016473              -0.000947535               0.004986488               0.004038953               0.000000000               0.000000000               0.000000000               0.000000000               0.001825013               0.011869213              -0.000634439              -0.000799270               0.004222788               0.003423518               0.000000000               0.000000000               0.000000000               0.000000000               0.001412576               0.010474611              -0.000878107              -0.000779609               0.003751372               0.002971763               0.000000000               0.000000000               0.000000000               0.000000000               0.001023501               0.009479692              -0.000958550              -0.000801147               0.003426915               0.002625768               0.000000000               0.000000000               0.000000000               0.000000000               0.000695453               0.008715284              -0.000957102              -0.000828614               0.003181270               0.002352656               0.000000000               0.000000000               0.000000000               0.000000000               0.000427625               0.008084301              -0.000925235              -0.000850177               0.002978132               0.002127956               0.000000000               0.000000000               0.000000000               0.000000000               0.000219650               0.007538262              -0.000882638              -0.000859912               0.002799366               0.001939454               0.000000000               0.000000000               0.000000000               0.000000000               0.000064962               0.007038267              -0.000828977              -0.000855421               0.002631205               0.001775785               0.000000000               0.000000000               0.000000000               0.000000000              -0.000045275               0.006555601              -0.000773537              -0.000836426               0.002463987               0.001627561               0.000000000               0.000000000               0.000000000               0.000000000              -0.000117612               0.006073637              -0.000710033              -0.000803307               0.002292294               0.001488987               0.000000000               0.000000000               0.000000000               0.000000000              -0.000153537               0.005587685              -0.000628122              -0.000756035               0.002114555               0.001358519               0.000000000               0.000000000               0.000000000               0.000000000              -0.000157372               0.005093839              -0.000528379              -0.000695743               0.001929843               0.001234101               0.000000000               0.000000000               0.000000000               0.000000000              -0.000129965               0.004590362              -0.000402081              -0.000622531               0.001737616               0.001115085               0.000000000               0.000000000               0.000000000               0.000000000              -0.000072211               0.004074727              -0.000227061              -0.000536419               0.001537035               0.001000616               0.000000000               0.000000000               0.000000000               0.000000000              -0.000077111               0.003711358              -0.000140711              -0.000492835               0.001401385               0.000908550               0.000000000               0.000000000               0.000000000               0.000000000               0.002669367               0.020209406               0.004080387              -0.001525162               0.007244788               0.005719626               0.000000000               0.000000000               0.000000000               0.000000000               0.001672756               0.016306419               0.002016165              -0.001411016               0.005905757               0.004494741               0.000000000               0.000000000               0.000000000               0.000000000               0.001326486               0.013409284               0.000021703              -0.001178725               0.004862625               0.003683900               0.000000000               0.000000000               0.000000000               0.000000000               0.000846419               0.011647403              -0.000738772              -0.001138516               0.004261934               0.003123418               0.000000000               0.000000000               0.000000000               0.000000000               0.000431307               0.010436070              -0.001024880              -0.001142766               0.003859577               0.002716811               0.000000000               0.000000000               0.000000000               0.000000000               0.000106281               0.009528956              -0.001114827              -0.001151262               0.003560041               0.002408779               0.000000000               0.000000000               0.000000000               0.000000000              -0.000133645               0.008795903              -0.001112090              -0.001149602               0.003315139               0.002165537               0.000000000               0.000000000               0.000000000               0.000000000              -0.000301770               0.008175689              -0.001075230              -0.001135122               0.003103577               0.001968454               0.000000000               0.000000000               0.000000000               0.000000000              -0.000409979               0.007621535              -0.001025373              -0.001106431               0.002909297               0.001802865               0.000000000               0.000000000               0.000000000               0.000000000              -0.000458406               0.007103956              -0.000961726              -0.001059894               0.002721260               0.001661365               0.000000000               0.000000000               0.000000000               0.000000000              -0.000458856               0.006603146              -0.000891405              -0.000997462               0.002533514               0.001536052               0.000000000               0.000000000               0.000000000               0.000000000              -0.000428200               0.006110804              -0.000811774              -0.000924423               0.002345055               0.001420632               0.000000000               0.000000000               0.000000000               0.000000000              -0.000366888               0.005635698              -0.000715093              -0.000842044               0.002159228               0.001317185               0.000000000               0.000000000               0.000000000               0.000000000              -0.000283720               0.005186748              -0.000595921              -0.000754737               0.001980478               0.001225741               0.000000000               0.000000000               0.000000000               0.000000000              -0.000190988               0.004771029              -0.000442892              -0.000667997               0.001812993               0.001144995               0.000000000               0.000000000               0.000000000               0.000000000              -0.000097159               0.004404036              -0.000242945              -0.000586938               0.001663643               0.001076705               0.000000000               0.000000000               0.000000000               0.000000000              -0.000074260               0.004184613              -0.000142640              -0.000550923               0.001578498               0.001027575               0.000000000               0.000000000               0.000000000               0.000000000               0.002699007               0.017509661               0.004579044              -0.001176581               0.006228688               0.005052107               0.000000000               0.000000000               0.000000000               0.000000000               0.001198004               0.014619245               0.002297273              -0.001378152               0.005332416               0.003954265               0.000000000               0.000000000               0.000000000               0.000000000               0.000314318               0.012671721               0.000128429              -0.001466092               0.004712562               0.003246470               0.000000000               0.000000000               0.000000000               0.000000000              -0.000272189               0.011326287              -0.000649307              -0.001517853               0.004281342               0.002763489               0.000000000               0.000000000               0.000000000               0.000000000              -0.000633972               0.010302563              -0.000930943              -0.001525556               0.003942672               0.002417116               0.000000000               0.000000000               0.000000000               0.000000000              -0.000851700               0.009474043              -0.001018372              -0.001503639               0.003659196               0.002155557               0.000000000               0.000000000               0.000000000               0.000000000              -0.000967158               0.008775818              -0.001017207              -0.001459658               0.003411796               0.001952138               0.000000000               0.000000000               0.000000000               0.000000000              -0.001005243               0.008164776              -0.000983167              -0.001397560               0.003187418               0.001789858               0.000000000               0.000000000               0.000000000               0.000000000              -0.000982336               0.007601299              -0.000936504              -0.001318535               0.002973253               0.001654717               0.000000000               0.000000000               0.000000000               0.000000000              -0.000906971               0.007069697              -0.000874983              -0.001223823               0.002764483               0.001540660               0.000000000               0.000000000               0.000000000               0.000000000              -0.000793697               0.006564426              -0.000802662              -0.001118187               0.002560849               0.001442662               0.000000000               0.000000000               0.000000000               0.000000000              -0.000656175               0.006088009              -0.000719954              -0.001007064               0.002365004               0.001357940               0.000000000               0.000000000               0.000000000               0.000000000              -0.000506415               0.005650146              -0.000620558              -0.000896172               0.002182087               0.001285915               0.000000000               0.000000000               0.000000000               0.000000000              -0.000357930               0.005264256              -0.000500814              -0.000792254               0.002018819               0.001226565               0.000000000               0.000000000               0.000000000               0.000000000              -0.000219561               0.004947559              -0.000354601              -0.000700779               0.001882763               0.001181984               0.000000000               0.000000000               0.000000000               0.000000000              -0.000102256               0.004721534              -0.000183389              -0.000628536               0.001783341               0.001154805               0.000000000               0.000000000               0.000000000               0.000000000              -0.000059444               0.004618969              -0.000098750              -0.000599661               0.001739528               0.001139867               0.000000000               0.000000000               0.000000000               0.000000000               0.002442751               0.014590639               0.004581416              -0.000907800               0.005166097               0.004258297               0.000000000               0.000000000               0.000000000               0.000000000               0.000546422               0.012824566               0.002384762              -0.001398160               0.004740865               0.003342705               0.000000000               0.000000000               0.000000000               0.000000000              -0.000772797               0.011860232               0.000320797              -0.001772324               0.004544146               0.002771822               0.000000000               0.000000000               0.000000000               0.000000000              -0.001363935               0.010897563              -0.000378128              -0.001873666               0.004257040               0.002383374               0.000000000               0.000000000               0.000000000               0.000000000              -0.001609089               0.010033671              -0.000627201              -0.001857612               0.003963728               0.002106115               0.000000000               0.000000000               0.000000000               0.000000000              -0.001678740               0.009280781              -0.000714420              -0.001789621               0.003690103               0.001900482               0.000000000               0.000000000               0.000000000               0.000000000              -0.001640826               0.008620561              -0.000727528              -0.001692876               0.003437783               0.001744908               0.000000000               0.000000000               0.000000000               0.000000000              -0.001530433               0.008018907              -0.000709602              -0.001576272               0.003198366               0.001622094               0.000000000               0.000000000               0.000000000               0.000000000              -0.001365506               0.007455696              -0.000679278              -0.001444023               0.002966548               0.001522525               0.000000000               0.000000000               0.000000000               0.000000000              -0.001165954               0.006928959              -0.000634265              -0.001303349               0.002744080               0.001440730               0.000000000               0.000000000               0.000000000               0.000000000              -0.000953533               0.006441610              -0.000573391              -0.001162773               0.002534773               0.001372000               0.000000000               0.000000000               0.000000000               0.000000000              -0.000738591               0.006000280              -0.000498950              -0.001027004               0.002342408               0.001315404               0.000000000               0.000000000               0.000000000               0.000000000              -0.000531120               0.005617341              -0.000411714              -0.000901335               0.002172873               0.001271538               0.000000000               0.000000000               0.000000000               0.000000000              -0.000349107               0.005304434              -0.000313165              -0.000793967               0.002032783               0.001238815               0.000000000               0.000000000               0.000000000               0.000000000              -0.000199209               0.005073139              -0.000204893              -0.000708844               0.001927311               0.001218467               0.000000000               0.000000000               0.000000000               0.000000000              -0.000086132               0.004930926              -0.000096711              -0.000648664               0.001859847               0.001211183               0.000000000               0.000000000               0.000000000               0.000000000              -0.000045900               0.004875832              -0.000048415              -0.000626690               0.001834158               0.001207468               0.000000000               0.000000000               0.000000000               0.000000000               0.001836446               0.011697870               0.004173765              -0.000773568               0.004157106               0.003383537               0.000000000               0.000000000               0.000000000               0.000000000              -0.000242155               0.011067974               0.002335444              -0.001474303               0.004180721               0.002706419               0.000000000               0.000000000               0.000000000               0.000000000              -0.001813733               0.011006183               0.000608819              -0.002055918               0.004353997               0.002298079               0.000000000               0.000000000               0.000000000               0.000000000              -0.002295736               0.010359812               0.000039103              -0.002155872               0.004171860               0.002015988               0.000000000               0.000000000               0.000000000               0.000000000              -0.002366648               0.009636144              -0.000186603              -0.002092006               0.003909351               0.001817345               0.000000000               0.000000000               0.000000000               0.000000000              -0.002264529               0.008964881              -0.000290159              -0.001969804               0.003644865               0.001675061               0.000000000               0.000000000               0.000000000               0.000000000              -0.002066975               0.008344217              -0.000331531              -0.001818138               0.003387424               0.001569286               0.000000000               0.000000000               0.000000000               0.000000000              -0.001810789               0.007759442              -0.000344719              -0.001648972               0.003136112               0.001487140               0.000000000               0.000000000               0.000000000               0.000000000              -0.001516378               0.007214371              -0.000344824              -0.001470434               0.002894911               0.001424477               0.000000000               0.000000000               0.000000000               0.000000000              -0.001215637               0.006709580              -0.000328538              -0.001294558               0.002668024               0.001373465               0.000000000               0.000000000               0.000000000               0.000000000              -0.000933702               0.006252990              -0.000293718              -0.001131759               0.002461562               0.001329803               0.000000000               0.000000000               0.000000000               0.000000000              -0.000677605               0.005859257              -0.000244812              -0.000986507               0.002281902               0.001295395               0.000000000               0.000000000               0.000000000               0.000000000              -0.000453330               0.005535707              -0.000188554              -0.000861960               0.002132537               0.001270577               0.000000000               0.000000000               0.000000000               0.000000000              -0.000272330               0.005287881              -0.000132466              -0.000763107               0.002016978               0.001253871               0.000000000               0.000000000               0.000000000               0.000000000              -0.000139570               0.005116238              -0.000077968              -0.000691867               0.001936018               0.001244151               0.000000000               0.000000000               0.000000000               0.000000000              -0.000053915               0.005011684              -0.000032085              -0.000646677               0.001886104               0.001239427               0.000000000               0.000000000               0.000000000               0.000000000              -0.000030829               0.004965646              -0.000017310              -0.000632265               0.001865954               0.001233689               0.000000000               0.000000000               0.000000000               0.000000000               0.000918898               0.009023740               0.003467221              -0.000783382               0.003269009               0.002485628               0.000000000               0.000000000               0.000000000               0.000000000              -0.001117385               0.009453816               0.002206675              -0.001600744               0.003684821               0.002084078               0.000000000               0.000000000               0.000000000               0.000000000              -0.002700440               0.010121451               0.000984629              -0.002277841               0.004133063               0.001855222               0.000000000               0.000000000               0.000000000               0.000000000              -0.002969971               0.009729023               0.000536657              -0.002329861               0.004019595               0.001689734               0.000000000               0.000000000               0.000000000               0.000000000              -0.002836626               0.009142944               0.000309563              -0.002206597               0.003783150               0.001576553               0.000000000               0.000000000               0.000000000               0.000000000              -0.002570302               0.008550616               0.000169834              -0.002032685               0.003527739               0.001495054               0.000000000               0.000000000               0.000000000               0.000000000              -0.002226974               0.007977299               0.000084404              -0.001832273               0.003269831               0.001437558               0.000000000               0.000000000               0.000000000               0.000000000              -0.001844698               0.007427976               0.000025577              -0.001620255               0.003016052               0.001395797               0.000000000               0.000000000               0.000000000               0.000000000              -0.001458684               0.006912589              -0.000017093              -0.001411077               0.002774532               0.001363456               0.000000000               0.000000000               0.000000000               0.000000000              -0.001098201               0.006437392              -0.000039202              -0.001216497               0.002551275               0.001334778               0.000000000               0.000000000               0.000000000               0.000000000              -0.000782826               0.006020223              -0.000045291              -0.001046085               0.002355416               0.001309331               0.000000000               0.000000000               0.000000000               0.000000000              -0.000517885               0.005675929              -0.000039337              -0.000903696               0.002193189               0.001289493               0.000000000               0.000000000               0.000000000               0.000000000              -0.000308026               0.005409752              -0.000028980              -0.000791727               0.002067142               0.001275415               0.000000000               0.000000000               0.000000000               0.000000000              -0.000158597               0.005218779              -0.000022225              -0.000711819               0.001976849               0.001265029               0.000000000               0.000000000               0.000000000               0.000000000              -0.000066081               0.005094428              -0.000014837              -0.000661582               0.001918653               0.001257071               0.000000000               0.000000000               0.000000000               0.000000000              -0.000020141               0.005022031              -0.000006827              -0.000635305               0.001885762               0.001250457               0.000000000               0.000000000               0.000000000               0.000000000              -0.000014664               0.004990078              -0.000006556              -0.000629257               0.001873095               0.001243838               0.000000000               0.000000000               0.000000000               0.000000000              -0.000193273               0.006768038               0.002587882              -0.000918482               0.002562150               0.001643668               0.000000000               0.000000000               0.000000000               0.000000000              -0.001975832               0.008016892               0.002053132              -0.001743045               0.003253285               0.001510240               0.000000000               0.000000000               0.000000000               0.000000000              -0.003385585               0.009259956               0.001432691              -0.002427083               0.003895649               0.001468565               0.000000000               0.000000000               0.000000000               0.000000000              -0.003414827               0.009133959               0.001067921              -0.002422299               0.003852055               0.001429756               0.000000000               0.000000000               0.000000000               0.000000000              -0.003102261               0.008710223               0.000820764              -0.002252120               0.003654085               0.001401965               0.000000000               0.000000000               0.000000000               0.000000000              -0.002701040               0.008217306               0.000632492              -0.002040048               0.003419091               0.001379042               0.000000000               0.000000000               0.000000000               0.000000000              -0.002247542               0.007706922               0.000489348              -0.001806189               0.003171011               0.001364822               0.000000000               0.000000000               0.000000000               0.000000000              -0.001779107               0.007203339               0.000375893              -0.001567578               0.002923615               0.001356037               0.000000000               0.000000000               0.000000000               0.000000000              -0.001337634               0.006719357               0.000286396              -0.001341529               0.002686940               0.001345411               0.000000000               0.000000000               0.000000000               0.000000000              -0.000946432               0.006271663               0.000218347              -0.001138867               0.002470156               0.001331289               0.000000000               0.000000000               0.000000000               0.000000000              -0.000616472               0.005884330               0.000163114              -0.000966716               0.002283662               0.001316947               0.000000000               0.000000000               0.000000000               0.000000000              -0.000351358               0.005572242               0.000115909              -0.000828288               0.002133491               0.001305204               0.000000000               0.000000000               0.000000000               0.000000000              -0.000159652               0.005339760               0.000074024              -0.000727338               0.002022348               0.001295010               0.000000000               0.000000000               0.000000000               0.000000000              -0.000047919               0.005179060               0.000036322              -0.000665351               0.001948120               0.001282769               0.000000000               0.000000000               0.000000000               0.000000000              -0.000001149               0.005078203               0.000009951              -0.000635205               0.001904452               0.001269248               0.000000000               0.000000000               0.000000000               0.000000000               0.000006906               0.005022158              -0.000001219              -0.000625178               0.001882429               0.001257250               0.000000000               0.000000000               0.000000000               0.000000000               0.000002445               0.005003165              -0.000003896              -0.000624477               0.001875864               0.001251387               0.000000000               0.000000000               0.000000000               0.000000000              -0.001512260               0.004677762               0.001655985              -0.001151816               0.001943177               0.000791361               0.000000000               0.000000000               0.000000000               0.000000000              -0.002691578               0.006383360               0.001880362              -0.001807258               0.002730184               0.000922926               0.000000000               0.000000000               0.000000000               0.000000000              -0.003773147               0.008048042               0.001907019              -0.002420930               0.003489630               0.001068700               0.000000000               0.000000000               0.000000000               0.000000000              -0.003666546               0.008304351               0.001640105              -0.002412993               0.003572420               0.001159427               0.000000000               0.000000000               0.000000000               0.000000000              -0.003275118               0.008136984               0.001372707              -0.002245287               0.003460730               0.001215443               0.000000000               0.000000000               0.000000000               0.000000000              -0.002831611               0.007834454               0.001140629              -0.002041156               0.003291844               0.001250688               0.000000000               0.000000000               0.000000000               0.000000000              -0.002363097               0.007476682               0.000940287              -0.001820742               0.003099116               0.001278374               0.000000000               0.000000000               0.000000000               0.000000000              -0.001885241               0.007089631               0.000768478              -0.001593166               0.002894242               0.001301076               0.000000000               0.000000000               0.000000000               0.000000000              -0.001427782               0.006694450               0.000627502              -0.001372221               0.002688868               0.001316647               0.000000000               0.000000000               0.000000000               0.000000000              -0.001016890               0.006309069               0.000507393              -0.001169965               0.002492990               0.001323026               0.000000000               0.000000000               0.000000000               0.000000000              -0.000667480               0.005955847               0.000401153              -0.000994783               0.002316857               0.001322074               0.000000000               0.000000000               0.000000000               0.000000000              -0.000379139               0.005659365               0.000302359              -0.000849596               0.002169635               0.001320039               0.000000000               0.000000000               0.000000000               0.000000000              -0.000161614               0.005421294               0.000205435              -0.000738265               0.002053169               0.001314903               0.000000000               0.000000000               0.000000000               0.000000000              -0.000023166               0.005241754               0.000117992              -0.000663905               0.001968536               0.001304631               0.000000000               0.000000000               0.000000000               0.000000000               0.000041543               0.005119388               0.000052716              -0.000624343               0.001914560               0.001290217               0.000000000               0.000000000               0.000000000               0.000000000               0.000054678               0.005045549               0.000014775              -0.000610188               0.001885229               0.001275041               0.000000000               0.000000000               0.000000000               0.000000000               0.000050376               0.005021012               0.000002459              -0.000608734               0.001876565               0.001267831               0.000000000               0.000000000               0.000000000               0.000000000              -0.003205896               0.002792339               0.000740721              -0.001551250               0.001447853              -0.000103398               0.000000000               0.000000000               0.000000000               0.000000000              -0.003499784               0.004755861               0.001642949              -0.001906898               0.002220903               0.000314005               0.000000000               0.000000000               0.000000000               0.000000000              -0.004057011               0.006656166               0.002285292              -0.002353395               0.003003164               0.000649769               0.000000000               0.000000000               0.000000000               0.000000000              -0.003829128               0.007277414               0.002182718              -0.002345594               0.003207645               0.000862050               0.000000000               0.000000000               0.000000000               0.000000000              -0.003395015               0.007399839               0.001931051              -0.002198106               0.003199290               0.001001184               0.000000000               0.000000000               0.000000000               0.000000000              -0.002937097               0.007320704               0.001674004              -0.002016495               0.003112375               0.001095880               0.000000000               0.000000000               0.000000000               0.000000000              -0.002480635               0.007143648               0.001435605              -0.001823190               0.002988922               0.001165732               0.000000000               0.000000000               0.000000000               0.000000000              -0.002012223               0.006907110               0.001221443              -0.001617968               0.002841669               0.001223701               0.000000000               0.000000000               0.000000000               0.000000000              -0.001550844               0.006631826               0.001034849              -0.001410542               0.002680767               0.001270225               0.000000000               0.000000000               0.000000000               0.000000000              -0.001120272               0.006334233               0.000867484              -0.001211878               0.002515349               0.001303471               0.000000000               0.000000000               0.000000000               0.000000000              -0.000735960               0.006036727               0.000717462              -0.001030573               0.002355747               0.001325173               0.000000000               0.000000000               0.000000000               0.000000000              -0.000407449               0.005763917               0.000574002              -0.000873281               0.002212380               0.001339099               0.000000000               0.000000000               0.000000000               0.000000000              -0.000143035               0.005525698               0.000426614              -0.000744349               0.002089997               0.001345649               0.000000000               0.000000000               0.000000000               0.000000000               0.000047281               0.005327695               0.000283187              -0.000648230               0.001991957               0.001343727               0.000000000               0.000000000               0.000000000               0.000000000               0.000153020               0.005172876               0.000157872              -0.000589226               0.001920683               0.001331458               0.000000000               0.000000000               0.000000000               0.000000000               0.000180560               0.005068648               0.000064192              -0.000565870               0.001878156               0.001312286               0.000000000               0.000000000               0.000000000               0.000000000               0.000168627               0.005026526               0.000023654              -0.000565079               0.001863852               0.001298772               0.000000000               0.000000000               0.000000000               0.000000000              -0.005157537               0.001263842              -0.000077106              -0.002092054               0.001118624              -0.000973429               0.000000000               0.000000000               0.000000000               0.000000000              -0.004455640               0.003234236               0.001321895              -0.002075141               0.001769780              -0.000305361               0.000000000               0.000000000               0.000000000               0.000000000              -0.004296090               0.005093759               0.002451562              -0.002247749               0.002447151               0.000199402               0.000000000               0.000000000               0.000000000               0.000000000              -0.003860761               0.005964552               0.002547174              -0.002193350               0.002719280               0.000525930               0.000000000               0.000000000               0.000000000               0.000000000              -0.003365667               0.006352711               0.002358836              -0.002056210               0.002802952               0.000746742               0.000000000               0.000000000               0.000000000               0.000000000              -0.002888678               0.006503790               0.002112233              -0.001896224               0.002799982               0.000903758               0.000000000               0.000000000               0.000000000               0.000000000              -0.002440176               0.006526384               0.001870536              -0.001730860               0.002752392               0.001021532               0.000000000               0.000000000               0.000000000               0.000000000              -0.001993445               0.006465293               0.001645350              -0.001555700               0.002673643               0.001117942               0.000000000               0.000000000               0.000000000               0.000000000              -0.001548167               0.006337369               0.001435815              -0.001372731               0.002570012               0.001197281               0.000000000               0.000000000               0.000000000               0.000000000              -0.001114483               0.006164851               0.001241810              -0.001188535               0.002451108               0.001262573               0.000000000               0.000000000               0.000000000               0.000000000              -0.000706057               0.005966259               0.001061749              -0.001010552               0.002325583               0.001315032               0.000000000               0.000000000               0.000000000               0.000000000              -0.000344611               0.005755637               0.000884248              -0.000848682               0.002201420               0.001352738               0.000000000               0.000000000               0.000000000               0.000000000              -0.000037759               0.005552528               0.000699532              -0.000708224               0.002086899               0.001378675               0.000000000               0.000000000               0.000000000               0.000000000               0.000204373               0.005368703               0.000507398              -0.000594447               0.001987699               0.001393252               0.000000000               0.000000000               0.000000000               0.000000000               0.000364234               0.005207619               0.000318856              -0.000514363               0.001907310               0.001392947               0.000000000               0.000000000               0.000000000               0.000000000               0.000428713               0.005084721               0.000148627              -0.000474822               0.001853164               0.001378342               0.000000000               0.000000000               0.000000000               0.000000000               0.000421237               0.005026501               0.000065342              -0.000470348               0.001832266               0.001361918               0.000000000               0.000000000               0.000000000               0.000000000              -0.007235993               0.000157395              -0.000681381              -0.002733169               0.000963515              -0.001769655               0.000000000               0.000000000               0.000000000               0.000000000              -0.005499622               0.001891618               0.000959849              -0.002298807               0.001396799              -0.000902009               0.000000000               0.000000000               0.000000000               0.000000000              -0.004508531               0.003479829               0.002372584              -0.002125674               0.001868487              -0.000257187               0.000000000               0.000000000               0.000000000               0.000000000              -0.003787138               0.004464719               0.002645765              -0.001978263               0.002147644               0.000169381               0.000000000               0.000000000               0.000000000               0.000000000              -0.003195901               0.005063908               0.002549376              -0.001831448               0.002298434               0.000466986               0.000000000               0.000000000               0.000000000               0.000000000              -0.002683334               0.005433583               0.002346057              -0.001685445               0.002372990               0.000687545               0.000000000               0.000000000               0.000000000               0.000000000              -0.002233184               0.005658917               0.002128509              -0.001544806               0.002401221               0.000856416               0.000000000               0.000000000               0.000000000               0.000000000              -0.001810378               0.005774288               0.001920300              -0.001400675               0.002391635               0.000990959               0.000000000               0.000000000               0.000000000               0.000000000              -0.001392051               0.005804670               0.001720508              -0.001247600               0.002350737               0.001103137               0.000000000               0.000000000               0.000000000               0.000000000              -0.000973320               0.005777135               0.001528472              -0.001087135               0.002288070               0.001200936               0.000000000               0.000000000               0.000000000               0.000000000              -0.000565343               0.005706804               0.001339822              -0.000925352               0.002210699               0.001285347               0.000000000               0.000000000               0.000000000               0.000000000              -0.000178817               0.005603324               0.001149918              -0.000767471               0.002123579               0.001356109               0.000000000               0.000000000               0.000000000               0.000000000               0.000174833               0.005476191               0.000952441              -0.000618961               0.002031699               0.001412738               0.000000000               0.000000000               0.000000000               0.000000000               0.000480869               0.005338388               0.000738038              -0.000486972               0.001941769               0.001454797               0.000000000               0.000000000               0.000000000               0.000000000               0.000721118               0.005206172               0.000505350              -0.000380352               0.001862157               0.001481805               0.000000000               0.000000000               0.000000000               0.000000000               0.000866729               0.005092345               0.000257867              -0.000311519               0.001801271               0.001489752               0.000000000               0.000000000               0.000000000               0.000000000               0.000905099               0.005035673               0.000129763              -0.000290046               0.001775223               0.001485177               0.000000000               0.000000000               0.000000000               0.000000000              -0.009243173              -0.000558259              -0.000974746              -0.003396405               0.000946042              -0.002450363               0.000000000               0.000000000               0.000000000               0.000000000              -0.006540595               0.000793549               0.000616349              -0.002551914               0.001115146              -0.001436768               0.000000000               0.000000000               0.000000000               0.000000000              -0.004698350               0.001972627               0.002043585              -0.002008457               0.001327018              -0.000681439               0.000000000               0.000000000               0.000000000               0.000000000              -0.003643220               0.002956644               0.002415706              -0.001735785               0.001564131              -0.000171654               0.000000000               0.000000000               0.000000000               0.000000000              -0.002926188               0.003691849               0.002407701              -0.001558799               0.001750202               0.000191404               0.000000000               0.000000000               0.000000000               0.000000000              -0.002372854               0.004232336               0.002267457              -0.001418860               0.001883717               0.000464857               0.000000000               0.000000000               0.000000000               0.000000000              -0.001908291               0.004628634               0.002096331              -0.001294186               0.001974257               0.000680071               0.000000000               0.000000000               0.000000000               0.000000000              -0.001494838               0.004907563               0.001927830              -0.001174008               0.002027173               0.000853166               0.000000000               0.000000000               0.000000000               0.000000000              -0.001098590               0.005096768               0.001763104              -0.001049066               0.002048594               0.000999528               0.000000000               0.000000000               0.000000000               0.000000000              -0.000704519               0.005215065               0.001598007              -0.000916076               0.002043696               0.001127620               0.000000000               0.000000000               0.000000000               0.000000000              -0.000305908               0.005283747               0.001430880              -0.000775183               0.002019625               0.001244443               0.000000000               0.000000000               0.000000000               0.000000000               0.000098274               0.005312954               0.001261439              -0.000627266               0.001980055               0.001352789               0.000000000               0.000000000               0.000000000               0.000000000               0.000499409               0.005299279               0.001080857              -0.000475131               0.001924785               0.001449654               0.000000000               0.000000000               0.000000000               0.000000000               0.000882073               0.005242030               0.000875790              -0.000324476               0.001855484               0.001531008               0.000000000               0.000000000               0.000000000               0.000000000               0.001230463               0.005162666               0.000633878              -0.000183909               0.001782175               0.001598265               0.000000000               0.000000000               0.000000000               0.000000000               0.001518646               0.005082326               0.000340383              -0.000065799               0.001716025               0.001650226               0.000000000               0.000000000               0.000000000               0.000000000               0.001672564               0.005052455               0.000185698              -0.000004346               0.001685583               0.001681238               0.000000000               0.000000000               0.000000000               0.000000000              -0.010932458              -0.000953917              -0.000917902              -0.003980430               0.001008830              -0.002971599               0.000000000               0.000000000               0.000000000               0.000000000              -0.007443281              -0.000007635               0.000339047              -0.002790274               0.000927540              -0.001862734               0.000000000               0.000000000               0.000000000               0.000000000              -0.004864632               0.000741085               0.001497415              -0.001916871               0.000885978              -0.001030892               0.000000000               0.000000000               0.000000000               0.000000000              -0.003488422               0.001649825               0.001849517              -0.001514384               0.001054728              -0.000459656               0.000000000               0.000000000               0.000000000               0.000000000              -0.002634906               0.002451176               0.001888911              -0.001294484               0.001248544              -0.000045941               0.000000000               0.000000000               0.000000000               0.000000000              -0.002029488               0.003103106               0.001811385              -0.001148944               0.001417339               0.000268395               0.000000000               0.000000000               0.000000000               0.000000000              -0.001545172               0.003622809               0.001700998              -0.001032289               0.001551687               0.000519398               0.000000000               0.000000000               0.000000000               0.000000000              -0.001128979               0.004032633               0.001585183              -0.000927445               0.001653345               0.000725900               0.000000000               0.000000000               0.000000000               0.000000000              -0.000747121               0.004355906               0.001468163              -0.000824657               0.001726839               0.000902182               0.000000000               0.000000000               0.000000000               0.000000000              -0.000370109               0.004604102               0.001350101              -0.000714303               0.001772786               0.001058483               0.000000000               0.000000000               0.000000000               0.000000000               0.000021588               0.004795253               0.001229833              -0.000591311               0.001795505               0.001204194               0.000000000               0.000000000               0.000000000               0.000000000               0.000435048               0.004945358               0.001105283              -0.000455026               0.001800112               0.001345085               0.000000000               0.000000000               0.000000000               0.000000000               0.000872060               0.005045735               0.000969991              -0.000303694               0.001783126               0.001479432               0.000000000               0.000000000               0.000000000               0.000000000               0.001330527               0.005087667               0.000808364              -0.000137011               0.001741542               0.001604531               0.000000000               0.000000000               0.000000000               0.000000000               0.001804062               0.005083656               0.000603074               0.000041065               0.001680846               0.001721912               0.000000000               0.000000000               0.000000000               0.000000000               0.002288934               0.005050449               0.000332895               0.000227042               0.001607785               0.001834827               0.000000000               0.000000000               0.000000000               0.000000000               0.002627130               0.005061943               0.000191470               0.000352427               0.001569822               0.001922249               0.000000000               0.000000000               0.000000000               0.000000000              -0.012063755              -0.001129702              -0.000550371              -0.004382693               0.001084323              -0.003298370               0.000000000               0.000000000               0.000000000               0.000000000              -0.008058503              -0.000489009               0.000142317              -0.002960811               0.000823928              -0.002136882               0.000000000               0.000000000               0.000000000               0.000000000              -0.004983587              -0.000065311               0.000790738              -0.001860680               0.000598452              -0.001262228               0.000000000               0.000000000               0.000000000               0.000000000              -0.003376561               0.000760465               0.001004388              -0.001361267               0.000707239              -0.000654028               0.000000000               0.000000000               0.000000000               0.000000000              -0.002415636               0.001578306               0.001042740              -0.001103150               0.000893812              -0.000209338               0.000000000               0.000000000               0.000000000               0.000000000              -0.001758299               0.002285849               0.001012150              -0.000945091               0.001076972               0.000131881               0.000000000               0.000000000               0.000000000               0.000000000              -0.001256776               0.002877720               0.000959822              -0.000831004               0.001236232               0.000405227               0.000000000               0.000000000               0.000000000               0.000000000              -0.000838813               0.003366452               0.000900310              -0.000735360               0.001367259               0.000631899               0.000000000               0.000000000               0.000000000               0.000000000              -0.000460688               0.003774702               0.000838911              -0.000644595               0.001473086               0.000828491               0.000000000               0.000000000               0.000000000               0.000000000              -0.000090859               0.004113022               0.000778207              -0.000548199               0.001553726               0.001005527               0.000000000               0.000000000               0.000000000               0.000000000               0.000293734               0.004393121               0.000713777              -0.000438989               0.001610689               0.001171699               0.000000000               0.000000000               0.000000000               0.000000000               0.000711189               0.004628115               0.000647428              -0.000311818               0.001646629               0.001334811               0.000000000               0.000000000               0.000000000               0.000000000               0.001170716               0.004813719               0.000577426              -0.000162696               0.001658789               0.001496093               0.000000000               0.000000000               0.000000000               0.000000000               0.001684159               0.004945353               0.000488116               0.000013390               0.001643971               0.001657361               0.000000000               0.000000000               0.000000000               0.000000000               0.002265588               0.005013137               0.000368063               0.000222951               0.001596712               0.001819663               0.000000000               0.000000000               0.000000000               0.000000000               0.002936178               0.005019459               0.000206210               0.000473629               0.001515260               0.001988889               0.000000000               0.000000000               0.000000000               0.000000000               0.003456244               0.005066447               0.000123350               0.000662779               0.001467872               0.002130651               0.000000000               0.000000000               0.000000000               0.000000000              -0.012461980              -0.001177523               0.000000000              -0.004526049               0.001116168              -0.003409881               0.000000000               0.000000000               0.000000000               0.000000000              -0.008276071              -0.000649656              -0.000000000              -0.003022318               0.000790882              -0.002231436               0.000000000               0.000000000               0.000000000               0.000000000              -0.005026800              -0.000345610              -0.000000000              -0.001841847               0.000498742              -0.001343105               0.000000000               0.000000000               0.000000000               0.000000000              -0.003335896               0.000446113              -0.000000000              -0.001306724               0.000584275              -0.000722449               0.000000000               0.000000000               0.000000000               0.000000000              -0.002333152               0.001265536               0.000000000              -0.001033122               0.000766214              -0.000266908               0.000000000               0.000000000               0.000000000               0.000000000              -0.001656793               0.001986941               0.000000000              -0.000869663               0.000952195               0.000082532               0.000000000               0.000000000               0.000000000               0.000000000              -0.001148041               0.002600004               0.000000000              -0.000755514               0.001118497               0.000362983               0.000000000               0.000000000               0.000000000               0.000000000              -0.000730669               0.003114959               0.000000000              -0.000663369               0.001259432               0.000596063               0.000000000               0.000000000               0.000000000               0.000000000              -0.000351439               0.003552069               0.000000000              -0.000575797               0.001375943               0.000800146               0.000000000               0.000000000               0.000000000               0.000000000               0.000014937               0.003920023               0.000000000              -0.000484400               0.001468128               0.000983728               0.000000000               0.000000000               0.000000000               0.000000000               0.000395058               0.004231161               0.000000000              -0.000380748               0.001537289               0.001156541               0.000000000               0.000000000               0.000000000               0.000000000               0.000816001               0.004500127               0.000000000              -0.000256515               0.001585532               0.001329017               0.000000000               0.000000000               0.000000000               0.000000000               0.001283930               0.004720867               0.000000000              -0.000108635               0.001609818               0.001501184               0.000000000               0.000000000               0.000000000               0.000000000               0.001816115               0.004886695               0.000000000               0.000070205               0.001605480               0.001675686               0.000000000               0.000000000               0.000000000               0.000000000               0.002442713               0.004985207               0.000000000               0.000292863               0.001564098               0.001856961               0.000000000               0.000000000               0.000000000               0.000000000               0.003193243               0.005009202              -0.000000000               0.000571310               0.001479281               0.002050591               0.000000000               0.000000000               0.000000000               0.000000000               0.003789908               0.005069296              -0.000000000               0.000787546               0.001427233               0.002214779               0.000000000               0.000000000               0.000000000               0.000000000               0.002231534               0.024392931               0.000000000              -0.002212285               0.008868324               0.006656039               0.000000000               0.000000000               0.000000000               0.000000000               0.002185904               0.018985146               0.000000000              -0.001553425               0.006846127               0.005292702               0.000000000               0.000000000               0.000000000               0.000000000               0.002858311               0.014563856               0.000000000              -0.000748614               0.005104108               0.004355494               0.000000000               0.000000000               0.000000000               0.000000000               0.002724762               0.012051026              -0.000000000              -0.000484591               0.004178499               0.003693908               0.000000000               0.000000000               0.000000000               0.000000000               0.002353666               0.010459398               0.000000000              -0.000424799               0.003628031               0.003203232               0.000000000               0.000000000               0.000000000               0.000000000               0.001942814               0.009374310               0.000000000              -0.000443233               0.003272483               0.002829250               0.000000000               0.000000000               0.000000000               0.000000000               0.001553946               0.008566609              -0.000000000              -0.000488095               0.003018206               0.002530111               0.000000000               0.000000000               0.000000000               0.000000000               0.001209305               0.007922884              -0.000000000              -0.000536870               0.002819891               0.002283022               0.000000000               0.000000000               0.000000000               0.000000000               0.000913923               0.007382211               0.000000000              -0.000580054               0.002654063               0.002074010               0.000000000               0.000000000               0.000000000               0.000000000               0.000659675               0.006896834              -0.000000000              -0.000614725               0.002503830               0.001889105               0.000000000               0.000000000               0.000000000               0.000000000               0.000439500               0.006437327              -0.000000000              -0.000639852               0.002359038               0.001719186               0.000000000               0.000000000               0.000000000               0.000000000               0.000250472               0.005979463               0.000000000              -0.000653504               0.002210969               0.001557465               0.000000000               0.000000000               0.000000000               0.000000000               0.000105251               0.005498302               0.000000000              -0.000647817               0.002048688               0.001400871               0.000000000               0.000000000               0.000000000               0.000000000               0.000013944               0.004977667              -0.000000000              -0.000616978               0.001864865               0.001247887               0.000000000               0.000000000               0.000000000               0.000000000              -0.000031871               0.004396419              -0.000000000              -0.000561503               0.001652626               0.001091123               0.000000000               0.000000000               0.000000000               0.000000000              -0.000030871               0.003737850              -0.000000000              -0.000478807               0.001405540               0.000926733               0.000000000               0.000000000               0.000000000               0.000000000              -0.000072147               0.003230847              -0.000000000              -0.000430910               0.001220575               0.000789665               0.000000000               0.000000000               0.000000000               0.000000000               0.002306551               0.023879547              -0.001656851              -0.002119982               0.008666430               0.006546448               0.000000000               0.000000000               0.000000000               0.000000000               0.002136148               0.018650832              -0.000816903              -0.001530295               0.006726980               0.005196685               0.000000000               0.000000000               0.000000000               0.000000000               0.002676701               0.014418391               0.000016078              -0.000798534               0.005072260               0.004273726               0.000000000               0.000000000               0.000000000               0.000000000               0.002489720               0.012003105               0.000364972              -0.000566742               0.004189909               0.003623167               0.000000000               0.000000000               0.000000000               0.000000000               0.002102608               0.010466909               0.000509515              -0.000519884               0.003662229               0.003142345               0.000000000               0.000000000               0.000000000               0.000000000               0.001694890               0.009405989               0.000559152              -0.000540164               0.003315353               0.002775189               0.000000000               0.000000000               0.000000000               0.000000000               0.001321423               0.008613571               0.000558934              -0.000581161               0.003064882               0.002483721               0.000000000               0.000000000               0.000000000               0.000000000               0.000994192               0.007973390               0.000540839              -0.000623850               0.002865720               0.002241870               0.000000000               0.000000000               0.000000000               0.000000000               0.000720684               0.007430508               0.000514398              -0.000658555               0.002696330               0.002037774               0.000000000               0.000000000               0.000000000               0.000000000               0.000492444               0.006941254               0.000482834              -0.000682989               0.002541391               0.001858402               0.000000000               0.000000000               0.000000000               0.000000000               0.000302618               0.006474561               0.000451140              -0.000695837               0.002390111               0.001694274               0.000000000               0.000000000               0.000000000               0.000000000               0.000148911               0.006010909               0.000413680              -0.000695520               0.002235457               0.001539936               0.000000000               0.000000000               0.000000000               0.000000000               0.000031625               0.005527877               0.000366392              -0.000679123               0.002068982               0.001389858               0.000000000               0.000000000               0.000000000               0.000000000              -0.000039227               0.005011202               0.000308206              -0.000641109               0.001884087               0.001242978               0.000000000               0.000000000               0.000000000               0.000000000              -0.000063148               0.004450135               0.000235033              -0.000579946               0.001676679               0.001096733               0.000000000               0.000000000               0.000000000               0.000000000              -0.000044464               0.003828499               0.000133590              -0.000495235               0.001441232               0.000945997               0.000000000               0.000000000               0.000000000               0.000000000              -0.000075752               0.003358076               0.000084635              -0.000448166               0.001268736               0.000820571               0.000000000               0.000000000               0.000000000               0.000000000               0.002489912               0.022417736              -0.003076422              -0.001868497               0.008095336               0.006226839               0.000000000               0.000000000               0.000000000               0.000000000               0.001973480               0.017707848              -0.001515410              -0.001473423               0.006393698               0.004920275               0.000000000               0.000000000               0.000000000               0.000000000               0.002143922               0.014012069               0.000016473              -0.000947535               0.004986488               0.004038953               0.000000000               0.000000000               0.000000000               0.000000000               0.001825013               0.011869213               0.000634439              -0.000799270               0.004222788               0.003423518               0.000000000               0.000000000               0.000000000               0.000000000               0.001412576               0.010474611               0.000878107              -0.000779609               0.003751372               0.002971763               0.000000000               0.000000000               0.000000000               0.000000000               0.001023501               0.009479692               0.000958550              -0.000801147               0.003426915               0.002625768               0.000000000               0.000000000               0.000000000               0.000000000               0.000695453               0.008715284               0.000957102              -0.000828614               0.003181270               0.002352656               0.000000000               0.000000000               0.000000000               0.000000000               0.000427625               0.008084301               0.000925235              -0.000850177               0.002978132               0.002127956               0.000000000               0.000000000               0.000000000               0.000000000               0.000219650               0.007538262               0.000882638              -0.000859912               0.002799366               0.001939454               0.000000000               0.000000000               0.000000000               0.000000000               0.000064962               0.007038267               0.000828977              -0.000855421               0.002631205               0.001775785               0.000000000               0.000000000               0.000000000               0.000000000              -0.000045275               0.006555601               0.000773537              -0.000836426               0.002463987               0.001627561               0.000000000               0.000000000               0.000000000               0.000000000              -0.000117612               0.006073637               0.000710033              -0.000803307               0.002292294               0.001488987               0.000000000               0.000000000               0.000000000               0.000000000              -0.000153537               0.005587685               0.000628122              -0.000756035               0.002114555               0.001358519               0.000000000               0.000000000               0.000000000               0.000000000              -0.000157372               0.005093839               0.000528379              -0.000695743               0.001929843               0.001234101               0.000000000               0.000000000               0.000000000               0.000000000              -0.000129965               0.004590362               0.000402081              -0.000622531               0.001737616               0.001115085               0.000000000               0.000000000               0.000000000               0.000000000              -0.000072211               0.004074727               0.000227061              -0.000536419               0.001537035               0.001000616               0.000000000               0.000000000               0.000000000               0.000000000              -0.000077111               0.003711358               0.000140711              -0.000492835               0.001401385               0.000908550               0.000000000               0.000000000               0.000000000               0.000000000               0.002669367               0.020209406              -0.004080387              -0.001525162               0.007244788               0.005719626               0.000000000               0.000000000               0.000000000               0.000000000               0.001672756               0.016306419              -0.002016165              -0.001411016               0.005905757               0.004494741               0.000000000               0.000000000               0.000000000               0.000000000               0.001326486               0.013409284              -0.000021703              -0.001178725               0.004862625               0.003683900               0.000000000               0.000000000               0.000000000               0.000000000               0.000846419               0.011647403               0.000738772              -0.001138516               0.004261934               0.003123418               0.000000000               0.000000000               0.000000000               0.000000000               0.000431307               0.010436070               0.001024880              -0.001142766               0.003859577               0.002716811               0.000000000               0.000000000               0.000000000               0.000000000               0.000106281               0.009528956               0.001114827              -0.001151262               0.003560041               0.002408779               0.000000000               0.000000000               0.000000000               0.000000000              -0.000133645               0.008795903               0.001112090              -0.001149602               0.003315139               0.002165537               0.000000000               0.000000000               0.000000000               0.000000000              -0.000301770               0.008175689               0.001075230              -0.001135122               0.003103577               0.001968454               0.000000000               0.000000000               0.000000000               0.000000000              -0.000409979               0.007621535               0.001025373              -0.001106431               0.002909297               0.001802865               0.000000000               0.000000000               0.000000000               0.000000000              -0.000458406               0.007103956               0.000961726              -0.001059894               0.002721260               0.001661365               0.000000000               0.000000000               0.000000000               0.000000000              -0.000458856               0.006603146               0.000891405              -0.000997462               0.002533514               0.001536052               0.000000000               0.000000000               0.000000000               0.000000000              -0.000428200               0.006110804               0.000811774              -0.000924423               0.002345055               0.001420632               0.000000000               0.000000000               0.000000000               0.000000000              -0.000366888               0.005635698               0.000715093              -0.000842044               0.002159228               0.001317185               0.000000000               0.000000000               0.000000000               0.000000000              -0.000283720               0.005186748               0.000595921              -0.000754737               0.001980478               0.001225741               0.000000000               0.000000000               0.000000000               0.000000000              -0.000190988               0.004771029               0.000442892              -0.000667997               0.001812993               0.001144995               0.000000000               0.000000000               0.000000000               0.000000000              -0.000097159               0.004404036               0.000242945              -0.000586938               0.001663643               0.001076705               0.000000000               0.000000000               0.000000000               0.000000000              -0.000074260               0.004184613               0.000142640              -0.000550923               0.001578498               0.001027575               0.000000000               0.000000000               0.000000000               0.000000000               0.002699007               0.017509661              -0.004579044              -0.001176581               0.006228688               0.005052107               0.000000000               0.000000000               0.000000000               0.000000000               0.001198004               0.014619245              -0.002297273              -0.001378152               0.005332416               0.003954265               0.000000000               0.000000000               0.000000000               0.000000000               0.000314318               0.012671721              -0.000128429              -0.001466092               0.004712562               0.003246470               0.000000000               0.000000000               0.000000000               0.000000000              -0.000272189               0.011326287               0.000649307              -0.001517853               0.004281342               0.002763489               0.000000000               0.000000000               0.000000000               0.000000000              -0.000633972               0.010302563               0.000930943              -0.001525556               0.003942672               0.002417116               0.000000000               0.000000000               0.000000000               0.000000000              -0.000851700               0.009474043               0.001018372              -0.001503639               0.003659196               0.002155557               0.000000000               0.000000000               0.000000000               0.000000000              -0.000967158               0.008775818               0.001017207              -0.001459658               0.003411796               0.001952138               0.000000000               0.000000000               0.000000000               0.000000000              -0.001005243               0.008164776               0.000983167              -0.001397560               0.003187418               0.001789858               0.000000000               0.000000000               0.000000000               0.000000000              -0.000982336               0.007601299               0.000936504              -0.001318535               0.002973253               0.001654717               0.000000000               0.000000000               0.000000000               0.000000000              -0.000906971               0.007069697               0.000874983              -0.001223823               0.002764483               0.001540660               0.000000000               0.000000000               0.000000000               0.000000000              -0.000793697               0.006564426               0.000802662              -0.001118187               0.002560849               0.001442662               0.000000000               0.000000000               0.000000000               0.000000000              -0.000656175               0.006088009               0.000719954              -0.001007064               0.002365004               0.001357940               0.000000000               0.000000000               0.000000000               0.000000000              -0.000506415               0.005650146               0.000620558              -0.000896172               0.002182087               0.001285915               0.000000000               0.000000000               0.000000000               0.000000000              -0.000357930               0.005264256               0.000500814              -0.000792254               0.002018819               0.001226565               0.000000000               0.000000000               0.000000000               0.000000000              -0.000219561               0.004947559               0.000354601              -0.000700779               0.001882763               0.001181984               0.000000000               0.000000000               0.000000000               0.000000000              -0.000102256               0.004721534               0.000183389              -0.000628536               0.001783341               0.001154805               0.000000000               0.000000000               0.000000000               0.000000000              -0.000059444               0.004618969               0.000098750              -0.000599661               0.001739528               0.001139867               0.000000000               0.000000000               0.000000000               0.000000000               0.002442751               0.014590639              -0.004581416              -0.000907800               0.005166097               0.004258297               0.000000000               0.000000000               0.000000000               0.000000000               0.000546422               0.012824566              -0.002384762              -0.001398160               0.004740865               0.003342705               0.000000000               0.000000000               0.000000000               0.000000000              -0.000772797               0.011860232              -0.000320797              -0.001772324               0.004544146               0.002771822               0.000000000               0.000000000               0.000000000               0.000000000              -0.001363935               0.010897563               0.000378128              -0.001873666               0.004257040               0.002383374               0.000000000               0.000000000               0.000000000               0.000000000              -0.001609089               0.010033671               0.000627201              -0.001857612               0.003963728               0.002106115               0.000000000               0.000000000               0.000000000               0.000000000              -0.001678740               0.009280781               0.000714420              -0.001789621               0.003690103               0.001900482               0.000000000               0.000000000               0.000000000               0.000000000              -0.001640826               0.008620561               0.000727528              -0.001692876               0.003437783               0.001744908               0.000000000               0.000000000               0.000000000               0.000000000              -0.001530433               0.008018907               0.000709602              -0.001576272               0.003198366               0.001622094               0.000000000               0.000000000               0.000000000               0.000000000              -0.001365506               0.007455696               0.000679278              -0.001444023               0.002966548               0.001522525               0.000000000               0.000000000               0.000000000               0.000000000              -0.001165954               0.006928959               0.000634265              -0.001303349               0.002744080               0.001440730               0.000000000               0.000000000               0.000000000               0.000000000              -0.000953533               0.006441610               0.000573391              -0.001162773               0.002534773               0.001372000               0.000000000               0.000000000               0.000000000               0.000000000              -0.000738591               0.006000280               0.000498950              -0.001027004               0.002342408               0.001315404               0.000000000               0.000000000               0.000000000               0.000000000              -0.000531120               0.005617341               0.000411714              -0.000901335               0.002172873               0.001271538               0.000000000               0.000000000               0.000000000               0.000000000              -0.000349107               0.005304434               0.000313165              -0.000793967               0.002032783               0.001238815               0.000000000               0.000000000               0.000000000               0.000000000              -0.000199209               0.005073139               0.000204893              -0.000708844               0.001927311               0.001218467               0.000000000               0.000000000               0.000000000               0.000000000              -0.000086132               0.004930926               0.000096711              -0.000648664               0.001859847               0.001211183               0.000000000               0.000000000               0.000000000               0.000000000              -0.000045900               0.004875832               0.000048415              -0.000626690               0.001834158               0.001207468               0.000000000               0.000000000               0.000000000               0.000000000               0.001836446               0.011697870              -0.004173765              -0.000773568               0.004157106               0.003383537               0.000000000               0.000000000               0.000000000               0.000000000              -0.000242155               0.011067974              -0.002335444              -0.001474303               0.004180721               0.002706419               0.000000000               0.000000000               0.000000000               0.000000000              -0.001813733               0.011006183              -0.000608819              -0.002055918               0.004353997               0.002298079               0.000000000               0.000000000               0.000000000               0.000000000              -0.002295736               0.010359812              -0.000039103              -0.002155872               0.004171860               0.002015988               0.000000000               0.000000000               0.000000000               0.000000000              -0.002366648               0.009636144               0.000186603              -0.002092006               0.003909351               0.001817345               0.000000000               0.000000000               0.000000000               0.000000000              -0.002264529               0.008964881               0.000290159              -0.001969804               0.003644865               0.001675061               0.000000000               0.000000000               0.000000000               0.000000000              -0.002066975               0.008344217               0.000331531              -0.001818138               0.003387424               0.001569286               0.000000000               0.000000000               0.000000000               0.000000000              -0.001810789               0.007759442               0.000344719              -0.001648972               0.003136112               0.001487140               0.000000000               0.000000000               0.000000000               0.000000000              -0.001516378               0.007214371               0.000344824              -0.001470434               0.002894911               0.001424477               0.000000000               0.000000000               0.000000000               0.000000000              -0.001215637               0.006709580               0.000328538              -0.001294558               0.002668024               0.001373465               0.000000000               0.000000000               0.000000000               0.000000000              -0.000933702               0.006252990               0.000293718              -0.001131759               0.002461562               0.001329803               0.000000000               0.000000000               0.000000000               0.000000000              -0.000677605               0.005859257               0.000244812              -0.000986507               0.002281902               0.001295395               0.000000000               0.000000000               0.000000000               0.000000000              -0.000453330               0.005535707               0.000188554              -0.000861960               0.002132537               0.001270577               0.000000000               0.000000000               0.000000000               0.000000000              -0.000272330               0.005287881               0.000132466              -0.000763107               0.002016978               0.001253871               0.000000000               0.000000000               0.000000000               0.000000000              -0.000139570               0.005116238               0.000077968              -0.000691867               0.001936018               0.001244151               0.000000000               0.000000000               0.000000000               0.000000000              -0.000053915               0.005011684               0.000032085              -0.000646677               0.001886104               0.001239427               0.000000000               0.000000000               0.000000000               0.000000000              -0.000030829               0.004965646               0.000017310              -0.000632265               0.001865954               0.001233689               0.000000000               0.000000000               0.000000000               0.000000000               0.000918898               0.009023740              -0.003467221              -0.000783382               0.003269009               0.002485628               0.000000000               0.000000000               0.000000000               0.000000000              -0.001117385               0.009453816              -0.002206675              -0.001600744               0.003684821               0.002084078               0.000000000               0.000000000               0.000000000               0.000000000              -0.002700440               0.010121451              -0.000984629              -0.002277841               0.004133063               0.001855222               0.000000000               0.000000000               0.000000000               0.000000000              -0.002969971               0.009729023              -0.000536657              -0.002329861               0.004019595               0.001689734               0.000000000               0.000000000               0.000000000               0.000000000              -0.002836626               0.009142944              -0.000309563              -0.002206597               0.003783150               0.001576553               0.000000000               0.000000000               0.000000000               0.000000000              -0.002570302               0.008550616              -0.000169834              -0.002032685               0.003527739               0.001495054               0.000000000               0.000000000               0.000000000               0.000000000              -0.002226974               0.007977299              -0.000084404              -0.001832273               0.003269831               0.001437558               0.000000000               0.000000000               0.000000000               0.000000000              -0.001844698               0.007427976              -0.000025577              -0.001620255               0.003016052               0.001395797               0.000000000               0.000000000               0.000000000               0.000000000              -0.001458684               0.006912589               0.000017093              -0.001411077               0.002774532               0.001363456               0.000000000               0.000000000               0.000000000               0.000000000              -0.001098201               0.006437392               0.000039202              -0.001216497               0.002551275               0.001334778               0.000000000               0.000000000               0.000000000               0.000000000              -0.000782826               0.006020223               0.000045291              -0.001046085               0.002355416               0.001309331               0.000000000               0.000000000               0.000000000               0.000000000              -0.000517885               0.005675929               0.000039337              -0.000903696               0.002193189               0.001289493               0.000000000               0.000000000               0.000000000               0.000000000              -0.000308026               0.005409752               0.000028980              -0.000791727               0.002067142               0.001275415               0.000000000               0.000000000               0.000000000               0.000000000              -0.000158597               0.005218779               0.000022225              -0.000711819               0.001976849               0.001265029               0.000000000               0.000000000               0.000000000               0.000000000              -0.000066081               0.005094428               0.000014837              -0.000661582               0.001918653               0.001257071               0.000000000               0.000000000               0.000000000               0.000000000              -0.000020141               0.005022031               0.000006827              -0.000635305               0.001885762               0.001250457               0.000000000               0.000000000               0.000000000               0.000000000              -0.000014664               0.004990078               0.000006556              -0.000629257               0.001873095               0.001243838               0.000000000               0.000000000               0.000000000               0.000000000              -0.000193273               0.006768038              -0.002587882              -0.000918482               0.002562150               0.001643668               0.000000000               0.000000000               0.000000000               0.000000000              -0.001975832               0.008016892              -0.002053132              -0.001743045               0.003253285               0.001510240               0.000000000               0.000000000               0.000000000               0.000000000              -0.003385585               0.009259956              -0.001432691              -0.002427083               0.003895649               0.001468565               0.000000000               0.000000000               0.000000000               0.000000000              -0.003414827               0.009133959              -0.001067921              -0.002422299               0.003852055               0.001429756               0.000000000               0.000000000               0.000000000               0.000000000              -0.003102261               0.008710223              -0.000820764              -0.002252120               0.003654085               0.001401965               0.000000000               0.000000000               0.000000000               0.000000000              -0.002701040               0.008217306              -0.000632492              -0.002040048               0.003419091               0.001379042               0.000000000               0.000000000               0.000000000               0.000000000              -0.002247542               0.007706922              -0.000489348              -0.001806189               0.003171011               0.001364822               0.000000000               0.000000000               0.000000000               0.000000000              -0.001779107               0.007203339              -0.000375893              -0.001567578               0.002923615               0.001356037               0.000000000               0.000000000               0.000000000               0.000000000              -0.001337634               0.006719357              -0.000286396              -0.001341529               0.002686940               0.001345411               0.000000000               0.000000000               0.000000000               0.000000000              -0.000946432               0.006271663              -0.000218347              -0.001138867               0.002470156               0.001331289               0.000000000               0.000000000               0.000000000               0.000000000              -0.000616472               0.005884330              -0.000163114              -0.000966716               0.002283662               0.001316947               0.000000000               0.000000000               0.000000000               0.000000000              -0.000351358               0.005572242              -0.000115909              -0.000828288               0.002133491               0.001305204               0.000000000               0.000000000               0.000000000               0.000000000              -0.000159652               0.005339760              -0.000074024              -0.000727338               0.002022348               0.001295010               0.000000000               0.000000000               0.000000000               0.000000000              -0.000047919               0.005179060              -0.000036322              -0.000665351               0.001948120               0.001282769               0.000000000               0.000000000               0.000000000               0.000000000              -0.000001149               0.005078203              -0.000009951              -0.000635205               0.001904452               0.001269248               0.000000000               0.000000000               0.000000000               0.000000000               0.000006906               0.005022158               0.000001219              -0.000625178               0.001882429               0.001257250               0.000000000               0.000000000               0.000000000               0.000000000               0.000002445               0.005003165               0.000003896              -0.000624477               0.001875864               0.001251387               0.000000000               0.000000000               0.000000000               0.000000000              -0.001512260               0.004677762              -0.001655985              -0.001151816               0.001943177               0.000791361               0.000000000               0.000000000               0.000000000               0.000000000              -0.002691578               0.006383360              -0.001880362              -0.001807258               0.002730184               0.000922926               0.000000000               0.000000000               0.000000000               0.000000000              -0.003773147               0.008048042              -0.001907019              -0.002420930               0.003489630               0.001068700               0.000000000               0.000000000               0.000000000               0.000000000              -0.003666546               0.008304351              -0.001640105              -0.002412993               0.003572420               0.001159427               0.000000000               0.000000000               0.000000000               0.000000000              -0.003275118               0.008136984              -0.001372707              -0.002245287               0.003460730               0.001215443               0.000000000               0.000000000               0.000000000               0.000000000              -0.002831611               0.007834454              -0.001140629              -0.002041156               0.003291844               0.001250688               0.000000000               0.000000000               0.000000000               0.000000000              -0.002363097               0.007476682              -0.000940287              -0.001820742               0.003099116               0.001278374               0.000000000               0.000000000               0.000000000               0.000000000              -0.001885241               0.007089631              -0.000768478              -0.001593166               0.002894242               0.001301076               0.000000000               0.000000000               0.000000000               0.000000000              -0.001427782               0.006694450              -0.000627502              -0.001372221               0.002688868               0.001316647               0.000000000               0.000000000               0.000000000               0.000000000              -0.001016890               0.006309069              -0.000507393              -0.001169965               0.002492990               0.001323026               0.000000000               0.000000000               0.000000000               0.000000000              -0.000667480               0.005955847              -0.000401153              -0.000994783               0.002316857               0.001322074               0.000000000               0.000000000               0.000000000               0.000000000              -0.000379139               0.005659365              -0.000302359              -0.000849596               0.002169635               0.001320039               0.000000000               0.000000000               0.000000000               0.000000000              -0.000161614               0.005421294              -0.000205435              -0.000738265               0.002053169               0.001314903               0.000000000               0.000000000               0.000000000               0.000000000              -0.000023166               0.005241754              -0.000117992              -0.000663905               0.001968536               0.001304631               0.000000000               0.000000000               0.000000000               0.000000000               0.000041543               0.005119388              -0.000052716              -0.000624343               0.001914560               0.001290217               0.000000000               0.000000000               0.000000000               0.000000000               0.000054678               0.005045549              -0.000014775              -0.000610188               0.001885229               0.001275041               0.000000000               0.000000000               0.000000000               0.000000000               0.000050376               0.005021012              -0.000002459              -0.000608734               0.001876565               0.001267831               0.000000000               0.000000000               0.000000000               0.000000000              -0.003205896               0.002792339              -0.000740721              -0.001551250               0.001447853              -0.000103398               0.000000000               0.000000000               0.000000000               0.000000000              -0.003499784               0.004755861              -0.001642949              -0.001906898               0.002220903               0.000314005               0.000000000               0.000000000               0.000000000               0.000000000              -0.004057011               0.006656166              -0.002285292              -0.002353395               0.003003164               0.000649769               0.000000000               0.000000000               0.000000000               0.000000000              -0.003829128               0.007277414              -0.002182718              -0.002345594               0.003207645               0.000862050               0.000000000               0.000000000               0.000000000               0.000000000              -0.003395015               0.007399839              -0.001931051              -0.002198106               0.003199290               0.001001184               0.000000000               0.000000000               0.000000000               0.000000000              -0.002937097               0.007320704              -0.001674004              -0.002016495               0.003112375               0.001095880               0.000000000               0.000000000               0.000000000               0.000000000              -0.002480635               0.007143648              -0.001435605              -0.001823190               0.002988922               0.001165732               0.000000000               0.000000000               0.000000000               0.000000000              -0.002012223               0.006907110              -0.001221443              -0.001617968               0.002841669               0.001223701               0.000000000               0.000000000               0.000000000               0.000000000              -0.001550844               0.006631826              -0.001034849              -0.001410542               0.002680767               0.001270225               0.000000000               0.000000000               0.000000000               0.000000000              -0.001120272               0.006334233              -0.000867484              -0.001211878               0.002515349               0.001303471               0.000000000               0.000000000               0.000000000               0.000000000              -0.000735960               0.006036727              -0.000717462              -0.001030573               0.002355747               0.001325173               0.000000000               0.000000000               0.000000000               0.000000000              -0.000407449               0.005763917              -0.000574002              -0.000873281               0.002212380               0.001339099               0.000000000               0.000000000               0.000000000               0.000000000              -0.000143035               0.005525698              -0.000426614              -0.000744349               0.002089997               0.001345649               0.000000000               0.000000000               0.000000000               0.000000000               0.000047281               0.005327695              -0.000283187              -0.000648230               0.001991957               0.001343727               0.000000000               0.000000000               0.000000000               0.000000000               0.000153020               0.005172876              -0.000157872              -0.000589226               0.001920683               0.001331458               0.000000000               0.000000000               0.000000000               0.000000000               0.000180560               0.005068648              -0.000064192              -0.000565870               0.001878156               0.001312286               0.000000000               0.000000000               0.000000000               0.000000000               0.000168627               0.005026526              -0.000023654              -0.000565079               0.001863852               0.001298772               0.000000000               0.000000000               0.000000000               0.000000000              -0.005157537               0.001263842               0.000077106              -0.002092054               0.001118624              -0.000973429               0.000000000               0.000000000               0.000000000               0.000000000              -0.004455640               0.003234236              -0.001321895              -0.002075141               0.001769780              -0.000305361               0.000000000               0.000000000               0.000000000               0.000000000              -0.004296090               0.005093759              -0.002451562              -0.002247749               0.002447151               0.000199402               0.000000000               0.000000000               0.000000000               0.000000000              -0.003860761               0.005964552              -0.002547174              -0.002193350               0.002719280               0.000525930               0.000000000               0.000000000               0.000000000               0.000000000              -0.003365667               0.006352711              -0.002358836              -0.002056210               0.002802952               0.000746742               0.000000000               0.000000000               0.000000000               0.000000000              -0.002888678               0.006503790              -0.002112233              -0.001896224               0.002799982               0.000903758               0.000000000               0.000000000               0.000000000               0.000000000              -0.002440176               0.006526384              -0.001870536              -0.001730860               0.002752392               0.001021532               0.000000000               0.000000000               0.000000000               0.000000000              -0.001993445               0.006465293              -0.001645350              -0.001555700               0.002673643               0.001117942               0.000000000               0.000000000               0.000000000               0.000000000              -0.001548167               0.006337369              -0.001435815              -0.001372731               0.002570012               0.001197281               0.000000000               0.000000000               0.000000000               0.000000000              -0.001114483               0.006164851              -0.001241810              -0.001188535               0.002451108               0.001262573               0.000000000               0.000000000               0.000000000               0.000000000              -0.000706057               0.005966259              -0.001061749              -0.001010552               0.002325583               0.001315032               0.000000000               0.000000000               0.000000000               0.000000000              -0.000344611               0.005755637              -0.000884248              -0.000848682               0.002201420               0.001352738               0.000000000               0.000000000               0.000000000               0.000000000              -0.000037759               0.005552528              -0.000699532              -0.000708224               0.002086899               0.001378675               0.000000000               0.000000000               0.000000000               0.000000000               0.000204373               0.005368703              -0.000507398              -0.000594447               0.001987699               0.001393252               0.000000000               0.000000000               0.000000000               0.000000000               0.000364234               0.005207619              -0.000318856              -0.000514363               0.001907310               0.001392947               0.000000000               0.000000000               0.000000000               0.000000000               0.000428713               0.005084721              -0.000148627              -0.000474822               0.001853164               0.001378342               0.000000000               0.000000000               0.000000000               0.000000000               0.000421237               0.005026501              -0.000065342              -0.000470348               0.001832266               0.001361918               0.000000000               0.000000000               0.000000000               0.000000000              -0.007235993               0.000157395               0.000681381              -0.002733169               0.000963515              -0.001769655               0.000000000               0.000000000               0.000000000               0.000000000              -0.005499622               0.001891618              -0.000959849              -0.002298807               0.001396799              -0.000902009               0.000000000               0.000000000               0.000000000               0.000000000              -0.004508531               0.003479829              -0.002372584              -0.002125674               0.001868487              -0.000257187               0.000000000               0.000000000               0.000000000               0.000000000              -0.003787138               0.004464719              -0.002645765              -0.001978263               0.002147644               0.000169381               0.000000000               0.000000000               0.000000000               0.000000000              -0.003195901               0.005063908              -0.002549376              -0.001831448               0.002298434               0.000466986               0.000000000               0.000000000               0.000000000               0.000000000              -0.002683334               0.005433583              -0.002346057              -0.001685445               0.002372990               0.000687545               0.000000000               0.000000000               0.000000000               0.000000000              -0.002233184               0.005658917              -0.002128509              -0.001544806               0.002401221               0.000856416               0.000000000               0.000000000               0.000000000               0.000000000              -0.001810378               0.005774288              -0.001920300              -0.001400675               0.002391635               0.000990959               0.000000000               0.000000000               0.000000000               0.000000000              -0.001392051               0.005804670              -0.001720508              -0.001247600               0.002350737               0.001103137               0.000000000               0.000000000               0.000000000               0.000000000              -0.000973320               0.005777135              -0.001528472              -0.001087135               0.002288070               0.001200936               0.000000000               0.000000000               0.000000000               0.000000000              -0.000565343               0.005706804              -0.001339822              -0.000925352               0.002210699               0.001285347               0.000000000               0.000000000               0.000000000               0.000000000              -0.000178817               0.005603324              -0.001149918              -0.000767471               0.002123579               0.001356109               0.000000000               0.000000000               0.000000000               0.000000000               0.000174833               0.005476191              -0.000952441              -0.000618961               0.002031699               0.001412738               0.000000000               0.000000000               0.000000000               0.000000000               0.000480869               0.005338388              -0.000738038              -0.000486972               0.001941769               0.001454797               0.000000000               0.000000000               0.000000000               0.000000000               0.000721118               0.005206172              -0.000505350              -0.000380352               0.001862157               0.001481805               0.000000000               0.000000000               0.000000000               0.000000000               0.000866729               0.005092345              -0.000257867              -0.000311519               0.001801271               0.001489752               0.000000000               0.000000000               0.000000000               0.000000000               0.000905099               0.005035673              -0.000129763              -0.000290046               0.001775223               0.001485177               0.000000000               0.000000000               0.000000000               0.000000000              -0.009243173              -0.000558259               0.000974746              -0.003396405               0.000946042              -0.002450363               0.000000000               0.000000000               0.000000000               0.000000000              -0.006540595               0.000793549              -0.000616349              -0.002551914               0.001115146              -0.001436768               0.000000000               0.000000000               0.000000000               0.000000000              -0.004698350               0.001972627              -0.002043585              -0.002008457               0.001327018              -0.000681439               0.000000000               0.000000000               0.000000000               0.000000000              -0.003643220               0.002956644              -0.002415706              -0.001735785               0.001564131              -0.000171654               0.000000000               0.000000000               0.000000000               0.000000000              -0.002926188               0.003691849              -0.002407701              -0.001558799               0.001750202               0.000191404               0.000000000               0.000000000               0.000000000               0.000000000              -0.002372854               0.004232336              -0.002267457              -0.001418860               0.001883717               0.000464857               0.000000000               0.000000000               0.000000000               0.000000000              -0.001908291               0.004628634              -0.002096331              -0.001294186               0.001974257               0.000680071               0.000000000               0.000000000               0.000000000               0.000000000              -0.001494838               0.004907563              -0.001927830              -0.001174008               0.002027173               0.000853166               0.000000000               0.000000000               0.000000000               0.000000000              -0.001098590               0.005096768              -0.001763104              -0.001049066               0.002048594               0.000999528               0.000000000               0.000000000               0.000000000               0.000000000              -0.000704519               0.005215065              -0.001598007              -0.000916076               0.002043696               0.001127620               0.000000000               0.000000000               0.000000000               0.000000000              -0.000305908               0.005283747              -0.001430880              -0.000775183               0.002019625               0.001244443               0.000000000               0.000000000               0.000000000               0.000000000               0.000098274               0.005312954              -0.001261439              -0.000627266               0.001980055               0.001352789               0.000000000               0.000000000               0.000000000               0.000000000               0.000499409               0.005299279              -0.001080857              -0.000475131               0.001924785               0.001449654               0.000000000               0.000000000               0.000000000               0.000000000               0.000882073               0.005242030              -0.000875790              -0.000324476               0.001855484               0.001531008               0.000000000               0.000000000               0.000000000               0.000000000               0.001230463               0.005162666              -0.000633878              -0.000183909               0.001782175               0.001598265               0.000000000               0.000000000               0.000000000               0.000000000               0.001518646               0.005082326              -0.000340383              -0.000065799               0.001716025               0.001650226               0.000000000               0.000000000               0.000000000               0.000000000               0.001672564               0.005052455              -0.000185698              -0.000004346               0.001685583               0.001681238               0.000000000               0.000000000               0.000000000               0.000000000              -0.010932458              -0.000953917               0.000917902              -0.003980430               0.001008830              -0.002971599               0.000000000               0.000000000               0.000000000               0.000000000              -0.007443281              -0.000007635              -0.000339047              -0.002790274               0.000927540              -0.001862734               0.000000000               0.000000000               0.000000000               0.000000000              -0.004864632               0.000741085              -0.001497415              -0.001916871               0.000885978              -0.001030892               0.000000000               0.000000000               0.000000000               0.000000000              -0.003488422               0.001649825              -0.001849517              -0.001514384               0.001054728              -0.000459656               0.000000000               0.000000000               0.000000000               0.000000000              -0.002634906               0.002451176              -0.001888911              -0.001294484               0.001248544              -0.000045941               0.000000000               0.000000000               0.000000000               0.000000000              -0.002029488               0.003103106              -0.001811385              -0.001148944               0.001417339               0.000268395               0.000000000               0.000000000               0.000000000               0.000000000              -0.001545172               0.003622809              -0.001700998              -0.001032289               0.001551687               0.000519398               0.000000000               0.000000000               0.000000000               0.000000000              -0.001128979               0.004032633              -0.001585183              -0.000927445               0.001653345               0.000725900               0.000000000               0.000000000               0.000000000               0.000000000              -0.000747121               0.004355906              -0.001468163              -0.000824657               0.001726839               0.000902182               0.000000000               0.000000000               0.000000000               0.000000000              -0.000370109               0.004604102              -0.001350101              -0.000714303               0.001772786               0.001058483               0.000000000               0.000000000               0.000000000               0.000000000               0.000021588               0.004795253              -0.001229833              -0.000591311               0.001795505               0.001204194               0.000000000               0.000000000               0.000000000               0.000000000               0.000435048               0.004945358              -0.001105283              -0.000455026               0.001800112               0.001345085               0.000000000               0.000000000               0.000000000               0.000000000               0.000872060               0.005045735              -0.000969991              -0.000303694               0.001783126               0.001479432               0.000000000               0.000000000               0.000000000               0.000000000               0.001330527               0.005087667              -0.000808364              -0.000137011               0.001741542               0.001604531               0.000000000               0.000000000               0.000000000               0.000000000               0.001804062               0.005083656              -0.000603074               0.000041065               0.001680846               0.001721912               0.000000000               0.000000000               0.000000000               0.000000000               0.002288934               0.005050449              -0.000332895               0.000227042               0.001607785               0.001834827               0.000000000               0.000000000               0.000000000               0.000000000               0.002627130               0.005061943              -0.000191470               0.000352427               0.001569822               0.001922249               0.000000000               0.000000000               0.000000000               0.000000000              -0.012063755              -0.001129702               0.000550371              -0.004382693               0.001084323              -0.003298370               0.000000000               0.000000000               0.000000000               0.000000000              -0.008058503              -0.000489009              -0.000142317              -0.002960811               0.000823928              -0.002136882               0.000000000               0.000000000               0.000000000               0.000000000              -0.004983587              -0.000065311              -0.000790738              -0.001860680               0.000598452              -0.001262228               0.000000000               0.000000000               0.000000000               0.000000000              -0.003376561               0.000760465              -0.001004388              -0.001361267               0.000707239              -0.000654028               0.000000000               0.000000000               0.000000000               0.000000000              -0.002415636               0.001578306              -0.001042740              -0.001103150               0.000893812              -0.000209338               0.000000000               0.000000000               0.000000000               0.000000000              -0.001758299               0.002285849              -0.001012150              -0.000945091               0.001076972               0.000131881               0.000000000               0.000000000               0.000000000               0.000000000              -0.001256776               0.002877720              -0.000959822              -0.000831004               0.001236232               0.000405227               0.000000000               0.000000000               0.000000000               0.000000000              -0.000838813               0.003366452              -0.000900310              -0.000735360               0.001367259               0.000631899               0.000000000               0.000000000               0.000000000               0.000000000              -0.000460688               0.003774702              -0.000838911              -0.000644595               0.001473086               0.000828491               0.000000000               0.000000000               0.000000000               0.000000000              -0.000090859               0.004113022              -0.000778207              -0.000548199               0.001553726               0.001005527               0.000000000               0.000000000               0.000000000               0.000000000               0.000293734               0.004393121              -0.000713777              -0.000438989               0.001610689               0.001171699               0.000000000               0.000000000               0.000000000               0.000000000               0.000711189               0.004628115              -0.000647428              -0.000311818               0.001646629               0.001334811               0.000000000               0.000000000               0.000000000               0.000000000               0.001170716               0.004813719              -0.000577426              -0.000162696               0.001658789               0.001496093               0.000000000               0.000000000               0.000000000               0.000000000               0.001684159               0.004945353              -0.000488116               0.000013390               0.001643971               0.001657361               0.000000000               0.000000000               0.000000000               0.000000000               0.002265588               0.005013137              -0.000368063               0.000222951               0.001596712               0.001819663               0.000000000               0.000000000               0.000000000               0.000000000               0.002936178               0.005019459              -0.000206210               0.000473629               0.001515260               0.001988889               0.000000000               0.000000000               0.000000000               0.000000000               0.003456244               0.005066447              -0.000123350               0.000662779               0.001467872               0.002130651               0.000000000               0.000000000               0.000000000               0.000000000               0.000000000               0.000000000               0.000000000               0.000000000               0.000000000               0.000000000               0.000000000               0.000000000               0.000000000               0.000000000               0.000000000               0.000000000               0.000000000               0.000000000               0.000000000               0.000000000               0.000000000               0.000000000               0.000000000               0.000000000               0.000000000               0.000000000               0.000000000               0.000000000               0.000000000               0.000000000               0.000000000               0.000000000               0.000000000               0.000000000               0.000000000               0.000000000               0.000000000               0.000000000               0.000000000               0.000000000               0.000000000               0.000000000               0.000000000               0.000000000               0.000000000               0.000000000               0.000000000               0.000000000               0.000000000               0.000000000               0.000000000               0.000000000               0.000000000               0.000000000               0.000000000               0.000000000               0.000000000               0.000000000               0.000000000               0.000000000               0.000000000               0.000000000               0.000000000               0.000000000               0.000000000               0.000000000               0.000000000               0.000000000               0.000000000               0.000000000               0.000000000               0.000000000               0.000000000               0.000000000               0.000000000               0.000000000               0.000000000               0.000000000               0.000000000               0.000000000               0.000000000               0.000000000               0.000000000               0.000000000               0.000000000               0.000000000               0.000000000               0.000000000               0.000000000               0.000000000               0.000000000               0.000000000               0.000000000               0.000000000               0.000000000               0.000000000               0.000000000               0.000000000               0.000000000               0.000000000               0.000000000               0.000000000               0.000000000               0.000000000               0.000000000               0.000000000               0.000000000               0.000000000               0.000000000               0.000000000               0.000000000               0.000000000               0.000000000               0.000000000               0.000000000               0.000000000               0.000000000               0.000000000               0.000000000               0.000000000               0.000000000               0.000000000               0.000000000               0.000000000               0.000000000               0.000000000               0.000000000               0.000000000               0.000000000               0.000000000               0.000000000               0.000000000               0.000000000               0.000000000               0.000000000               0.000000000               0.000000000               0.000000000               0.000000000               0.000000000               0.000000000               0.000000000               0.000000000               0.000000000               0.000000000               0.000000000               0.000000000               0.000000000               0.000000000               0.000000000               0.000000000               0.000000000               0.000000000               0.000000000               0.000000000               0.000000000               0.000000000               0.000000000               0.000000000               0.000000000               0.000000000               0.000000000               0.000000000               0.000000000               0.000000000               0.000000000               0.000000000               0.000000000               0.000000000               0.000000000               0.000000000               0.000000000               0.000000000               0.000000000               0.000000000               0.000000000               0.000000000               0.000000000               0.000000000               0.000000000               0.000000000               0.000000000               0.000000000               0.000000000               0.000000000               0.000000000               0.000000000               0.000000000               0.000000000               0.000000000               0.000000000               0.000000000               0.000000000               0.000000000               0.000000000               0.000000000               0.000000000               0.000000000               0.000000000               0.000000000               0.000000000               0.000000000               0.000000000               0.000000000               0.000000000               0.000000000               0.000000000               0.000000000               0.000000000               0.000000000               0.000000000               0.000000000               0.000000000               0.000000000               0.000000000               0.000000000               0.000000000               0.000000000               0.000000000               0.000000000               0.000000000               0.000000000               0.000000000               0.000000000               0.000000000               0.000000000               0.000000000               0.000000000               0.000000000               0.000000000               0.000000000               0.000000000               0.000000000               0.000000000               0.000000000               0.000000000               0.000000000               0.000000000               0.000000000               0.000000000               0.000000000               0.000000000               0.000000000               0.000000000               0.000000000               0.000000000               0.000000000               0.000000000               0.000000000               0.000000000               0.000000000               0.000000000               0.000000000               0.000000000               0.000000000               0.000000000               0.000000000               0.000000000               0.000000000               0.000000000               0.000000000               0.000000000               0.000000000               0.000000000               0.000000000               0.000000000               0.000000000               0.000000000               0.000000000               0.000000000               0.000000000               0.000000000               0.000000000               0.000000000               0.000000000               0.000000000               0.000000000               0.000000000               0.000000000               0.000000000               0.000000000               0.000000000               0.000000000               0.000000000               0.000000000               0.000000000               0.000000000               0.000000000               0.000000000               0.000000000               0.000000000               0.000000000               0.000000000               0.000000000               0.000000000               0.000000000               0.000000000               0.000000000               0.000000000               0.000000000               0.000000000               0.000000000               0.000000000               0.000000000               0.000000000               0.000000000               0.000000000               0.000000000               0.000000000               0.000000000               0.000000000               0.000000000               0.000000000               0.000000000               0.000000000               0.000000000               0.000000000               0.000000000               0.000000000               0.000000000               0.000000000               0.000000000               0.000000000               0.000000000               0.000000000               0.000000000               0.000000000               0.000000000               0.000000000               0.000000000               0.000000000               0.000000000               0.000000000               0.000000000               0.000000000               0.000000000               0.000000000               0.000000000               0.000000000               0.000000000               0.000000000               0.000000000               0.000000000               0.000000000               0.002306551               0.023879547               0.001656851              -0.002119982               0.008666430               0.006546448               0.000000000               0.000000000               0.000000000               0.000000000               0.002136148               0.018650832               0.000816903              -0.001530295               0.006726980               0.005196685               0.000000000               0.000000000               0.000000000               0.000000000               0.002676701               0.014418391              -0.000016078              -0.000798534               0.005072260               0.004273726               0.000000000               0.000000000               0.000000000               0.000000000               0.002489720               0.012003105              -0.000364972              -0.000566742               0.004189909               0.003623167               0.000000000               0.000000000               0.000000000               0.000000000               0.002102608               0.010466909              -0.000509515              -0.000519884               0.003662229               0.003142345               0.000000000               0.000000000               0.000000000               0.000000000               0.001694890               0.009405989              -0.000559152              -0.000540164               0.003315353               0.002775189               0.000000000               0.000000000               0.000000000               0.000000000               0.001321423               0.008613571              -0.000558934              -0.000581161               0.003064882               0.002483721               0.000000000               0.000000000               0.000000000               0.000000000               0.000994192               0.007973390              -0.000540839              -0.000623850               0.002865720               0.002241870               0.000000000               0.000000000               0.000000000               0.000000000               0.000720684               0.007430508              -0.000514398              -0.000658555               0.002696330               0.002037774               0.000000000               0.000000000               0.000000000               0.000000000               0.000492444               0.006941254              -0.000482834              -0.000682989               0.002541391               0.001858402               0.000000000               0.000000000               0.000000000               0.000000000               0.000302618               0.006474561              -0.000451140              -0.000695837               0.002390111               0.001694274               0.000000000               0.000000000               0.000000000               0.000000000               0.000148911               0.006010909              -0.000413680              -0.000695520               0.002235457               0.001539936               0.000000000               0.000000000               0.000000000               0.000000000               0.000031625               0.005527877              -0.000366392              -0.000679123               0.002068982               0.001389858               0.000000000               0.000000000               0.000000000               0.000000000              -0.000039227               0.005011202              -0.000308206              -0.000641109               0.001884087               0.001242978               0.000000000               0.000000000               0.000000000               0.000000000              -0.000063148               0.004450135              -0.000235033              -0.000579946               0.001676679               0.001096733               0.000000000               0.000000000               0.000000000               0.000000000              -0.000044464               0.003828499              -0.000133590              -0.000495235               0.001441232               0.000945997               0.000000000               0.000000000               0.000000000               0.000000000              -0.000075752               0.003358076              -0.000084635              -0.000448166               0.001268736               0.000820571               0.000000000               0.000000000               0.000000000               0.000000000               0.002489912               0.022417736               0.003076422              -0.001868497               0.008095336               0.006226839               0.000000000               0.000000000               0.000000000               0.000000000               0.001973480               0.017707848               0.001515410              -0.001473423               0.006393698               0.004920275               0.000000000               0.000000000               0.000000000               0.000000000               0.002143922               0.014012069              -0.000016473              -0.000947535               0.004986488               0.004038953               0.000000000               0.000000000               0.000000000               0.000000000               0.001825013               0.011869213              -0.000634439              -0.000799270               0.004222788               0.003423518               0.000000000               0.000000000               0.000000000               0.000000000               0.001412576               0.010474611              -0.000878107              -0.000779609               0.003751372               0.002971763               0.000000000               0.000000000               0.000000000               0.000000000               0.001023501               0.009479692              -0.000958550              -0.000801147               0.003426915               0.002625768               0.000000000               0.000000000               0.000000000               0.000000000               0.000695453               0.008715284              -0.000957102              -0.000828614               0.003181270               0.002352656               0.000000000               0.000000000               0.000000000               0.000000000               0.000427625               0.008084301              -0.000925235              -0.000850177               0.002978132               0.002127956               0.000000000               0.000000000               0.000000000               0.000000000               0.000219650               0.007538262              -0.000882638              -0.000859912               0.002799366               0.001939454               0.000000000               0.000000000               0.000000000               0.000000000               0.000064962               0.007038267              -0.000828977              -0.000855421               0.002631205               0.001775785               0.000000000               0.000000000               0.000000000               0.000000000              -0.000045275               0.006555601              -0.000773537              -0.000836426               0.002463987               0.001627561               0.000000000               0.000000000               0.000000000               0.000000000              -0.000117612               0.006073637              -0.000710033              -0.000803307               0.002292294               0.001488987               0.000000000               0.000000000               0.000000000               0.000000000              -0.000153537               0.005587685              -0.000628122              -0.000756035               0.002114555               0.001358519               0.000000000               0.000000000               0.000000000               0.000000000              -0.000157372               0.005093839              -0.000528379              -0.000695743               0.001929843               0.001234101               0.000000000               0.000000000               0.000000000               0.000000000              -0.000129965               0.004590362              -0.000402081              -0.000622531               0.001737616               0.001115085               0.000000000               0.000000000               0.000000000               0.000000000              -0.000072211               0.004074727              -0.000227061              -0.000536419               0.001537035               0.001000616               0.000000000               0.000000000               0.000000000               0.000000000              -0.000077111               0.003711358              -0.000140711              -0.000492835               0.001401385               0.000908550               0.000000000               0.000000000               0.000000000               0.000000000               0.002669367               0.020209406               0.004080387              -0.001525162               0.007244788               0.005719626               0.000000000               0.000000000               0.000000000               0.000000000               0.001672756               0.016306419               0.002016165              -0.001411016               0.005905757               0.004494741               0.000000000               0.000000000               0.000000000               0.000000000               0.001326486               0.013409284               0.000021703              -0.001178725               0.004862625               0.003683900               0.000000000               0.000000000               0.000000000               0.000000000               0.000846419               0.011647403              -0.000738772              -0.001138516               0.004261934               0.003123418               0.000000000               0.000000000               0.000000000               0.000000000               0.000431307               0.010436070              -0.001024880              -0.001142766               0.003859577               0.002716811               0.000000000               0.000000000               0.000000000               0.000000000               0.000106281               0.009528956              -0.001114827              -0.001151262               0.003560041               0.002408779               0.000000000               0.000000000               0.000000000               0.000000000              -0.000133645               0.008795903              -0.001112090              -0.001149602               0.003315139               0.002165537               0.000000000               0.000000000               0.000000000               0.000000000              -0.000301770               0.008175689              -0.001075230              -0.001135122               0.003103577               0.001968454               0.000000000               0.000000000               0.000000000               0.000000000              -0.000409979               0.007621535              -0.001025373              -0.001106431               0.002909297               0.001802865               0.000000000               0.000000000               0.000000000               0.000000000              -0.000458406               0.007103956              -0.000961726              -0.001059894               0.002721260               0.001661365               0.000000000               0.000000000               0.000000000               0.000000000              -0.000458856               0.006603146              -0.000891405              -0.000997462               0.002533514               0.001536052               0.000000000               0.000000000               0.000000000               0.000000000              -0.000428200               0.006110804              -0.000811774              -0.000924423               0.002345055               0.001420632               0.000000000               0.000000000               0.000000000               0.000000000              -0.000366888               0.005635698              -0.000715093              -0.000842044               0.002159228               0.001317185               0.000000000               0.000000000               0.000000000               0.000000000              -0.000283720               0.005186748              -0.000595921              -0.000754737               0.001980478               0.001225741               0.000000000               0.000000000               0.000000000               0.000000000              -0.000190988               0.004771029              -0.000442892              -0.000667997               0.001812993               0.001144995               0.000000000               0.000000000               0.000000000               0.000000000              -0.000097159               0.004404036              -0.000242945              -0.000586938               0.001663643               0.001076705               0.000000000               0.000000000               0.000000000               0.000000000              -0.000074260               0.004184613              -0.000142640              -0.000550923               0.001578498               0.001027575               0.000000000               0.000000000               0.000000000               0.000000000               0.002699007               0.017509661               0.004579044              -0.001176581               0.006228688               0.005052107               0.000000000               0.000000000               0.000000000               0.000000000               0.001198004               0.014619245               0.002297273              -0.001378152               0.005332416               0.003954265               0.000000000               0.000000000               0.000000000               0.000000000               0.000314318               0.012671721               0.000128429              -0.001466092               0.004712562               0.003246470               0.000000000               0.000000000               0.000000000               0.000000000              -0.000272189               0.011326287              -0.000649307              -0.001517853               0.004281342               0.002763489               0.000000000               0.000000000               0.000000000               0.000000000              -0.000633972               0.010302563              -0.000930943              -0.001525556               0.003942672               0.002417116               0.000000000               0.000000000               0.000000000               0.000000000              -0.000851700               0.009474043              -0.001018372              -0.001503639               0.003659196               0.002155557               0.000000000               0.000000000               0.000000000               0.000000000              -0.000967158               0.008775818              -0.001017207              -0.001459658               0.003411796               0.001952138               0.000000000               0.000000000               0.000000000               0.000000000              -0.001005243               0.008164776              -0.000983167              -0.001397560               0.003187418               0.001789858               0.000000000               0.000000000               0.000000000               0.000000000              -0.000982336               0.007601299              -0.000936504              -0.001318535               0.002973253               0.001654717               0.000000000               0.000000000               0.000000000               0.000000000              -0.000906971               0.007069697              -0.000874983              -0.001223823               0.002764483               0.001540660               0.000000000               0.000000000               0.000000000               0.000000000              -0.000793697               0.006564426              -0.000802662              -0.001118187               0.002560849               0.001442662               0.000000000               0.000000000               0.000000000               0.000000000              -0.000656175               0.006088009              -0.000719954              -0.001007064               0.002365004               0.001357940               0.000000000               0.000000000               0.000000000               0.000000000              -0.000506415               0.005650146              -0.000620558              -0.000896172               0.002182087               0.001285915               0.000000000               0.000000000               0.000000000               0.000000000              -0.000357930               0.005264256              -0.000500814              -0.000792254               0.002018819               0.001226565               0.000000000               0.000000000               0.000000000               0.000000000              -0.000219561               0.004947559              -0.000354601              -0.000700779               0.001882763               0.001181984               0.000000000               0.000000000               0.000000000               0.000000000              -0.000102256               0.004721534              -0.000183389              -0.000628536               0.001783341               0.001154805               0.000000000               0.000000000               0.000000000               0.000000000              -0.000059444               0.004618969              -0.000098750              -0.000599661               0.001739528               0.001139867               0.000000000               0.000000000               0.000000000               0.000000000               0.002442751               0.014590639               0.004581416              -0.000907800               0.005166097               0.004258297               0.000000000               0.000000000               0.000000000               0.000000000               0.000546422               0.012824566               0.002384762              -0.001398160               0.004740865               0.003342705               0.000000000               0.000000000               0.000000000               0.000000000              -0.000772797               0.011860232               0.000320797              -0.001772324               0.004544146               0.002771822               0.000000000               0.000000000               0.000000000               0.000000000              -0.001363935               0.010897563              -0.000378128              -0.001873666               0.004257040               0.002383374               0.000000000               0.000000000               0.000000000               0.000000000              -0.001609089               0.010033671              -0.000627201              -0.001857612               0.003963728               0.002106115               0.000000000               0.000000000               0.000000000               0.000000000              -0.001678740               0.009280781              -0.000714420              -0.001789621               0.003690103               0.001900482               0.000000000               0.000000000               0.000000000               0.000000000              -0.001640826               0.008620561              -0.000727528              -0.001692876               0.003437783               0.001744908               0.000000000               0.000000000               0.000000000               0.000000000              -0.001530433               0.008018907              -0.000709602              -0.001576272               0.003198366               0.001622094               0.000000000               0.000000000               0.000000000               0.000000000              -0.001365506               0.007455696              -0.000679278              -0.001444023               0.002966548               0.001522525               0.000000000               0.000000000               0.000000000               0.000000000              -0.001165954               0.006928959              -0.000634265              -0.001303349               0.002744080               0.001440730               0.000000000               0.000000000               0.000000000               0.000000000              -0.000953533               0.006441610              -0.000573391              -0.001162773               0.002534773               0.001372000               0.000000000               0.000000000               0.000000000               0.000000000              -0.000738591               0.006000280              -0.000498950              -0.001027004               0.002342408               0.001315404               0.000000000               0.000000000               0.000000000               0.000000000              -0.000531120               0.005617341              -0.000411714              -0.000901335               0.002172873               0.001271538               0.000000000               0.000000000               0.000000000               0.000000000              -0.000349107               0.005304434              -0.000313165              -0.000793967               0.002032783               0.001238815               0.000000000               0.000000000               0.000000000               0.000000000              -0.000199209               0.005073139              -0.000204893              -0.000708844               0.001927311               0.001218467               0.000000000               0.000000000               0.000000000               0.000000000              -0.000086132               0.004930926              -0.000096711              -0.000648664               0.001859847               0.001211183               0.000000000               0.000000000               0.000000000               0.000000000              -0.000045900               0.004875832              -0.000048415              -0.000626690               0.001834158               0.001207468               0.000000000               0.000000000               0.000000000               0.000000000               0.001836446               0.011697870               0.004173765              -0.000773568               0.004157106               0.003383537               0.000000000               0.000000000               0.000000000               0.000000000              -0.000242155               0.011067974               0.002335444              -0.001474303               0.004180721               0.002706419               0.000000000               0.000000000               0.000000000               0.000000000              -0.001813733               0.011006183               0.000608819              -0.002055918               0.004353997               0.002298079               0.000000000               0.000000000               0.000000000               0.000000000              -0.002295736               0.010359812               0.000039103              -0.002155872               0.004171860               0.002015988               0.000000000               0.000000000               0.000000000               0.000000000              -0.002366648               0.009636144              -0.000186603              -0.002092006               0.003909351               0.001817345               0.000000000               0.000000000               0.000000000               0.000000000              -0.002264529               0.008964881              -0.000290159              -0.001969804               0.003644865               0.001675061               0.000000000               0.000000000               0.000000000               0.000000000              -0.002066975               0.008344217              -0.000331531              -0.001818138               0.003387424               0.001569286               0.000000000               0.000000000               0.000000000               0.000000000              -0.001810789               0.007759442              -0.000344719              -0.001648972               0.003136112               0.001487140               0.000000000               0.000000000               0.000000000               0.000000000              -0.001516378               0.007214371              -0.000344824              -0.001470434               0.002894911               0.001424477               0.000000000               0.000000000               0.000000000               0.000000000              -0.001215637               0.006709580              -0.000328538              -0.001294558               0.002668024               0.001373465               0.000000000               0.000000000               0.000000000               0.000000000              -0.000933702               0.006252990              -0.000293718              -0.001131759               0.002461562               0.001329803               0.000000000               0.000000000               0.000000000               0.000000000              -0.000677605               0.005859257              -0.000244812              -0.000986507               0.002281902               0.001295395               0.000000000               0.000000000               0.000000000               0.000000000              -0.000453330               0.005535707              -0.000188554              -0.000861960               0.002132537               0.001270577               0.000000000               0.000000000               0.000000000               0.000000000              -0.000272330               0.005287881              -0.000132466              -0.000763107               0.002016978               0.001253871               0.000000000               0.000000000               0.000000000               0.000000000              -0.000139570               0.005116238              -0.000077968              -0.000691867               0.001936018               0.001244151               0.000000000               0.000000000               0.000000000               0.000000000              -0.000053915               0.005011684              -0.000032085              -0.000646677               0.001886104               0.001239427               0.000000000               0.000000000               0.000000000               0.000000000              -0.000030829               0.004965646              -0.000017310              -0.000632265               0.001865954               0.001233689               0.000000000               0.000000000               0.000000000               0.000000000               0.000918898               0.009023740               0.003467221              -0.000783382               0.003269009               0.002485628               0.000000000               0.000000000               0.000000000               0.000000000              -0.001117385               0.009453816               0.002206675              -0.001600744               0.003684821               0.002084078               0.000000000               0.000000000               0.000000000               0.000000000              -0.002700440               0.010121451               0.000984629              -0.002277841               0.004133063               0.001855222               0.000000000               0.000000000               0.000000000               0.000000000              -0.002969971               0.009729023               0.000536657              -0.002329861               0.004019595               0.001689734               0.000000000               0.000000000               0.000000000               0.000000000              -0.002836626               0.009142944               0.000309563              -0.002206597               0.003783150               0.001576553               0.000000000               0.000000000               0.000000000               0.000000000              -0.002570302               0.008550616               0.000169834              -0.002032685               0.003527739               0.001495054               0.000000000               0.000000000               0.000000000               0.000000000              -0.002226974               0.007977299               0.000084404              -0.001832273               0.003269831               0.001437558               0.000000000               0.000000000               0.000000000               0.000000000              -0.001844698               0.007427976               0.000025577              -0.001620255               0.003016052               0.001395797               0.000000000               0.000000000               0.000000000               0.000000000              -0.001458684               0.006912589              -0.000017093              -0.001411077               0.002774532               0.001363456               0.000000000               0.000000000               0.000000000               0.000000000              -0.001098201               0.006437392              -0.000039202              -0.001216497               0.002551275               0.001334778               0.000000000               0.000000000               0.000000000               0.000000000              -0.000782826               0.006020223              -0.000045291              -0.001046085               0.002355416               0.001309331               0.000000000               0.000000000               0.000000000               0.000000000              -0.000517885               0.005675929              -0.000039337              -0.000903696               0.002193189               0.001289493               0.000000000               0.000000000               0.000000000               0.000000000              -0.000308026               0.005409752              -0.000028980              -0.000791727               0.002067142               0.001275415               0.000000000               0.000000000               0.000000000               0.000000000              -0.000158597               0.005218779              -0.000022225              -0.000711819               0.001976849               0.001265029               0.000000000               0.000000000               0.000000000               0.000000000              -0.000066081               0.005094428              -0.000014837              -0.000661582               0.001918653               0.001257071               0.000000000               0.000000000               0.000000000               0.000000000              -0.000020141               0.005022031              -0.000006827              -0.000635305               0.001885762               0.001250457               0.000000000               0.000000000               0.000000000               0.000000000              -0.000014664               0.004990078              -0.000006556              -0.000629257               0.001873095               0.001243838               0.000000000               0.000000000               0.000000000               0.000000000              -0.000193273               0.006768038               0.002587882              -0.000918482               0.002562150               0.001643668               0.000000000               0.000000000               0.000000000               0.000000000              -0.001975832               0.008016892               0.002053132              -0.001743045               0.003253285               0.001510240               0.000000000               0.000000000               0.000000000               0.000000000              -0.003385585               0.009259956               0.001432691              -0.002427083               0.003895649               0.001468565               0.000000000               0.000000000               0.000000000               0.000000000              -0.003414827               0.009133959               0.001067921              -0.002422299               0.003852055               0.001429756               0.000000000               0.000000000               0.000000000               0.000000000              -0.003102261               0.008710223               0.000820764              -0.002252120               0.003654085               0.001401965               0.000000000               0.000000000               0.000000000               0.000000000              -0.002701040               0.008217306               0.000632492              -0.002040048               0.003419091               0.001379042               0.000000000               0.000000000               0.000000000               0.000000000              -0.002247542               0.007706922               0.000489348              -0.001806189               0.003171011               0.001364822               0.000000000               0.000000000               0.000000000               0.000000000              -0.001779107               0.007203339               0.000375893              -0.001567578               0.002923615               0.001356037               0.000000000               0.000000000               0.000000000               0.000000000              -0.001337634               0.006719357               0.000286396              -0.001341529               0.002686940               0.001345411               0.000000000               0.000000000               0.000000000               0.000000000              -0.000946432               0.006271663               0.000218347              -0.001138867               0.002470156               0.001331289               0.000000000               0.000000000               0.000000000               0.000000000              -0.000616472               0.005884330               0.000163114              -0.000966716               0.002283662               0.001316947               0.000000000               0.000000000               0.000000000               0.000000000              -0.000351358               0.005572242               0.000115909              -0.000828288               0.002133491               0.001305204               0.000000000               0.000000000               0.000000000               0.000000000              -0.000159652               0.005339760               0.000074024              -0.000727338               0.002022348               0.001295010               0.000000000               0.000000000               0.000000000               0.000000000              -0.000047919               0.005179060               0.000036322              -0.000665351               0.001948120               0.001282769               0.000000000               0.000000000               0.000000000               0.000000000              -0.000001149               0.005078203               0.000009951              -0.000635205               0.001904452               0.001269248               0.000000000               0.000000000               0.000000000               0.000000000               0.000006906               0.005022158              -0.000001219              -0.000625178               0.001882429               0.001257250               0.000000000               0.000000000               0.000000000               0.000000000               0.000002445               0.005003165              -0.000003896              -0.000624477               0.001875864               0.001251387               0.000000000               0.000000000               0.000000000               0.000000000              -0.001512260               0.004677762               0.001655985              -0.001151816               0.001943177               0.000791361               0.000000000               0.000000000               0.000000000               0.000000000              -0.002691578               0.006383360               0.001880362              -0.001807258               0.002730184               0.000922926               0.000000000               0.000000000               0.000000000               0.000000000              -0.003773147               0.008048042               0.001907019              -0.002420930               0.003489630               0.001068700               0.000000000               0.000000000               0.000000000               0.000000000              -0.003666546               0.008304351               0.001640105              -0.002412993               0.003572420               0.001159427               0.000000000               0.000000000               0.000000000               0.000000000              -0.003275118               0.008136984               0.001372707              -0.002245287               0.003460730               0.001215443               0.000000000               0.000000000               0.000000000               0.000000000              -0.002831611               0.007834454               0.001140629              -0.002041156               0.003291844               0.001250688               0.000000000               0.000000000               0.000000000               0.000000000              -0.002363097               0.007476682               0.000940287              -0.001820742               0.003099116               0.001278374               0.000000000               0.000000000               0.000000000               0.000000000              -0.001885241               0.007089631               0.000768478              -0.001593166               0.002894242               0.001301076               0.000000000               0.000000000               0.000000000               0.000000000              -0.001427782               0.006694450               0.000627502              -0.001372221               0.002688868               0.001316647               0.000000000               0.000000000               0.000000000               0.000000000              -0.001016890               0.006309069               0.000507393              -0.001169965               0.002492990               0.001323026               0.000000000               0.000000000               0.000000000               0.000000000              -0.000667480               0.005955847               0.000401153              -0.000994783               0.002316857               0.001322074               0.000000000               0.000000000               0.000000000               0.000000000              -0.000379139               0.005659365               0.000302359              -0.000849596               0.002169635               0.001320039               0.000000000               0.000000000               0.000000000               0.000000000              -0.000161614               0.005421294               0.000205435              -0.000738265               0.002053169               0.001314903               0.000000000               0.000000000               0.000000000               0.000000000              -0.000023166               0.005241754               0.000117992              -0.000663905               0.001968536               0.001304631               0.000000000               0.000000000               0.000000000               0.000000000               0.000041543               0.005119388               0.000052716              -0.000624343               0.001914560               0.001290217               0.000000000               0.000000000               0.000000000               0.000000000               0.000054678               0.005045549               0.000014775              -0.000610188               0.001885229               0.001275041               0.000000000               0.000000000               0.000000000               0.000000000               0.000050376               0.005021012               0.000002459              -0.000608734               0.001876565               0.001267831               0.000000000               0.000000000               0.000000000               0.000000000              -0.003205896               0.002792339               0.000740721              -0.001551250               0.001447853              -0.000103398               0.000000000               0.000000000               0.000000000               0.000000000              -0.003499784               0.004755861               0.001642949              -0.001906898               0.002220903               0.000314005               0.000000000               0.000000000               0.000000000               0.000000000              -0.004057011               0.006656166               0.002285292              -0.002353395               0.003003164               0.000649769               0.000000000               0.000000000               0.000000000               0.000000000              -0.003829128               0.007277414               0.002182718              -0.002345594               0.003207645               0.000862050               0.000000000               0.000000000               0.000000000               0.000000000              -0.003395015               0.007399839               0.001931051              -0.002198106               0.003199290               0.001001184               0.000000000               0.000000000               0.000000000               0.000000000              -0.002937097               0.007320704               0.001674004              -0.002016495               0.003112375               0.001095880               0.000000000               0.000000000               0.000000000               0.000000000              -0.002480635               0.007143648               0.001435605              -0.001823190               0.002988922               0.001165732               0.000000000               0.000000000               0.000000000               0.000000000              -0.002012223               0.006907110               0.001221443              -0.001617968               0.002841669               0.001223701               0.000000000               0.000000000               0.000000000               0.000000000              -0.001550844               0.006631826               0.001034849              -0.001410542               0.002680767               0.001270225               0.000000000               0.000000000               0.000000000               0.000000000              -0.001120272               0.006334233               0.000867484              -0.001211878               0.002515349               0.001303471               0.000000000               0.000000000               0.000000000               0.000000000              -0.000735960               0.006036727               0.000717462              -0.001030573               0.002355747               0.001325173               0.000000000               0.000000000               0.000000000               0.000000000              -0.000407449               0.005763917               0.000574002              -0.000873281               0.002212380               0.001339099               0.000000000               0.000000000               0.000000000               0.000000000              -0.000143035               0.005525698               0.000426614              -0.000744349               0.002089997               0.001345649               0.000000000               0.000000000               0.000000000               0.000000000               0.000047281               0.005327695               0.000283187              -0.000648230               0.001991957               0.001343727               0.000000000               0.000000000               0.000000000               0.000000000               0.000153020               0.005172876               0.000157872              -0.000589226               0.001920683               0.001331458               0.000000000               0.000000000               0.000000000               0.000000000               0.000180560               0.005068648               0.000064192              -0.000565870               0.001878156               0.001312286               0.000000000               0.000000000               0.000000000               0.000000000               0.000168627               0.005026526               0.000023654              -0.000565079               0.001863852               0.001298772               0.000000000               0.000000000               0.000000000               0.000000000              -0.005157537               0.001263842              -0.000077106              -0.002092054               0.001118624              -0.000973429               0.000000000               0.000000000               0.000000000               0.000000000              -0.004455640               0.003234236               0.001321895              -0.002075141               0.001769780              -0.000305361               0.000000000               0.000000000               0.000000000               0.000000000              -0.004296090               0.005093759               0.002451562              -0.002247749               0.002447151               0.000199402               0.000000000               0.000000000               0.000000000               0.000000000              -0.003860761               0.005964552               0.002547174              -0.002193350               0.002719280               0.000525930               0.000000000               0.000000000               0.000000000               0.000000000              -0.003365667               0.006352711               0.002358836              -0.002056210               0.002802952               0.000746742               0.000000000               0.000000000               0.000000000               0.000000000              -0.002888678               0.006503790               0.002112233              -0.001896224               0.002799982               0.000903758               0.000000000               0.000000000               0.000000000               0.000000000              -0.002440176               0.006526384               0.001870536              -0.001730860               0.002752392               0.001021532               0.000000000               0.000000000               0.000000000               0.000000000              -0.001993445               0.006465293               0.001645350              -0.001555700               0.002673643               0.001117942               0.000000000               0.000000000               0.000000000               0.000000000              -0.001548167               0.006337369               0.001435815              -0.001372731               0.002570012               0.001197281               0.000000000               0.000000000               0.000000000               0.000000000              -0.001114483               0.006164851               0.001241810              -0.001188535               0.002451108               0.001262573               0.000000000               0.000000000               0.000000000               0.000000000              -0.000706057               0.005966259               0.001061749              -0.001010552               0.002325583               0.001315032               0.000000000               0.000000000               0.000000000               0.000000000              -0.000344611               0.005755637               0.000884248              -0.000848682               0.002201420               0.001352738               0.000000000               0.000000000               0.000000000               0.000000000              -0.000037759               0.005552528               0.000699532              -0.000708224               0.002086899               0.001378675               0.000000000               0.000000000               0.000000000               0.000000000               0.000204373               0.005368703               0.000507398              -0.000594447               0.001987699               0.001393252               0.000000000               0.000000000               0.000000000               0.000000000               0.000364234               0.005207619               0.000318856              -0.000514363               0.001907310               0.001392947               0.000000000               0.000000000               0.000000000               0.000000000               0.000428713               0.005084721               0.000148627              -0.000474822               0.001853164               0.001378342               0.000000000               0.000000000               0.000000000               0.000000000               0.000421237               0.005026501               0.000065342              -0.000470348               0.001832266               0.001361918               0.000000000               0.000000000               0.000000000               0.000000000              -0.007235993               0.000157395              -0.000681381              -0.002733169               0.000963515              -0.001769655               0.000000000               0.000000000               0.000000000               0.000000000              -0.005499622               0.001891618               0.000959849              -0.002298807               0.001396799              -0.000902009               0.000000000               0.000000000               0.000000000               0.000000000              -0.004508531               0.003479829               0.002372584              -0.002125674               0.001868487              -0.000257187               0.000000000               0.000000000               0.000000000               0.000000000              -0.003787138               0.004464719               0.002645765              -0.001978263               0.002147644               0.000169381               0.000000000               0.000000000               0.000000000               0.000000000              -0.003195901               0.005063908               0.002549376              -0.001831448               0.002298434               0.000466986               0.000000000               0.000000000               0.000000000               0.000000000              -0.002683334               0.005433583               0.002346057              -0.001685445               0.002372990               0.000687545               0.000000000               0.000000000               0.000000000               0.000000000              -0.002233184               0.005658917               0.002128509              -0.001544806               0.002401221               0.000856416               0.000000000               0.000000000               0.000000000               0.000000000              -0.001810378               0.005774288               0.001920300              -0.001400675               0.002391635               0.000990959               0.000000000               0.000000000               0.000000000               0.000000000              -0.001392051               0.005804670               0.001720508              -0.001247600               0.002350737               0.001103137               0.000000000               0.000000000               0.000000000               0.000000000              -0.000973320               0.005777135               0.001528472              -0.001087135               0.002288070               0.001200936               0.000000000               0.000000000               0.000000000               0.000000000              -0.000565343               0.005706804               0.001339822              -0.000925352               0.002210699               0.001285347               0.000000000               0.000000000               0.000000000               0.000000000              -0.000178817               0.005603324               0.001149918              -0.000767471               0.002123579               0.001356109               0.000000000               0.000000000               0.000000000               0.000000000               0.000174833               0.005476191               0.000952441              -0.000618961               0.002031699               0.001412738               0.000000000               0.000000000               0.000000000               0.000000000               0.000480869               0.005338388               0.000738038              -0.000486972               0.001941769               0.001454797               0.000000000               0.000000000               0.000000000               0.000000000               0.000721118               0.005206172               0.000505350              -0.000380352               0.001862157               0.001481805               0.000000000               0.000000000               0.000000000               0.000000000               0.000866729               0.005092345               0.000257867              -0.000311519               0.001801271               0.001489752               0.000000000               0.000000000               0.000000000               0.000000000               0.000905099               0.005035673               0.000129763              -0.000290046               0.001775223               0.001485177               0.000000000               0.000000000               0.000000000               0.000000000              -0.009243173              -0.000558259              -0.000974746              -0.003396405               0.000946042              -0.002450363               0.000000000               0.000000000               0.000000000               0.000000000              -0.006540595               0.000793549               0.000616349              -0.002551914               0.001115146              -0.001436768               0.000000000               0.000000000               0.000000000               0.000000000              -0.004698350               0.001972627               0.002043585              -0.002008457               0.001327018              -0.000681439               0.000000000               0.000000000               0.000000000               0.000000000              -0.003643220               0.002956644               0.002415706              -0.001735785               0.001564131              -0.000171654               0.000000000               0.000000000               0.000000000               0.000000000              -0.002926188               0.003691849               0.002407701              -0.001558799               0.001750202               0.000191404               0.000000000               0.000000000               0.000000000               0.000000000              -0.002372854               0.004232336               0.002267457              -0.001418860               0.001883717               0.000464857               0.000000000               0.000000000               0.000000000               0.000000000              -0.001908291               0.004628634               0.002096331              -0.001294186               0.001974257               0.000680071               0.000000000               0.000000000               0.000000000               0.000000000              -0.001494838               0.004907563               0.001927830              -0.001174008               0.002027173               0.000853166               0.000000000               0.000000000               0.000000000               0.000000000              -0.001098590               0.005096768               0.001763104              -0.001049066               0.002048594               0.000999528               0.000000000               0.000000000               0.000000000               0.000000000              -0.000704519               0.005215065               0.001598007              -0.000916076               0.002043696               0.001127620               0.000000000               0.000000000               0.000000000               0.000000000              -0.000305908               0.005283747               0.001430880              -0.000775183               0.002019625               0.001244443               0.000000000               0.000000000               0.000000000               0.000000000               0.000098274               0.005312954               0.001261439              -0.000627266               0.001980055               0.001352789               0.000000000               0.000000000               0.000000000               0.000000000               0.000499409               0.005299279               0.001080857              -0.000475131               0.001924785               0.001449654               0.000000000               0.000000000               0.000000000               0.000000000               0.000882073               0.005242030               0.000875790              -0.000324476               0.001855484               0.001531008               0.000000000               0.000000000               0.000000000               0.000000000               0.001230463               0.005162666               0.000633878              -0.000183909               0.001782175               0.001598265               0.000000000               0.000000000               0.000000000               0.000000000               0.001518646               0.005082326               0.000340383              -0.000065799               0.001716025               0.001650226               0.000000000               0.000000000               0.000000000               0.000000000               0.001672564               0.005052455               0.000185698              -0.000004346               0.001685583               0.001681238               0.000000000               0.000000000               0.000000000               0.000000000              -0.010932458              -0.000953917              -0.000917902              -0.003980430               0.001008830              -0.002971599               0.000000000               0.000000000               0.000000000               0.000000000              -0.007443281              -0.000007635               0.000339047              -0.002790274               0.000927540              -0.001862734               0.000000000               0.000000000               0.000000000               0.000000000              -0.004864632               0.000741085               0.001497415              -0.001916871               0.000885978              -0.001030892               0.000000000               0.000000000               0.000000000               0.000000000              -0.003488422               0.001649825               0.001849517              -0.001514384               0.001054728              -0.000459656               0.000000000               0.000000000               0.000000000               0.000000000              -0.002634906               0.002451176               0.001888911              -0.001294484               0.001248544              -0.000045941               0.000000000               0.000000000               0.000000000               0.000000000              -0.002029488               0.003103106               0.001811385              -0.001148944               0.001417339               0.000268395               0.000000000               0.000000000               0.000000000               0.000000000              -0.001545172               0.003622809               0.001700998              -0.001032289               0.001551687               0.000519398               0.000000000               0.000000000               0.000000000               0.000000000              -0.001128979               0.004032633               0.001585183              -0.000927445               0.001653345               0.000725900               0.000000000               0.000000000               0.000000000               0.000000000              -0.000747121               0.004355906               0.001468163              -0.000824657               0.001726839               0.000902182               0.000000000               0.000000000               0.000000000               0.000000000              -0.000370109               0.004604102               0.001350101              -0.000714303               0.001772786               0.001058483               0.000000000               0.000000000               0.000000000               0.000000000               0.000021588               0.004795253               0.001229833              -0.000591311               0.001795505               0.001204194               0.000000000               0.000000000               0.000000000               0.000000000               0.000435048               0.004945358               0.001105283              -0.000455026               0.001800112               0.001345085               0.000000000               0.000000000               0.000000000               0.000000000               0.000872060               0.005045735               0.000969991              -0.000303694               0.001783126               0.001479432               0.000000000               0.000000000               0.000000000               0.000000000               0.001330527               0.005087667               0.000808364              -0.000137011               0.001741542               0.001604531               0.000000000               0.000000000               0.000000000               0.000000000               0.001804062               0.005083656               0.000603074               0.000041065               0.001680846               0.001721912               0.000000000               0.000000000               0.000000000               0.000000000               0.002288934               0.005050449               0.000332895               0.000227042               0.001607785               0.001834827               0.000000000               0.000000000               0.000000000               0.000000000               0.002627130               0.005061943               0.000191470               0.000352427               0.001569822               0.001922249               0.000000000               0.000000000               0.000000000               0.000000000              -0.012063755              -0.001129702              -0.000550371              -0.004382693               0.001084323              -0.003298370               0.000000000               0.000000000               0.000000000               0.000000000              -0.008058503              -0.000489009               0.000142317              -0.002960811               0.000823928              -0.002136882               0.000000000               0.000000000               0.000000000               0.000000000              -0.004983587              -0.000065311               0.000790738              -0.001860680               0.000598452              -0.001262228               0.000000000               0.000000000               0.000000000               0.000000000              -0.003376561               0.000760465               0.001004388              -0.001361267               0.000707239              -0.000654028               0.000000000               0.000000000               0.000000000               0.000000000              -0.002415636               0.001578306               0.001042740              -0.001103150               0.000893812              -0.000209338               0.000000000               0.000000000               0.000000000               0.000000000              -0.001758299               0.002285849               0.001012150              -0.000945091               0.001076972               0.000131881               0.000000000               0.000000000               0.000000000               0.000000000              -0.001256776               0.002877720               0.000959822              -0.000831004               0.001236232               0.000405227               0.000000000               0.000000000               0.000000000               0.000000000              -0.000838813               0.003366452               0.000900310              -0.000735360               0.001367259               0.000631899               0.000000000               0.000000000               0.000000000               0.000000000              -0.000460688               0.003774702               0.000838911              -0.000644595               0.001473086               0.000828491               0.000000000               0.000000000               0.000000000               0.000000000              -0.000090859               0.004113022               0.000778207              -0.000548199               0.001553726               0.001005527               0.000000000               0.000000000               0.000000000               0.000000000               0.000293734               0.004393121               0.000713777              -0.000438989               0.001610689               0.001171699               0.000000000               0.000000000               0.000000000               0.000000000               0.000711189               0.004628115               0.000647428              -0.000311818               0.001646629               0.001334811               0.000000000               0.000000000               0.000000000               0.000000000               0.001170716               0.004813719               0.000577426              -0.000162696               0.001658789               0.001496093               0.000000000               0.000000000               0.000000000               0.000000000               0.001684159               0.004945353               0.000488116               0.000013390               0.001643971               0.001657361               0.000000000               0.000000000               0.000000000               0.000000000               0.002265588               0.005013137               0.000368063               0.000222951               0.001596712               0.001819663               0.000000000               0.000000000               0.000000000               0.000000000               0.002936178               0.005019459               0.000206210               0.000473629               0.001515260               0.001988889               0.000000000               0.000000000               0.000000000               0.000000000               0.003456244               0.005066447               0.000123350               0.000662779               0.001467872               0.002130651               0.000000000               0.000000000               0.000000000               0.000000000               0.000000000               0.000000000               0.000000000               0.000000000               0.000000000               0.000000000               0.000000000               0.000000000               0.000000000               0.000000000               0.000000000               0.000000000               0.000000000               0.000000000               0.000000000               0.000000000               0.000000000               0.000000000               0.000000000               0.000000000               0.000000000               0.000000000               0.000000000               0.000000000               0.000000000               0.000000000               0.000000000               0.000000000               0.000000000               0.000000000               0.000000000               0.000000000               0.000000000               0.000000000               0.000000000               0.000000000               0.000000000               0.000000000               0.000000000               0.000000000               0.000000000               0.000000000               0.000000000               0.000000000               0.000000000               0.000000000               0.000000000               0.000000000               0.000000000               0.000000000               0.000000000               0.000000000               0.000000000               0.000000000               0.000000000               0.000000000               0.000000000               0.000000000               0.000000000               0.000000000               0.000000000               0.000000000               0.000000000               0.000000000               0.000000000               0.000000000               0.000000000               0.000000000               0.000000000               0.000000000               0.000000000               0.000000000               0.000000000               0.000000000               0.000000000               0.000000000               0.000000000               0.000000000               0.000000000               0.000000000               0.000000000               0.000000000               0.000000000               0.000000000               0.000000000               0.000000000               0.000000000               0.000000000               0.000000000               0.000000000               0.000000000               0.000000000               0.000000000               0.000000000               0.000000000               0.000000000               0.000000000               0.000000000               0.000000000               0.000000000               0.000000000               0.000000000               0.000000000               0.000000000               0.000000000               0.000000000               0.000000000               0.000000000               0.000000000               0.000000000               0.000000000               0.000000000               0.000000000               0.000000000               0.000000000               0.000000000               0.000000000               0.000000000               0.000000000               0.000000000               0.000000000               0.000000000               0.000000000               0.000000000               0.000000000               0.000000000               0.000000000               0.000000000               0.000000000               0.000000000               0.000000000               0.000000000               0.000000000               0.000000000               0.000000000               0.000000000               0.000000000               0.000000000               0.000000000               0.000000000               0.000000000               0.000000000               0.000000000               0.000000000               0.000000000               0.000000000               0.000000000               0.000000000               0.000000000               0.000000000               0.000000000               0.000000000               0.000000000               0.000000000               0.000000000               0.000000000               0.000000000               0.000000000               0.000000000               0.000000000               0.000000000               0.000000000               0.000000000               0.000000000               0.000000000               0.000000000               0.000000000               0.000000000               0.000000000               0.000000000 </DataArray>
</PointData>
</Piece>
</UnstructuredGrid> </VTKFile>
