<?xml version="1.0"?>
<VTKFile type="UnstructuredGrid" version="0.1">
<UnstructuredGrid>
<Piece NumberOfPoints="      1156" NumberOfCells="      1024">
<Points>
<DataArray type="Float64"                                    Name="coordinates"                                                      NumberOfComponents=" 3" format="ascii">
              0.133000000               0.000000000               0.000000000               0.155937500               0.000000000               0.000000000               0.178875000               0.000000000               0.000000000               0.201812500               0.000000000               0.000000000               0.224750000               0.000000000               0.000000000               0.247687500               0.000000000               0.000000000               0.270625000               0.000000000               0.000000000               0.293562500               0.000000000               0.000000000               0.316500000               0.000000000               0.000000000               0.339437500               0.000000000               0.000000000               0.362375000               0.000000000               0.000000000               0.385312500               0.000000000               0.000000000               0.408250000               0.000000000               0.000000000               0.431187500               0.000000000               0.000000000               0.454125000               0.000000000               0.000000000               0.477062500               0.000000000               0.000000000               0.500000000               0.000000000               0.000000000               0.132359569               0.013036280               0.000000000               0.155337096               0.016127762               0.000000000               0.178314623               0.019219245               0.000000000               0.201292150               0.022310727               0.000000000               0.224269676               0.025402210               0.000000000               0.247247203               0.028493692               0.000000000               0.270224730               0.031585175               0.000000000               0.293202257               0.034676657               0.000000000               0.316179784               0.037768140               0.000000000               0.339157311               0.040859622               0.000000000               0.362134838               0.043951105               0.000000000               0.385112365               0.047042587               0.000000000               0.408089892               0.050134070               0.000000000               0.431067419               0.053225552               0.000000000               0.454044946               0.056317035               0.000000000               0.477022473               0.059408517               0.000000000               0.500000000               0.062500000               0.000000000               0.130444442               0.025947013               0.000000000               0.153541665               0.032137825               0.000000000               0.176638887               0.038328636               0.000000000               0.199736109               0.044519448               0.000000000               0.222833332               0.050710260               0.000000000               0.245930554               0.056901071               0.000000000               0.269027776               0.063091883               0.000000000               0.292124999               0.069282695               0.000000000               0.315222221               0.075473506               0.000000000               0.338319444               0.081664318               0.000000000               0.361416666               0.087855130               0.000000000               0.384513888               0.094045942               0.000000000               0.407611111               0.100236753               0.000000000               0.430708333               0.106427565               0.000000000               0.453805555               0.112618377               0.000000000               0.476902778               0.118809188               0.000000000               0.500000000               0.125000000               0.000000000               0.127273065               0.038607862               0.000000000               0.150568498               0.047913621               0.000000000               0.173863932               0.057219379               0.000000000               0.197159365               0.066525138               0.000000000               0.220454798               0.075830897               0.000000000               0.243750232               0.085136655               0.000000000               0.267045665               0.094442414               0.000000000               0.290341099               0.103748172               0.000000000               0.313636532               0.113053931               0.000000000               0.336931966               0.122359690               0.000000000               0.360227399               0.131665448               0.000000000               0.383522833               0.140971207               0.000000000               0.406818266               0.150276966               0.000000000               0.430113700               0.159582724               0.000000000               0.453409133               0.168888483               0.000000000               0.476704567               0.178194241               0.000000000               0.500000000               0.187500000               0.000000000               0.122875978               0.050896897               0.000000000               0.146446229               0.063340840               0.000000000               0.170016481               0.075784784               0.000000000               0.193586732               0.088228728               0.000000000               0.217156983               0.100672672               0.000000000               0.240727235               0.113116616               0.000000000               0.264297486               0.125560560               0.000000000               0.287867738               0.138004504               0.000000000               0.311437989               0.150448448               0.000000000               0.335008240               0.162892392               0.000000000               0.358578492               0.175336336               0.000000000               0.382148743               0.187780280               0.000000000               0.405718994               0.200224224               0.000000000               0.429289246               0.212668168               0.000000000               0.452859497               0.225112112               0.000000000               0.476429749               0.237556056               0.000000000               0.500000000               0.250000000               0.000000000               0.117295528               0.062695766               0.000000000               0.141214558               0.078308531               0.000000000               0.165133587               0.093921295               0.000000000               0.189052617               0.109534060               0.000000000               0.212971646               0.125146824               0.000000000               0.236890676               0.140759589               0.000000000               0.260809705               0.156372354               0.000000000               0.284728735               0.171985118               0.000000000               0.308647764               0.187597883               0.000000000               0.332566794               0.203210648               0.000000000               0.356485823               0.218823412               0.000000000               0.380404853               0.234436177               0.000000000               0.404323882               0.250048941               0.000000000               0.428242912               0.265661706               0.000000000               0.452161941               0.281274471               0.000000000               0.476080971               0.296887235               0.000000000               0.500000000               0.312500000               0.000000000               0.110585458               0.073890841               0.000000000               0.134923867               0.092710163               0.000000000               0.159262276               0.111529486               0.000000000               0.183600685               0.130348808               0.000000000               0.207939094               0.149168131               0.000000000               0.232277503               0.167987453               0.000000000               0.256615912               0.186806776               0.000000000               0.280954320               0.205626098               0.000000000               0.305292729               0.224445420               0.000000000               0.329631138               0.243264743               0.000000000               0.353969547               0.262084065               0.000000000               0.378307956               0.280903388               0.000000000               0.402646365               0.299722710               0.000000000               0.426984773               0.318542033               0.000000000               0.451323182               0.337361355               0.000000000               0.475661591               0.356180678               0.000000000               0.500000000               0.375000000               0.000000000               0.102810390               0.084374307               0.000000000               0.127634741               0.106444663               0.000000000               0.152459092               0.128515018               0.000000000               0.177283442               0.150585374               0.000000000               0.202107793               0.172655730               0.000000000               0.226932143               0.194726086               0.000000000               0.251756494               0.216796442               0.000000000               0.276580845               0.238866798               0.000000000               0.301405195               0.260937153               0.000000000               0.326229546               0.283007509               0.000000000               0.351053896               0.305077865               0.000000000               0.375878247               0.327148221               0.000000000               0.400702598               0.349218577               0.000000000               0.425526948               0.371288933               0.000000000               0.450351299               0.393359288               0.000000000               0.475175649               0.415429644               0.000000000               0.500000000               0.437500000               0.000000000               0.094045202               0.094045202               0.000000000               0.119417377               0.119417377               0.000000000               0.144789552               0.144789552               0.000000000               0.170161727               0.170161727               0.000000000               0.195533901               0.195533901               0.000000000               0.220906076               0.220906076               0.000000000               0.246278251               0.246278251               0.000000000               0.271650426               0.271650426               0.000000000               0.297022601               0.297022601               0.000000000               0.322394776               0.322394776               0.000000000               0.347766951               0.347766951               0.000000000               0.373139126               0.373139126               0.000000000               0.398511300               0.398511300               0.000000000               0.423883475               0.423883475               0.000000000               0.449255650               0.449255650               0.000000000               0.474627825               0.474627825               0.000000000               0.500000000               0.500000000               0.000000000               0.084374307               0.102810390               0.000000000               0.106444663               0.127634741               0.000000000               0.128515018               0.152459092               0.000000000               0.150585374               0.177283442               0.000000000               0.172655730               0.202107793               0.000000000               0.194726086               0.226932143               0.000000000               0.216796442               0.251756494               0.000000000               0.238866798               0.276580845               0.000000000               0.260937153               0.301405195               0.000000000               0.283007509               0.326229546               0.000000000               0.305077865               0.351053896               0.000000000               0.327148221               0.375878247               0.000000000               0.349218577               0.400702598               0.000000000               0.371288933               0.425526948               0.000000000               0.393359288               0.450351299               0.000000000               0.415429644               0.475175649               0.000000000               0.437500000               0.500000000               0.000000000               0.073890841               0.110585458               0.000000000               0.092710163               0.134923867               0.000000000               0.111529486               0.159262276               0.000000000               0.130348808               0.183600685               0.000000000               0.149168131               0.207939094               0.000000000               0.167987453               0.232277503               0.000000000               0.186806776               0.256615912               0.000000000               0.205626098               0.280954320               0.000000000               0.224445420               0.305292729               0.000000000               0.243264743               0.329631138               0.000000000               0.262084065               0.353969547               0.000000000               0.280903388               0.378307956               0.000000000               0.299722710               0.402646365               0.000000000               0.318542033               0.426984773               0.000000000               0.337361355               0.451323182               0.000000000               0.356180678               0.475661591               0.000000000               0.375000000               0.500000000               0.000000000               0.062695766               0.117295528               0.000000000               0.078308531               0.141214558               0.000000000               0.093921295               0.165133587               0.000000000               0.109534060               0.189052617               0.000000000               0.125146824               0.212971646               0.000000000               0.140759589               0.236890676               0.000000000               0.156372354               0.260809705               0.000000000               0.171985118               0.284728735               0.000000000               0.187597883               0.308647764               0.000000000               0.203210648               0.332566794               0.000000000               0.218823412               0.356485823               0.000000000               0.234436177               0.380404853               0.000000000               0.250048941               0.404323882               0.000000000               0.265661706               0.428242912               0.000000000               0.281274471               0.452161941               0.000000000               0.296887235               0.476080971               0.000000000               0.312500000               0.500000000               0.000000000               0.050896897               0.122875978               0.000000000               0.063340840               0.146446229               0.000000000               0.075784784               0.170016481               0.000000000               0.088228728               0.193586732               0.000000000               0.100672672               0.217156983               0.000000000               0.113116616               0.240727235               0.000000000               0.125560560               0.264297486               0.000000000               0.138004504               0.287867738               0.000000000               0.150448448               0.311437989               0.000000000               0.162892392               0.335008240               0.000000000               0.175336336               0.358578492               0.000000000               0.187780280               0.382148743               0.000000000               0.200224224               0.405718994               0.000000000               0.212668168               0.429289246               0.000000000               0.225112112               0.452859497               0.000000000               0.237556056               0.476429749               0.000000000               0.250000000               0.500000000               0.000000000               0.038607862               0.127273065               0.000000000               0.047913621               0.150568498               0.000000000               0.057219379               0.173863932               0.000000000               0.066525138               0.197159365               0.000000000               0.075830897               0.220454798               0.000000000               0.085136655               0.243750232               0.000000000               0.094442414               0.267045665               0.000000000               0.103748172               0.290341099               0.000000000               0.113053931               0.313636532               0.000000000               0.122359690               0.336931966               0.000000000               0.131665448               0.360227399               0.000000000               0.140971207               0.383522833               0.000000000               0.150276966               0.406818266               0.000000000               0.159582724               0.430113700               0.000000000               0.168888483               0.453409133               0.000000000               0.178194241               0.476704567               0.000000000               0.187500000               0.500000000               0.000000000               0.025947013               0.130444442               0.000000000               0.032137825               0.153541665               0.000000000               0.038328636               0.176638887               0.000000000               0.044519448               0.199736109               0.000000000               0.050710260               0.222833332               0.000000000               0.056901071               0.245930554               0.000000000               0.063091883               0.269027776               0.000000000               0.069282695               0.292124999               0.000000000               0.075473506               0.315222221               0.000000000               0.081664318               0.338319444               0.000000000               0.087855130               0.361416666               0.000000000               0.094045942               0.384513888               0.000000000               0.100236753               0.407611111               0.000000000               0.106427565               0.430708333               0.000000000               0.112618377               0.453805555               0.000000000               0.118809188               0.476902778               0.000000000               0.125000000               0.500000000               0.000000000               0.013036280               0.132359569               0.000000000               0.016127762               0.155337096               0.000000000               0.019219245               0.178314623               0.000000000               0.022310727               0.201292150               0.000000000               0.025402210               0.224269676               0.000000000               0.028493692               0.247247203               0.000000000               0.031585175               0.270224730               0.000000000               0.034676657               0.293202257               0.000000000               0.037768140               0.316179784               0.000000000               0.040859622               0.339157311               0.000000000               0.043951105               0.362134838               0.000000000               0.047042587               0.385112365               0.000000000               0.050134070               0.408089892               0.000000000               0.053225552               0.431067419               0.000000000               0.056317035               0.454044946               0.000000000               0.059408517               0.477022473               0.000000000               0.062500000               0.500000000               0.000000000               0.000000000               0.133000000               0.000000000               0.000000000               0.155937500               0.000000000               0.000000000               0.178875000               0.000000000               0.000000000               0.201812500               0.000000000               0.000000000               0.224750000               0.000000000               0.000000000               0.247687500               0.000000000               0.000000000               0.270625000               0.000000000               0.000000000               0.293562500               0.000000000               0.000000000               0.316500000               0.000000000               0.000000000               0.339437500               0.000000000               0.000000000               0.362375000               0.000000000               0.000000000               0.385312500               0.000000000               0.000000000               0.408250000               0.000000000               0.000000000               0.431187500               0.000000000               0.000000000               0.454125000               0.000000000               0.000000000               0.477062500               0.000000000               0.000000000               0.500000000               0.000000000               0.133000000               0.000000000               0.000000000               0.155937500               0.000000000               0.000000000               0.178875000               0.000000000               0.000000000               0.201812500               0.000000000               0.000000000               0.224750000               0.000000000               0.000000000               0.247687500               0.000000000               0.000000000               0.270625000               0.000000000               0.000000000               0.293562500               0.000000000               0.000000000               0.316500000               0.000000000               0.000000000               0.339437500               0.000000000               0.000000000               0.362375000               0.000000000               0.000000000               0.385312500               0.000000000               0.000000000               0.408250000               0.000000000               0.000000000               0.431187500               0.000000000               0.000000000               0.454125000               0.000000000               0.000000000               0.477062500               0.000000000               0.000000000               0.500000000               0.000000000               0.000000000               0.132359569              -0.013036280               0.000000000               0.155337096              -0.016127762               0.000000000               0.178314623              -0.019219245               0.000000000               0.201292150              -0.022310727               0.000000000               0.224269676              -0.025402210               0.000000000               0.247247203              -0.028493692               0.000000000               0.270224730              -0.031585175               0.000000000               0.293202257              -0.034676657               0.000000000               0.316179784              -0.037768140               0.000000000               0.339157311              -0.040859622               0.000000000               0.362134838              -0.043951105               0.000000000               0.385112365              -0.047042587               0.000000000               0.408089892              -0.050134070               0.000000000               0.431067419              -0.053225552               0.000000000               0.454044946              -0.056317035               0.000000000               0.477022473              -0.059408517               0.000000000               0.500000000              -0.062500000               0.000000000               0.130444442              -0.025947013               0.000000000               0.153541665              -0.032137825               0.000000000               0.176638887              -0.038328636               0.000000000               0.199736109              -0.044519448               0.000000000               0.222833332              -0.050710260               0.000000000               0.245930554              -0.056901071               0.000000000               0.269027776              -0.063091883               0.000000000               0.292124999              -0.069282695               0.000000000               0.315222221              -0.075473506               0.000000000               0.338319444              -0.081664318               0.000000000               0.361416666              -0.087855130               0.000000000               0.384513888              -0.094045942               0.000000000               0.407611111              -0.100236753               0.000000000               0.430708333              -0.106427565               0.000000000               0.453805555              -0.112618377               0.000000000               0.476902778              -0.118809188               0.000000000               0.500000000              -0.125000000               0.000000000               0.127273065              -0.038607862               0.000000000               0.150568498              -0.047913621               0.000000000               0.173863932              -0.057219379               0.000000000               0.197159365              -0.066525138               0.000000000               0.220454798              -0.075830897               0.000000000               0.243750232              -0.085136655               0.000000000               0.267045665              -0.094442414               0.000000000               0.290341099              -0.103748172               0.000000000               0.313636532              -0.113053931               0.000000000               0.336931966              -0.122359690               0.000000000               0.360227399              -0.131665448               0.000000000               0.383522833              -0.140971207               0.000000000               0.406818266              -0.150276966               0.000000000               0.430113700              -0.159582724               0.000000000               0.453409133              -0.168888483               0.000000000               0.476704567              -0.178194241               0.000000000               0.500000000              -0.187500000               0.000000000               0.122875978              -0.050896897               0.000000000               0.146446229              -0.063340840               0.000000000               0.170016481              -0.075784784               0.000000000               0.193586732              -0.088228728               0.000000000               0.217156983              -0.100672672               0.000000000               0.240727235              -0.113116616               0.000000000               0.264297486              -0.125560560               0.000000000               0.287867738              -0.138004504               0.000000000               0.311437989              -0.150448448               0.000000000               0.335008240              -0.162892392               0.000000000               0.358578492              -0.175336336               0.000000000               0.382148743              -0.187780280               0.000000000               0.405718994              -0.200224224               0.000000000               0.429289246              -0.212668168               0.000000000               0.452859497              -0.225112112               0.000000000               0.476429749              -0.237556056               0.000000000               0.500000000              -0.250000000               0.000000000               0.117295528              -0.062695766               0.000000000               0.141214558              -0.078308531               0.000000000               0.165133587              -0.093921295               0.000000000               0.189052617              -0.109534060               0.000000000               0.212971646              -0.125146824               0.000000000               0.236890676              -0.140759589               0.000000000               0.260809705              -0.156372354               0.000000000               0.284728735              -0.171985118               0.000000000               0.308647764              -0.187597883               0.000000000               0.332566794              -0.203210648               0.000000000               0.356485823              -0.218823412               0.000000000               0.380404853              -0.234436177               0.000000000               0.404323882              -0.250048941               0.000000000               0.428242912              -0.265661706               0.000000000               0.452161941              -0.281274471               0.000000000               0.476080971              -0.296887235               0.000000000               0.500000000              -0.312500000               0.000000000               0.110585458              -0.073890841               0.000000000               0.134923867              -0.092710163               0.000000000               0.159262276              -0.111529486               0.000000000               0.183600685              -0.130348808               0.000000000               0.207939094              -0.149168131               0.000000000               0.232277503              -0.167987453               0.000000000               0.256615912              -0.186806776               0.000000000               0.280954320              -0.205626098               0.000000000               0.305292729              -0.224445420               0.000000000               0.329631138              -0.243264743               0.000000000               0.353969547              -0.262084065               0.000000000               0.378307956              -0.280903388               0.000000000               0.402646365              -0.299722710               0.000000000               0.426984773              -0.318542033               0.000000000               0.451323182              -0.337361355               0.000000000               0.475661591              -0.356180678               0.000000000               0.500000000              -0.375000000               0.000000000               0.102810390              -0.084374307               0.000000000               0.127634741              -0.106444663               0.000000000               0.152459092              -0.128515018               0.000000000               0.177283442              -0.150585374               0.000000000               0.202107793              -0.172655730               0.000000000               0.226932143              -0.194726086               0.000000000               0.251756494              -0.216796442               0.000000000               0.276580845              -0.238866798               0.000000000               0.301405195              -0.260937153               0.000000000               0.326229546              -0.283007509               0.000000000               0.351053896              -0.305077865               0.000000000               0.375878247              -0.327148221               0.000000000               0.400702598              -0.349218577               0.000000000               0.425526948              -0.371288933               0.000000000               0.450351299              -0.393359288               0.000000000               0.475175649              -0.415429644               0.000000000               0.500000000              -0.437500000               0.000000000               0.094045202              -0.094045202               0.000000000               0.119417377              -0.119417377               0.000000000               0.144789552              -0.144789552               0.000000000               0.170161727              -0.170161727               0.000000000               0.195533901              -0.195533901               0.000000000               0.220906076              -0.220906076               0.000000000               0.246278251              -0.246278251               0.000000000               0.271650426              -0.271650426               0.000000000               0.297022601              -0.297022601               0.000000000               0.322394776              -0.322394776               0.000000000               0.347766951              -0.347766951               0.000000000               0.373139126              -0.373139126               0.000000000               0.398511300              -0.398511300               0.000000000               0.423883475              -0.423883475               0.000000000               0.449255650              -0.449255650               0.000000000               0.474627825              -0.474627825               0.000000000               0.500000000              -0.500000000               0.000000000               0.084374307              -0.102810390               0.000000000               0.106444663              -0.127634741               0.000000000               0.128515018              -0.152459092               0.000000000               0.150585374              -0.177283442               0.000000000               0.172655730              -0.202107793               0.000000000               0.194726086              -0.226932143               0.000000000               0.216796442              -0.251756494               0.000000000               0.238866798              -0.276580845               0.000000000               0.260937153              -0.301405195               0.000000000               0.283007509              -0.326229546               0.000000000               0.305077865              -0.351053896               0.000000000               0.327148221              -0.375878247               0.000000000               0.349218577              -0.400702598               0.000000000               0.371288933              -0.425526948               0.000000000               0.393359288              -0.450351299               0.000000000               0.415429644              -0.475175649               0.000000000               0.437500000              -0.500000000               0.000000000               0.073890841              -0.110585458               0.000000000               0.092710163              -0.134923867               0.000000000               0.111529486              -0.159262276               0.000000000               0.130348808              -0.183600685               0.000000000               0.149168131              -0.207939094               0.000000000               0.167987453              -0.232277503               0.000000000               0.186806776              -0.256615912               0.000000000               0.205626098              -0.280954320               0.000000000               0.224445420              -0.305292729               0.000000000               0.243264743              -0.329631138               0.000000000               0.262084065              -0.353969547               0.000000000               0.280903388              -0.378307956               0.000000000               0.299722710              -0.402646365               0.000000000               0.318542033              -0.426984773               0.000000000               0.337361355              -0.451323182               0.000000000               0.356180678              -0.475661591               0.000000000               0.375000000              -0.500000000               0.000000000               0.062695766              -0.117295528               0.000000000               0.078308531              -0.141214558               0.000000000               0.093921295              -0.165133587               0.000000000               0.109534060              -0.189052617               0.000000000               0.125146824              -0.212971646               0.000000000               0.140759589              -0.236890676               0.000000000               0.156372354              -0.260809705               0.000000000               0.171985118              -0.284728735               0.000000000               0.187597883              -0.308647764               0.000000000               0.203210648              -0.332566794               0.000000000               0.218823412              -0.356485823               0.000000000               0.234436177              -0.380404853               0.000000000               0.250048941              -0.404323882               0.000000000               0.265661706              -0.428242912               0.000000000               0.281274471              -0.452161941               0.000000000               0.296887235              -0.476080971               0.000000000               0.312500000              -0.500000000               0.000000000               0.050896897              -0.122875978               0.000000000               0.063340840              -0.146446229               0.000000000               0.075784784              -0.170016481               0.000000000               0.088228728              -0.193586732               0.000000000               0.100672672              -0.217156983               0.000000000               0.113116616              -0.240727235               0.000000000               0.125560560              -0.264297486               0.000000000               0.138004504              -0.287867738               0.000000000               0.150448448              -0.311437989               0.000000000               0.162892392              -0.335008240               0.000000000               0.175336336              -0.358578492               0.000000000               0.187780280              -0.382148743               0.000000000               0.200224224              -0.405718994               0.000000000               0.212668168              -0.429289246               0.000000000               0.225112112              -0.452859497               0.000000000               0.237556056              -0.476429749               0.000000000               0.250000000              -0.500000000               0.000000000               0.038607862              -0.127273065               0.000000000               0.047913621              -0.150568498               0.000000000               0.057219379              -0.173863932               0.000000000               0.066525138              -0.197159365               0.000000000               0.075830897              -0.220454798               0.000000000               0.085136655              -0.243750232               0.000000000               0.094442414              -0.267045665               0.000000000               0.103748172              -0.290341099               0.000000000               0.113053931              -0.313636532               0.000000000               0.122359690              -0.336931966               0.000000000               0.131665448              -0.360227399               0.000000000               0.140971207              -0.383522833               0.000000000               0.150276966              -0.406818266               0.000000000               0.159582724              -0.430113700               0.000000000               0.168888483              -0.453409133               0.000000000               0.178194241              -0.476704567               0.000000000               0.187500000              -0.500000000               0.000000000               0.025947013              -0.130444442               0.000000000               0.032137825              -0.153541665               0.000000000               0.038328636              -0.176638887               0.000000000               0.044519448              -0.199736109               0.000000000               0.050710260              -0.222833332               0.000000000               0.056901071              -0.245930554               0.000000000               0.063091883              -0.269027776               0.000000000               0.069282695              -0.292124999               0.000000000               0.075473506              -0.315222221               0.000000000               0.081664318              -0.338319444               0.000000000               0.087855130              -0.361416666               0.000000000               0.094045942              -0.384513888               0.000000000               0.100236753              -0.407611111               0.000000000               0.106427565              -0.430708333               0.000000000               0.112618377              -0.453805555               0.000000000               0.118809188              -0.476902778               0.000000000               0.125000000              -0.500000000               0.000000000               0.013036280              -0.132359569               0.000000000               0.016127762              -0.155337096               0.000000000               0.019219245              -0.178314623               0.000000000               0.022310727              -0.201292150               0.000000000               0.025402210              -0.224269676               0.000000000               0.028493692              -0.247247203               0.000000000               0.031585175              -0.270224730               0.000000000               0.034676657              -0.293202257               0.000000000               0.037768140              -0.316179784               0.000000000               0.040859622              -0.339157311               0.000000000               0.043951105              -0.362134838               0.000000000               0.047042587              -0.385112365               0.000000000               0.050134070              -0.408089892               0.000000000               0.053225552              -0.431067419               0.000000000               0.056317035              -0.454044946               0.000000000               0.059408517              -0.477022473               0.000000000               0.062500000              -0.500000000               0.000000000               0.000000000              -0.133000000               0.000000000               0.000000000              -0.155937500               0.000000000               0.000000000              -0.178875000               0.000000000               0.000000000              -0.201812500               0.000000000               0.000000000              -0.224750000               0.000000000               0.000000000              -0.247687500               0.000000000               0.000000000              -0.270625000               0.000000000               0.000000000              -0.293562500               0.000000000               0.000000000              -0.316500000               0.000000000               0.000000000              -0.339437500               0.000000000               0.000000000              -0.362375000               0.000000000               0.000000000              -0.385312500               0.000000000               0.000000000              -0.408250000               0.000000000               0.000000000              -0.431187500               0.000000000               0.000000000              -0.454125000               0.000000000               0.000000000              -0.477062500               0.000000000               0.000000000              -0.500000000               0.000000000              -0.133000000               0.000000000               0.000000000              -0.155937500               0.000000000               0.000000000              -0.178875000               0.000000000               0.000000000              -0.201812500               0.000000000               0.000000000              -0.224750000               0.000000000               0.000000000              -0.247687500               0.000000000               0.000000000              -0.270625000               0.000000000               0.000000000              -0.293562500               0.000000000               0.000000000              -0.316500000               0.000000000               0.000000000              -0.339437500               0.000000000               0.000000000              -0.362375000               0.000000000               0.000000000              -0.385312500               0.000000000               0.000000000              -0.408250000               0.000000000               0.000000000              -0.431187500               0.000000000               0.000000000              -0.454125000               0.000000000               0.000000000              -0.477062500               0.000000000               0.000000000              -0.500000000               0.000000000               0.000000000              -0.132359569              -0.013036280               0.000000000              -0.155337096              -0.016127762               0.000000000              -0.178314623              -0.019219245               0.000000000              -0.201292150              -0.022310727               0.000000000              -0.224269676              -0.025402210               0.000000000              -0.247247203              -0.028493692               0.000000000              -0.270224730              -0.031585175               0.000000000              -0.293202257              -0.034676657               0.000000000              -0.316179784              -0.037768140               0.000000000              -0.339157311              -0.040859622               0.000000000              -0.362134838              -0.043951105               0.000000000              -0.385112365              -0.047042587               0.000000000              -0.408089892              -0.050134070               0.000000000              -0.431067419              -0.053225552               0.000000000              -0.454044946              -0.056317035               0.000000000              -0.477022473              -0.059408517               0.000000000              -0.500000000              -0.062500000               0.000000000              -0.130444442              -0.025947013               0.000000000              -0.153541665              -0.032137825               0.000000000              -0.176638887              -0.038328636               0.000000000              -0.199736109              -0.044519448               0.000000000              -0.222833332              -0.050710260               0.000000000              -0.245930554              -0.056901071               0.000000000              -0.269027776              -0.063091883               0.000000000              -0.292124999              -0.069282695               0.000000000              -0.315222221              -0.075473506               0.000000000              -0.338319444              -0.081664318               0.000000000              -0.361416666              -0.087855130               0.000000000              -0.384513888              -0.094045942               0.000000000              -0.407611111              -0.100236753               0.000000000              -0.430708333              -0.106427565               0.000000000              -0.453805555              -0.112618377               0.000000000              -0.476902778              -0.118809188               0.000000000              -0.500000000              -0.125000000               0.000000000              -0.127273065              -0.038607862               0.000000000              -0.150568498              -0.047913621               0.000000000              -0.173863932              -0.057219379               0.000000000              -0.197159365              -0.066525138               0.000000000              -0.220454798              -0.075830897               0.000000000              -0.243750232              -0.085136655               0.000000000              -0.267045665              -0.094442414               0.000000000              -0.290341099              -0.103748172               0.000000000              -0.313636532              -0.113053931               0.000000000              -0.336931966              -0.122359690               0.000000000              -0.360227399              -0.131665448               0.000000000              -0.383522833              -0.140971207               0.000000000              -0.406818266              -0.150276966               0.000000000              -0.430113700              -0.159582724               0.000000000              -0.453409133              -0.168888483               0.000000000              -0.476704567              -0.178194241               0.000000000              -0.500000000              -0.187500000               0.000000000              -0.122875978              -0.050896897               0.000000000              -0.146446229              -0.063340840               0.000000000              -0.170016481              -0.075784784               0.000000000              -0.193586732              -0.088228728               0.000000000              -0.217156983              -0.100672672               0.000000000              -0.240727235              -0.113116616               0.000000000              -0.264297486              -0.125560560               0.000000000              -0.287867738              -0.138004504               0.000000000              -0.311437989              -0.150448448               0.000000000              -0.335008240              -0.162892392               0.000000000              -0.358578492              -0.175336336               0.000000000              -0.382148743              -0.187780280               0.000000000              -0.405718994              -0.200224224               0.000000000              -0.429289246              -0.212668168               0.000000000              -0.452859497              -0.225112112               0.000000000              -0.476429749              -0.237556056               0.000000000              -0.500000000              -0.250000000               0.000000000              -0.117295528              -0.062695766               0.000000000              -0.141214558              -0.078308531               0.000000000              -0.165133587              -0.093921295               0.000000000              -0.189052617              -0.109534060               0.000000000              -0.212971646              -0.125146824               0.000000000              -0.236890676              -0.140759589               0.000000000              -0.260809705              -0.156372354               0.000000000              -0.284728735              -0.171985118               0.000000000              -0.308647764              -0.187597883               0.000000000              -0.332566794              -0.203210648               0.000000000              -0.356485823              -0.218823412               0.000000000              -0.380404853              -0.234436177               0.000000000              -0.404323882              -0.250048941               0.000000000              -0.428242912              -0.265661706               0.000000000              -0.452161941              -0.281274471               0.000000000              -0.476080971              -0.296887235               0.000000000              -0.500000000              -0.312500000               0.000000000              -0.110585458              -0.073890841               0.000000000              -0.134923867              -0.092710163               0.000000000              -0.159262276              -0.111529486               0.000000000              -0.183600685              -0.130348808               0.000000000              -0.207939094              -0.149168131               0.000000000              -0.232277503              -0.167987453               0.000000000              -0.256615912              -0.186806776               0.000000000              -0.280954320              -0.205626098               0.000000000              -0.305292729              -0.224445420               0.000000000              -0.329631138              -0.243264743               0.000000000              -0.353969547              -0.262084065               0.000000000              -0.378307956              -0.280903388               0.000000000              -0.402646365              -0.299722710               0.000000000              -0.426984773              -0.318542033               0.000000000              -0.451323182              -0.337361355               0.000000000              -0.475661591              -0.356180678               0.000000000              -0.500000000              -0.375000000               0.000000000              -0.102810390              -0.084374307               0.000000000              -0.127634741              -0.106444663               0.000000000              -0.152459092              -0.128515018               0.000000000              -0.177283442              -0.150585374               0.000000000              -0.202107793              -0.172655730               0.000000000              -0.226932143              -0.194726086               0.000000000              -0.251756494              -0.216796442               0.000000000              -0.276580845              -0.238866798               0.000000000              -0.301405195              -0.260937153               0.000000000              -0.326229546              -0.283007509               0.000000000              -0.351053896              -0.305077865               0.000000000              -0.375878247              -0.327148221               0.000000000              -0.400702598              -0.349218577               0.000000000              -0.425526948              -0.371288933               0.000000000              -0.450351299              -0.393359288               0.000000000              -0.475175649              -0.415429644               0.000000000              -0.500000000              -0.437500000               0.000000000              -0.094045202              -0.094045202               0.000000000              -0.119417377              -0.119417377               0.000000000              -0.144789552              -0.144789552               0.000000000              -0.170161727              -0.170161727               0.000000000              -0.195533901              -0.195533901               0.000000000              -0.220906076              -0.220906076               0.000000000              -0.246278251              -0.246278251               0.000000000              -0.271650426              -0.271650426               0.000000000              -0.297022601              -0.297022601               0.000000000              -0.322394776              -0.322394776               0.000000000              -0.347766951              -0.347766951               0.000000000              -0.373139126              -0.373139126               0.000000000              -0.398511300              -0.398511300               0.000000000              -0.423883475              -0.423883475               0.000000000              -0.449255650              -0.449255650               0.000000000              -0.474627825              -0.474627825               0.000000000              -0.500000000              -0.500000000               0.000000000              -0.084374307              -0.102810390               0.000000000              -0.106444663              -0.127634741               0.000000000              -0.128515018              -0.152459092               0.000000000              -0.150585374              -0.177283442               0.000000000              -0.172655730              -0.202107793               0.000000000              -0.194726086              -0.226932143               0.000000000              -0.216796442              -0.251756494               0.000000000              -0.238866798              -0.276580845               0.000000000              -0.260937153              -0.301405195               0.000000000              -0.283007509              -0.326229546               0.000000000              -0.305077865              -0.351053896               0.000000000              -0.327148221              -0.375878247               0.000000000              -0.349218577              -0.400702598               0.000000000              -0.371288933              -0.425526948               0.000000000              -0.393359288              -0.450351299               0.000000000              -0.415429644              -0.475175649               0.000000000              -0.437500000              -0.500000000               0.000000000              -0.073890841              -0.110585458               0.000000000              -0.092710163              -0.134923867               0.000000000              -0.111529486              -0.159262276               0.000000000              -0.130348808              -0.183600685               0.000000000              -0.149168131              -0.207939094               0.000000000              -0.167987453              -0.232277503               0.000000000              -0.186806776              -0.256615912               0.000000000              -0.205626098              -0.280954320               0.000000000              -0.224445420              -0.305292729               0.000000000              -0.243264743              -0.329631138               0.000000000              -0.262084065              -0.353969547               0.000000000              -0.280903388              -0.378307956               0.000000000              -0.299722710              -0.402646365               0.000000000              -0.318542033              -0.426984773               0.000000000              -0.337361355              -0.451323182               0.000000000              -0.356180678              -0.475661591               0.000000000              -0.375000000              -0.500000000               0.000000000              -0.062695766              -0.117295528               0.000000000              -0.078308531              -0.141214558               0.000000000              -0.093921295              -0.165133587               0.000000000              -0.109534060              -0.189052617               0.000000000              -0.125146824              -0.212971646               0.000000000              -0.140759589              -0.236890676               0.000000000              -0.156372354              -0.260809705               0.000000000              -0.171985118              -0.284728735               0.000000000              -0.187597883              -0.308647764               0.000000000              -0.203210648              -0.332566794               0.000000000              -0.218823412              -0.356485823               0.000000000              -0.234436177              -0.380404853               0.000000000              -0.250048941              -0.404323882               0.000000000              -0.265661706              -0.428242912               0.000000000              -0.281274471              -0.452161941               0.000000000              -0.296887235              -0.476080971               0.000000000              -0.312500000              -0.500000000               0.000000000              -0.050896897              -0.122875978               0.000000000              -0.063340840              -0.146446229               0.000000000              -0.075784784              -0.170016481               0.000000000              -0.088228728              -0.193586732               0.000000000              -0.100672672              -0.217156983               0.000000000              -0.113116616              -0.240727235               0.000000000              -0.125560560              -0.264297486               0.000000000              -0.138004504              -0.287867738               0.000000000              -0.150448448              -0.311437989               0.000000000              -0.162892392              -0.335008240               0.000000000              -0.175336336              -0.358578492               0.000000000              -0.187780280              -0.382148743               0.000000000              -0.200224224              -0.405718994               0.000000000              -0.212668168              -0.429289246               0.000000000              -0.225112112              -0.452859497               0.000000000              -0.237556056              -0.476429749               0.000000000              -0.250000000              -0.500000000               0.000000000              -0.038607862              -0.127273065               0.000000000              -0.047913621              -0.150568498               0.000000000              -0.057219379              -0.173863932               0.000000000              -0.066525138              -0.197159365               0.000000000              -0.075830897              -0.220454798               0.000000000              -0.085136655              -0.243750232               0.000000000              -0.094442414              -0.267045665               0.000000000              -0.103748172              -0.290341099               0.000000000              -0.113053931              -0.313636532               0.000000000              -0.122359690              -0.336931966               0.000000000              -0.131665448              -0.360227399               0.000000000              -0.140971207              -0.383522833               0.000000000              -0.150276966              -0.406818266               0.000000000              -0.159582724              -0.430113700               0.000000000              -0.168888483              -0.453409133               0.000000000              -0.178194241              -0.476704567               0.000000000              -0.187500000              -0.500000000               0.000000000              -0.025947013              -0.130444442               0.000000000              -0.032137825              -0.153541665               0.000000000              -0.038328636              -0.176638887               0.000000000              -0.044519448              -0.199736109               0.000000000              -0.050710260              -0.222833332               0.000000000              -0.056901071              -0.245930554               0.000000000              -0.063091883              -0.269027776               0.000000000              -0.069282695              -0.292124999               0.000000000              -0.075473506              -0.315222221               0.000000000              -0.081664318              -0.338319444               0.000000000              -0.087855130              -0.361416666               0.000000000              -0.094045942              -0.384513888               0.000000000              -0.100236753              -0.407611111               0.000000000              -0.106427565              -0.430708333               0.000000000              -0.112618377              -0.453805555               0.000000000              -0.118809188              -0.476902778               0.000000000              -0.125000000              -0.500000000               0.000000000              -0.013036280              -0.132359569               0.000000000              -0.016127762              -0.155337096               0.000000000              -0.019219245              -0.178314623               0.000000000              -0.022310727              -0.201292150               0.000000000              -0.025402210              -0.224269676               0.000000000              -0.028493692              -0.247247203               0.000000000              -0.031585175              -0.270224730               0.000000000              -0.034676657              -0.293202257               0.000000000              -0.037768140              -0.316179784               0.000000000              -0.040859622              -0.339157311               0.000000000              -0.043951105              -0.362134838               0.000000000              -0.047042587              -0.385112365               0.000000000              -0.050134070              -0.408089892               0.000000000              -0.053225552              -0.431067419               0.000000000              -0.056317035              -0.454044946               0.000000000              -0.059408517              -0.477022473               0.000000000              -0.062500000              -0.500000000               0.000000000               0.000000000              -0.133000000               0.000000000               0.000000000              -0.155937500               0.000000000               0.000000000              -0.178875000               0.000000000               0.000000000              -0.201812500               0.000000000               0.000000000              -0.224750000               0.000000000               0.000000000              -0.247687500               0.000000000               0.000000000              -0.270625000               0.000000000               0.000000000              -0.293562500               0.000000000               0.000000000              -0.316500000               0.000000000               0.000000000              -0.339437500               0.000000000               0.000000000              -0.362375000               0.000000000               0.000000000              -0.385312500               0.000000000               0.000000000              -0.408250000               0.000000000               0.000000000              -0.431187500               0.000000000               0.000000000              -0.454125000               0.000000000               0.000000000              -0.477062500               0.000000000               0.000000000              -0.500000000               0.000000000              -0.133000000               0.000000000               0.000000000              -0.155937500               0.000000000               0.000000000              -0.178875000               0.000000000               0.000000000              -0.201812500               0.000000000               0.000000000              -0.224750000               0.000000000               0.000000000              -0.247687500               0.000000000               0.000000000              -0.270625000               0.000000000               0.000000000              -0.293562500               0.000000000               0.000000000              -0.316500000               0.000000000               0.000000000              -0.339437500               0.000000000               0.000000000              -0.362375000               0.000000000               0.000000000              -0.385312500               0.000000000               0.000000000              -0.408250000               0.000000000               0.000000000              -0.431187500               0.000000000               0.000000000              -0.454125000               0.000000000               0.000000000              -0.477062500               0.000000000               0.000000000              -0.500000000               0.000000000               0.000000000              -0.132359569               0.013036280               0.000000000              -0.155337096               0.016127762               0.000000000              -0.178314623               0.019219245               0.000000000              -0.201292150               0.022310727               0.000000000              -0.224269676               0.025402210               0.000000000              -0.247247203               0.028493692               0.000000000              -0.270224730               0.031585175               0.000000000              -0.293202257               0.034676657               0.000000000              -0.316179784               0.037768140               0.000000000              -0.339157311               0.040859622               0.000000000              -0.362134838               0.043951105               0.000000000              -0.385112365               0.047042587               0.000000000              -0.408089892               0.050134070               0.000000000              -0.431067419               0.053225552               0.000000000              -0.454044946               0.056317035               0.000000000              -0.477022473               0.059408517               0.000000000              -0.500000000               0.062500000               0.000000000              -0.130444442               0.025947013               0.000000000              -0.153541665               0.032137825               0.000000000              -0.176638887               0.038328636               0.000000000              -0.199736109               0.044519448               0.000000000              -0.222833332               0.050710260               0.000000000              -0.245930554               0.056901071               0.000000000              -0.269027776               0.063091883               0.000000000              -0.292124999               0.069282695               0.000000000              -0.315222221               0.075473506               0.000000000              -0.338319444               0.081664318               0.000000000              -0.361416666               0.087855130               0.000000000              -0.384513888               0.094045942               0.000000000              -0.407611111               0.100236753               0.000000000              -0.430708333               0.106427565               0.000000000              -0.453805555               0.112618377               0.000000000              -0.476902778               0.118809188               0.000000000              -0.500000000               0.125000000               0.000000000              -0.127273065               0.038607862               0.000000000              -0.150568498               0.047913621               0.000000000              -0.173863932               0.057219379               0.000000000              -0.197159365               0.066525138               0.000000000              -0.220454798               0.075830897               0.000000000              -0.243750232               0.085136655               0.000000000              -0.267045665               0.094442414               0.000000000              -0.290341099               0.103748172               0.000000000              -0.313636532               0.113053931               0.000000000              -0.336931966               0.122359690               0.000000000              -0.360227399               0.131665448               0.000000000              -0.383522833               0.140971207               0.000000000              -0.406818266               0.150276966               0.000000000              -0.430113700               0.159582724               0.000000000              -0.453409133               0.168888483               0.000000000              -0.476704567               0.178194241               0.000000000              -0.500000000               0.187500000               0.000000000              -0.122875978               0.050896897               0.000000000              -0.146446229               0.063340840               0.000000000              -0.170016481               0.075784784               0.000000000              -0.193586732               0.088228728               0.000000000              -0.217156983               0.100672672               0.000000000              -0.240727235               0.113116616               0.000000000              -0.264297486               0.125560560               0.000000000              -0.287867738               0.138004504               0.000000000              -0.311437989               0.150448448               0.000000000              -0.335008240               0.162892392               0.000000000              -0.358578492               0.175336336               0.000000000              -0.382148743               0.187780280               0.000000000              -0.405718994               0.200224224               0.000000000              -0.429289246               0.212668168               0.000000000              -0.452859497               0.225112112               0.000000000              -0.476429749               0.237556056               0.000000000              -0.500000000               0.250000000               0.000000000              -0.117295528               0.062695766               0.000000000              -0.141214558               0.078308531               0.000000000              -0.165133587               0.093921295               0.000000000              -0.189052617               0.109534060               0.000000000              -0.212971646               0.125146824               0.000000000              -0.236890676               0.140759589               0.000000000              -0.260809705               0.156372354               0.000000000              -0.284728735               0.171985118               0.000000000              -0.308647764               0.187597883               0.000000000              -0.332566794               0.203210648               0.000000000              -0.356485823               0.218823412               0.000000000              -0.380404853               0.234436177               0.000000000              -0.404323882               0.250048941               0.000000000              -0.428242912               0.265661706               0.000000000              -0.452161941               0.281274471               0.000000000              -0.476080971               0.296887235               0.000000000              -0.500000000               0.312500000               0.000000000              -0.110585458               0.073890841               0.000000000              -0.134923867               0.092710163               0.000000000              -0.159262276               0.111529486               0.000000000              -0.183600685               0.130348808               0.000000000              -0.207939094               0.149168131               0.000000000              -0.232277503               0.167987453               0.000000000              -0.256615912               0.186806776               0.000000000              -0.280954320               0.205626098               0.000000000              -0.305292729               0.224445420               0.000000000              -0.329631138               0.243264743               0.000000000              -0.353969547               0.262084065               0.000000000              -0.378307956               0.280903388               0.000000000              -0.402646365               0.299722710               0.000000000              -0.426984773               0.318542033               0.000000000              -0.451323182               0.337361355               0.000000000              -0.475661591               0.356180678               0.000000000              -0.500000000               0.375000000               0.000000000              -0.102810390               0.084374307               0.000000000              -0.127634741               0.106444663               0.000000000              -0.152459092               0.128515018               0.000000000              -0.177283442               0.150585374               0.000000000              -0.202107793               0.172655730               0.000000000              -0.226932143               0.194726086               0.000000000              -0.251756494               0.216796442               0.000000000              -0.276580845               0.238866798               0.000000000              -0.301405195               0.260937153               0.000000000              -0.326229546               0.283007509               0.000000000              -0.351053896               0.305077865               0.000000000              -0.375878247               0.327148221               0.000000000              -0.400702598               0.349218577               0.000000000              -0.425526948               0.371288933               0.000000000              -0.450351299               0.393359288               0.000000000              -0.475175649               0.415429644               0.000000000              -0.500000000               0.437500000               0.000000000              -0.094045202               0.094045202               0.000000000              -0.119417377               0.119417377               0.000000000              -0.144789552               0.144789552               0.000000000              -0.170161727               0.170161727               0.000000000              -0.195533901               0.195533901               0.000000000              -0.220906076               0.220906076               0.000000000              -0.246278251               0.246278251               0.000000000              -0.271650426               0.271650426               0.000000000              -0.297022601               0.297022601               0.000000000              -0.322394776               0.322394776               0.000000000              -0.347766951               0.347766951               0.000000000              -0.373139126               0.373139126               0.000000000              -0.398511300               0.398511300               0.000000000              -0.423883475               0.423883475               0.000000000              -0.449255650               0.449255650               0.000000000              -0.474627825               0.474627825               0.000000000              -0.500000000               0.500000000               0.000000000              -0.084374307               0.102810390               0.000000000              -0.106444663               0.127634741               0.000000000              -0.128515018               0.152459092               0.000000000              -0.150585374               0.177283442               0.000000000              -0.172655730               0.202107793               0.000000000              -0.194726086               0.226932143               0.000000000              -0.216796442               0.251756494               0.000000000              -0.238866798               0.276580845               0.000000000              -0.260937153               0.301405195               0.000000000              -0.283007509               0.326229546               0.000000000              -0.305077865               0.351053896               0.000000000              -0.327148221               0.375878247               0.000000000              -0.349218577               0.400702598               0.000000000              -0.371288933               0.425526948               0.000000000              -0.393359288               0.450351299               0.000000000              -0.415429644               0.475175649               0.000000000              -0.437500000               0.500000000               0.000000000              -0.073890841               0.110585458               0.000000000              -0.092710163               0.134923867               0.000000000              -0.111529486               0.159262276               0.000000000              -0.130348808               0.183600685               0.000000000              -0.149168131               0.207939094               0.000000000              -0.167987453               0.232277503               0.000000000              -0.186806776               0.256615912               0.000000000              -0.205626098               0.280954320               0.000000000              -0.224445420               0.305292729               0.000000000              -0.243264743               0.329631138               0.000000000              -0.262084065               0.353969547               0.000000000              -0.280903388               0.378307956               0.000000000              -0.299722710               0.402646365               0.000000000              -0.318542033               0.426984773               0.000000000              -0.337361355               0.451323182               0.000000000              -0.356180678               0.475661591               0.000000000              -0.375000000               0.500000000               0.000000000              -0.062695766               0.117295528               0.000000000              -0.078308531               0.141214558               0.000000000              -0.093921295               0.165133587               0.000000000              -0.109534060               0.189052617               0.000000000              -0.125146824               0.212971646               0.000000000              -0.140759589               0.236890676               0.000000000              -0.156372354               0.260809705               0.000000000              -0.171985118               0.284728735               0.000000000              -0.187597883               0.308647764               0.000000000              -0.203210648               0.332566794               0.000000000              -0.218823412               0.356485823               0.000000000              -0.234436177               0.380404853               0.000000000              -0.250048941               0.404323882               0.000000000              -0.265661706               0.428242912               0.000000000              -0.281274471               0.452161941               0.000000000              -0.296887235               0.476080971               0.000000000              -0.312500000               0.500000000               0.000000000              -0.050896897               0.122875978               0.000000000              -0.063340840               0.146446229               0.000000000              -0.075784784               0.170016481               0.000000000              -0.088228728               0.193586732               0.000000000              -0.100672672               0.217156983               0.000000000              -0.113116616               0.240727235               0.000000000              -0.125560560               0.264297486               0.000000000              -0.138004504               0.287867738               0.000000000              -0.150448448               0.311437989               0.000000000              -0.162892392               0.335008240               0.000000000              -0.175336336               0.358578492               0.000000000              -0.187780280               0.382148743               0.000000000              -0.200224224               0.405718994               0.000000000              -0.212668168               0.429289246               0.000000000              -0.225112112               0.452859497               0.000000000              -0.237556056               0.476429749               0.000000000              -0.250000000               0.500000000               0.000000000              -0.038607862               0.127273065               0.000000000              -0.047913621               0.150568498               0.000000000              -0.057219379               0.173863932               0.000000000              -0.066525138               0.197159365               0.000000000              -0.075830897               0.220454798               0.000000000              -0.085136655               0.243750232               0.000000000              -0.094442414               0.267045665               0.000000000              -0.103748172               0.290341099               0.000000000              -0.113053931               0.313636532               0.000000000              -0.122359690               0.336931966               0.000000000              -0.131665448               0.360227399               0.000000000              -0.140971207               0.383522833               0.000000000              -0.150276966               0.406818266               0.000000000              -0.159582724               0.430113700               0.000000000              -0.168888483               0.453409133               0.000000000              -0.178194241               0.476704567               0.000000000              -0.187500000               0.500000000               0.000000000              -0.025947013               0.130444442               0.000000000              -0.032137825               0.153541665               0.000000000              -0.038328636               0.176638887               0.000000000              -0.044519448               0.199736109               0.000000000              -0.050710260               0.222833332               0.000000000              -0.056901071               0.245930554               0.000000000              -0.063091883               0.269027776               0.000000000              -0.069282695               0.292124999               0.000000000              -0.075473506               0.315222221               0.000000000              -0.081664318               0.338319444               0.000000000              -0.087855130               0.361416666               0.000000000              -0.094045942               0.384513888               0.000000000              -0.100236753               0.407611111               0.000000000              -0.106427565               0.430708333               0.000000000              -0.112618377               0.453805555               0.000000000              -0.118809188               0.476902778               0.000000000              -0.125000000               0.500000000               0.000000000              -0.013036280               0.132359569               0.000000000              -0.016127762               0.155337096               0.000000000              -0.019219245               0.178314623               0.000000000              -0.022310727               0.201292150               0.000000000              -0.025402210               0.224269676               0.000000000              -0.028493692               0.247247203               0.000000000              -0.031585175               0.270224730               0.000000000              -0.034676657               0.293202257               0.000000000              -0.037768140               0.316179784               0.000000000              -0.040859622               0.339157311               0.000000000              -0.043951105               0.362134838               0.000000000              -0.047042587               0.385112365               0.000000000              -0.050134070               0.408089892               0.000000000              -0.053225552               0.431067419               0.000000000              -0.056317035               0.454044946               0.000000000              -0.059408517               0.477022473               0.000000000              -0.062500000               0.500000000               0.000000000               0.000000000               0.133000000               0.000000000               0.000000000               0.155937500               0.000000000               0.000000000               0.178875000               0.000000000               0.000000000               0.201812500               0.000000000               0.000000000               0.224750000               0.000000000               0.000000000               0.247687500               0.000000000               0.000000000               0.270625000               0.000000000               0.000000000               0.293562500               0.000000000               0.000000000               0.316500000               0.000000000               0.000000000               0.339437500               0.000000000               0.000000000               0.362375000               0.000000000               0.000000000               0.385312500               0.000000000               0.000000000               0.408250000               0.000000000               0.000000000               0.431187500               0.000000000               0.000000000               0.454125000               0.000000000               0.000000000               0.477062500               0.000000000               0.000000000               0.500000000               0.000000000 </DataArray>
</Points>
<Cells>
<DataArray type="Int32"                                    Name="connectivity"                                                      NumberOfComponents=" 1" format="ascii">
         0          1         18         17          1          2         19         18          2          3         20         19          3          4         21         20          4          5         22         21          5          6         23         22          6          7         24         23          7          8         25         24          8          9         26         25          9         10         27         26         10         11         28         27         11         12         29         28         12         13         30         29         13         14         31         30         14         15         32         31         15         16         33         32         17         18         35         34         18         19         36         35         19         20         37         36         20         21         38         37         21         22         39         38         22         23         40         39         23         24         41         40         24         25         42         41         25         26         43         42         26         27         44         43         27         28         45         44         28         29         46         45         29         30         47         46         30         31         48         47         31         32         49         48         32         33         50         49         34         35         52         51         35         36         53         52         36         37         54         53         37         38         55         54         38         39         56         55         39         40         57         56         40         41         58         57         41         42         59         58         42         43         60         59         43         44         61         60         44         45         62         61         45         46         63         62         46         47         64         63         47         48         65         64         48         49         66         65         49         50         67         66         51         52         69         68         52         53         70         69         53         54         71         70         54         55         72         71         55         56         73         72         56         57         74         73         57         58         75         74         58         59         76         75         59         60         77         76         60         61         78         77         61         62         79         78         62         63         80         79         63         64         81         80         64         65         82         81         65         66         83         82         66         67         84         83         68         69         86         85         69         70         87         86         70         71         88         87         71         72         89         88         72         73         90         89         73         74         91         90         74         75         92         91         75         76         93         92         76         77         94         93         77         78         95         94         78         79         96         95         79         80         97         96         80         81         98         97         81         82         99         98         82         83        100         99         83         84        101        100         85         86        103        102         86         87        104        103         87         88        105        104         88         89        106        105         89         90        107        106         90         91        108        107         91         92        109        108         92         93        110        109         93         94        111        110         94         95        112        111         95         96        113        112         96         97        114        113         97         98        115        114         98         99        116        115         99        100        117        116        100        101        118        117        102        103        120        119        103        104        121        120        104        105        122        121        105        106        123        122        106        107        124        123        107        108        125        124        108        109        126        125        109        110        127        126        110        111        128        127        111        112        129        128        112        113        130        129        113        114        131        130        114        115        132        131        115        116        133        132        116        117        134        133        117        118        135        134        119        120        137        136        120        121        138        137        121        122        139        138        122        123        140        139        123        124        141        140        124        125        142        141        125        126        143        142        126        127        144        143        127        128        145        144        128        129        146        145        129        130        147        146        130        131        148        147        131        132        149        148        132        133        150        149        133        134        151        150        134        135        152        151        136        137        154        153        137        138        155        154        138        139        156        155        139        140        157        156        140        141        158        157        141        142        159        158        142        143        160        159        143        144        161        160        144        145        162        161        145        146        163        162        146        147        164        163        147        148        165        164        148        149        166        165        149        150        167        166        150        151        168        167        151        152        169        168        153        154        171        170        154        155        172        171        155        156        173        172        156        157        174        173        157        158        175        174        158        159        176        175        159        160        177        176        160        161        178        177        161        162        179        178        162        163        180        179        163        164        181        180        164        165        182        181        165        166        183        182        166        167        184        183        167        168        185        184        168        169        186        185        170        171        188        187        171        172        189        188        172        173        190        189        173        174        191        190        174        175        192        191        175        176        193        192        176        177        194        193        177        178        195        194        178        179        196        195        179        180        197        196        180        181        198        197        181        182        199        198        182        183        200        199        183        184        201        200        184        185        202        201        185        186        203        202        187        188        205        204        188        189        206        205        189        190        207        206        190        191        208        207        191        192        209        208        192        193        210        209        193        194        211        210        194        195        212        211        195        196        213        212        196        197        214        213        197        198        215        214        198        199        216        215        199        200        217        216        200        201        218        217        201        202        219        218        202        203        220        219        204        205        222        221        205        206        223        222        206        207        224        223        207        208        225        224        208        209        226        225        209        210        227        226        210        211        228        227        211        212        229        228        212        213        230        229        213        214        231        230        214        215        232        231        215        216        233        232        216        217        234        233        217        218        235        234        218        219        236        235        219        220        237        236        221        222        239        238        222        223        240        239        223        224        241        240        224        225        242        241        225        226        243        242        226        227        244        243        227        228        245        244        228        229        246        245        229        230        247        246        230        231        248        247        231        232        249        248        232        233        250        249        233        234        251        250        234        235        252        251        235        236        253        252        236        237        254        253        238        239        256        255        239        240        257        256        240        241        258        257        241        242        259        258        242        243        260        259        243        244        261        260        244        245        262        261        245        246        263        262        246        247        264        263        247        248        265        264        248        249        266        265        249        250        267        266        250        251        268        267        251        252        269        268        252        253        270        269        253        254        271        270        255        256        273        272        256        257        274        273        257        258        275        274        258        259        276        275        259        260        277        276        260        261        278        277        261        262        279        278        262        263        280        279        263        264        281        280        264        265        282        281        265        266        283        282        266        267        284        283        267        268        285        284        268        269        286        285        269        270        287        286        270        271        288        287        306        307          1          0        307        308          2          1        308        309          3          2        309        310          4          3        310        311          5          4        311        312          6          5        312        313          7          6        313        314          8          7        314        315          9          8        315        316         10          9        316        317         11         10        317        318         12         11        318        319         13         12        319        320         14         13        320        321         15         14        321        322         16         15        323        324        307        306        324        325        308        307        325        326        309        308        326        327        310        309        327        328        311        310        328        329        312        311        329        330        313        312        330        331        314        313        331        332        315        314        332        333        316        315        333        334        317        316        334        335        318        317        335        336        319        318        336        337        320        319        337        338        321        320        338        339        322        321        340        341        324        323        341        342        325        324        342        343        326        325        343        344        327        326        344        345        328        327        345        346        329        328        346        347        330        329        347        348        331        330        348        349        332        331        349        350        333        332        350        351        334        333        351        352        335        334        352        353        336        335        353        354        337        336        354        355        338        337        355        356        339        338        357        358        341        340        358        359        342        341        359        360        343        342        360        361        344        343        361        362        345        344        362        363        346        345        363        364        347        346        364        365        348        347        365        366        349        348        366        367        350        349        367        368        351        350        368        369        352        351        369        370        353        352        370        371        354        353        371        372        355        354        372        373        356        355        374        375        358        357        375        376        359        358        376        377        360        359        377        378        361        360        378        379        362        361        379        380        363        362        380        381        364        363        381        382        365        364        382        383        366        365        383        384        367        366        384        385        368        367        385        386        369        368        386        387        370        369        387        388        371        370        388        389        372        371        389        390        373        372        391        392        375        374        392        393        376        375        393        394        377        376        394        395        378        377        395        396        379        378        396        397        380        379        397        398        381        380        398        399        382        381        399        400        383        382        400        401        384        383        401        402        385        384        402        403        386        385        403        404        387        386        404        405        388        387        405        406        389        388        406        407        390        389        408        409        392        391        409        410        393        392        410        411        394        393        411        412        395        394        412        413        396        395        413        414        397        396        414        415        398        397        415        416        399        398        416        417        400        399        417        418        401        400        418        419        402        401        419        420        403        402        420        421        404        403        421        422        405        404        422        423        406        405        423        424        407        406        425        426        409        408        426        427        410        409        427        428        411        410        428        429        412        411        429        430        413        412        430        431        414        413        431        432        415        414        432        433        416        415        433        434        417        416        434        435        418        417        435        436        419        418        436        437        420        419        437        438        421        420        438        439        422        421        439        440        423        422        440        441        424        423        442        443        426        425        443        444        427        426        444        445        428        427        445        446        429        428        446        447        430        429        447        448        431        430        448        449        432        431        449        450        433        432        450        451        434        433        451        452        435        434        452        453        436        435        453        454        437        436        454        455        438        437        455        456        439        438        456        457        440        439        457        458        441        440        459        460        443        442        460        461        444        443        461        462        445        444        462        463        446        445        463        464        447        446        464        465        448        447        465        466        449        448        466        467        450        449        467        468        451        450        468        469        452        451        469        470        453        452        470        471        454        453        471        472        455        454        472        473        456        455        473        474        457        456        474        475        458        457        476        477        460        459        477        478        461        460        478        479        462        461        479        480        463        462        480        481        464        463        481        482        465        464        482        483        466        465        483        484        467        466        484        485        468        467        485        486        469        468        486        487        470        469        487        488        471        470        488        489        472        471        489        490        473        472        490        491        474        473        491        492        475        474        493        494        477        476        494        495        478        477        495        496        479        478        496        497        480        479        497        498        481        480        498        499        482        481        499        500        483        482        500        501        484        483        501        502        485        484        502        503        486        485        503        504        487        486        504        505        488        487        505        506        489        488        506        507        490        489        507        508        491        490        508        509        492        491        510        511        494        493        511        512        495        494        512        513        496        495        513        514        497        496        514        515        498        497        515        516        499        498        516        517        500        499        517        518        501        500        518        519        502        501        519        520        503        502        520        521        504        503        521        522        505        504        522        523        506        505        523        524        507        506        524        525        508        507        525        526        509        508        527        528        511        510        528        529        512        511        529        530        513        512        530        531        514        513        531        532        515        514        532        533        516        515        533        534        517        516        534        535        518        517        535        536        519        518        536        537        520        519        537        538        521        520        538        539        522        521        539        540        523        522        540        541        524        523        541        542        525        524        542        543        526        525        544        545        528        527        545        546        529        528        546        547        530        529        547        548        531        530        548        549        532        531        549        550        533        532        550        551        534        533        551        552        535        534        552        553        536        535        553        554        537        536        554        555        538        537        555        556        539        538        556        557        540        539        557        558        541        540        558        559        542        541        559        560        543        542        561        562        545        544        562        563        546        545        563        564        547        546        564        565        548        547        565        566        549        548        566        567        550        549        567        568        551        550        568        569        552        551        569        570        553        552        570        571        554        553        571        572        555        554        572        573        556        555        573        574        557        556        574        575        558        557        575        576        559        558        576        577        560        559        578        579        596        595        579        580        597        596        580        581        598        597        581        582        599        598        582        583        600        599        583        584        601        600        584        585        602        601        585        586        603        602        586        587        604        603        587        588        605        604        588        589        606        605        589        590        607        606        590        591        608        607        591        592        609        608        592        593        610        609        593        594        611        610        595        596        613        612        596        597        614        613        597        598        615        614        598        599        616        615        599        600        617        616        600        601        618        617        601        602        619        618        602        603        620        619        603        604        621        620        604        605        622        621        605        606        623        622        606        607        624        623        607        608        625        624        608        609        626        625        609        610        627        626        610        611        628        627        612        613        630        629        613        614        631        630        614        615        632        631        615        616        633        632        616        617        634        633        617        618        635        634        618        619        636        635        619        620        637        636        620        621        638        637        621        622        639        638        622        623        640        639        623        624        641        640        624        625        642        641        625        626        643        642        626        627        644        643        627        628        645        644        629        630        647        646        630        631        648        647        631        632        649        648        632        633        650        649        633        634        651        650        634        635        652        651        635        636        653        652        636        637        654        653        637        638        655        654        638        639        656        655        639        640        657        656        640        641        658        657        641        642        659        658        642        643        660        659        643        644        661        660        644        645        662        661        646        647        664        663        647        648        665        664        648        649        666        665        649        650        667        666        650        651        668        667        651        652        669        668        652        653        670        669        653        654        671        670        654        655        672        671        655        656        673        672        656        657        674        673        657        658        675        674        658        659        676        675        659        660        677        676        660        661        678        677        661        662        679        678        663        664        681        680        664        665        682        681        665        666        683        682        666        667        684        683        667        668        685        684        668        669        686        685        669        670        687        686        670        671        688        687        671        672        689        688        672        673        690        689        673        674        691        690        674        675        692        691        675        676        693        692        676        677        694        693        677        678        695        694        678        679        696        695        680        681        698        697        681        682        699        698        682        683        700        699        683        684        701        700        684        685        702        701        685        686        703        702        686        687        704        703        687        688        705        704        688        689        706        705        689        690        707        706        690        691        708        707        691        692        709        708        692        693        710        709        693        694        711        710        694        695        712        711        695        696        713        712        697        698        715        714        698        699        716        715        699        700        717        716        700        701        718        717        701        702        719        718        702        703        720        719        703        704        721        720        704        705        722        721        705        706        723        722        706        707        724        723        707        708        725        724        708        709        726        725        709        710        727        726        710        711        728        727        711        712        729        728        712        713        730        729        714        715        732        731        715        716        733        732        716        717        734        733        717        718        735        734        718        719        736        735        719        720        737        736        720        721        738        737        721        722        739        738        722        723        740        739        723        724        741        740        724        725        742        741        725        726        743        742        726        727        744        743        727        728        745        744        728        729        746        745        729        730        747        746        731        732        749        748        732        733        750        749        733        734        751        750        734        735        752        751        735        736        753        752        736        737        754        753        737        738        755        754        738        739        756        755        739        740        757        756        740        741        758        757        741        742        759        758        742        743        760        759        743        744        761        760        744        745        762        761        745        746        763        762        746        747        764        763        748        749        766        765        749        750        767        766        750        751        768        767        751        752        769        768        752        753        770        769        753        754        771        770        754        755        772        771        755        756        773        772        756        757        774        773        757        758        775        774        758        759        776        775        759        760        777        776        760        761        778        777        761        762        779        778        762        763        780        779        763        764        781        780        765        766        783        782        766        767        784        783        767        768        785        784        768        769        786        785        769        770        787        786        770        771        788        787        771        772        789        788        772        773        790        789        773        774        791        790        774        775        792        791        775        776        793        792        776        777        794        793        777        778        795        794        778        779        796        795        779        780        797        796        780        781        798        797        782        783        800        799        783        784        801        800        784        785        802        801        785        786        803        802        786        787        804        803        787        788        805        804        788        789        806        805        789        790        807        806        790        791        808        807        791        792        809        808        792        793        810        809        793        794        811        810        794        795        812        811        795        796        813        812        796        797        814        813        797        798        815        814        799        800        817        816        800        801        818        817        801        802        819        818        802        803        820        819        803        804        821        820        804        805        822        821        805        806        823        822        806        807        824        823        807        808        825        824        808        809        826        825        809        810        827        826        810        811        828        827        811        812        829        828        812        813        830        829        813        814        831        830        814        815        832        831        816        817        834        833        817        818        835        834        818        819        836        835        819        820        837        836        820        821        838        837        821        822        839        838        822        823        840        839        823        824        841        840        824        825        842        841        825        826        843        842        826        827        844        843        827        828        845        844        828        829        846        845        829        830        847        846        830        831        848        847        831        832        849        848        833        834        562        561        834        835        563        562        835        836        564        563        836        837        565        564        837        838        566        565        838        839        567        566        839        840        568        567        840        841        569        568        841        842        570        569        842        843        571        570        843        844        572        571        844        845        573        572        845        846        574        573        846        847        575        574        847        848        576        575        848        849        577        576        884        885        579        578        885        886        580        579        886        887        581        580        887        888        582        581        888        889        583        582        889        890        584        583        890        891        585        584        891        892        586        585        892        893        587        586        893        894        588        587        894        895        589        588        895        896        590        589        896        897        591        590        897        898        592        591        898        899        593        592        899        900        594        593        901        902        885        884        902        903        886        885        903        904        887        886        904        905        888        887        905        906        889        888        906        907        890        889        907        908        891        890        908        909        892        891        909        910        893        892        910        911        894        893        911        912        895        894        912        913        896        895        913        914        897        896        914        915        898        897        915        916        899        898        916        917        900        899        918        919        902        901        919        920        903        902        920        921        904        903        921        922        905        904        922        923        906        905        923        924        907        906        924        925        908        907        925        926        909        908        926        927        910        909        927        928        911        910        928        929        912        911        929        930        913        912        930        931        914        913        931        932        915        914        932        933        916        915        933        934        917        916        935        936        919        918        936        937        920        919        937        938        921        920        938        939        922        921        939        940        923        922        940        941        924        923        941        942        925        924        942        943        926        925        943        944        927        926        944        945        928        927        945        946        929        928        946        947        930        929        947        948        931        930        948        949        932        931        949        950        933        932        950        951        934        933        952        953        936        935        953        954        937        936        954        955        938        937        955        956        939        938        956        957        940        939        957        958        941        940        958        959        942        941        959        960        943        942        960        961        944        943        961        962        945        944        962        963        946        945        963        964        947        946        964        965        948        947        965        966        949        948        966        967        950        949        967        968        951        950        969        970        953        952        970        971        954        953        971        972        955        954        972        973        956        955        973        974        957        956        974        975        958        957        975        976        959        958        976        977        960        959        977        978        961        960        978        979        962        961        979        980        963        962        980        981        964        963        981        982        965        964        982        983        966        965        983        984        967        966        984        985        968        967        986        987        970        969        987        988        971        970        988        989        972        971        989        990        973        972        990        991        974        973        991        992        975        974        992        993        976        975        993        994        977        976        994        995        978        977        995        996        979        978        996        997        980        979        997        998        981        980        998        999        982        981        999       1000        983        982       1000       1001        984        983       1001       1002        985        984       1003       1004        987        986       1004       1005        988        987       1005       1006        989        988       1006       1007        990        989       1007       1008        991        990       1008       1009        992        991       1009       1010        993        992       1010       1011        994        993       1011       1012        995        994       1012       1013        996        995       1013       1014        997        996       1014       1015        998        997       1015       1016        999        998       1016       1017       1000        999       1017       1018       1001       1000       1018       1019       1002       1001       1020       1021       1004       1003       1021       1022       1005       1004       1022       1023       1006       1005       1023       1024       1007       1006       1024       1025       1008       1007       1025       1026       1009       1008       1026       1027       1010       1009       1027       1028       1011       1010       1028       1029       1012       1011       1029       1030       1013       1012       1030       1031       1014       1013       1031       1032       1015       1014       1032       1033       1016       1015       1033       1034       1017       1016       1034       1035       1018       1017       1035       1036       1019       1018       1037       1038       1021       1020       1038       1039       1022       1021       1039       1040       1023       1022       1040       1041       1024       1023       1041       1042       1025       1024       1042       1043       1026       1025       1043       1044       1027       1026       1044       1045       1028       1027       1045       1046       1029       1028       1046       1047       1030       1029       1047       1048       1031       1030       1048       1049       1032       1031       1049       1050       1033       1032       1050       1051       1034       1033       1051       1052       1035       1034       1052       1053       1036       1035       1054       1055       1038       1037       1055       1056       1039       1038       1056       1057       1040       1039       1057       1058       1041       1040       1058       1059       1042       1041       1059       1060       1043       1042       1060       1061       1044       1043       1061       1062       1045       1044       1062       1063       1046       1045       1063       1064       1047       1046       1064       1065       1048       1047       1065       1066       1049       1048       1066       1067       1050       1049       1067       1068       1051       1050       1068       1069       1052       1051       1069       1070       1053       1052       1071       1072       1055       1054       1072       1073       1056       1055       1073       1074       1057       1056       1074       1075       1058       1057       1075       1076       1059       1058       1076       1077       1060       1059       1077       1078       1061       1060       1078       1079       1062       1061       1079       1080       1063       1062       1080       1081       1064       1063       1081       1082       1065       1064       1082       1083       1066       1065       1083       1084       1067       1066       1084       1085       1068       1067       1085       1086       1069       1068       1086       1087       1070       1069       1088       1089       1072       1071       1089       1090       1073       1072       1090       1091       1074       1073       1091       1092       1075       1074       1092       1093       1076       1075       1093       1094       1077       1076       1094       1095       1078       1077       1095       1096       1079       1078       1096       1097       1080       1079       1097       1098       1081       1080       1098       1099       1082       1081       1099       1100       1083       1082       1100       1101       1084       1083       1101       1102       1085       1084       1102       1103       1086       1085       1103       1104       1087       1086       1105       1106       1089       1088       1106       1107       1090       1089       1107       1108       1091       1090       1108       1109       1092       1091       1109       1110       1093       1092       1110       1111       1094       1093       1111       1112       1095       1094       1112       1113       1096       1095       1113       1114       1097       1096       1114       1115       1098       1097       1115       1116       1099       1098       1116       1117       1100       1099       1117       1118       1101       1100       1118       1119       1102       1101       1119       1120       1103       1102       1120       1121       1104       1103       1122       1123       1106       1105       1123       1124       1107       1106       1124       1125       1108       1107       1125       1126       1109       1108       1126       1127       1110       1109       1127       1128       1111       1110       1128       1129       1112       1111       1129       1130       1113       1112       1130       1131       1114       1113       1131       1132       1115       1114       1132       1133       1116       1115       1133       1134       1117       1116       1134       1135       1118       1117       1135       1136       1119       1118       1136       1137       1120       1119       1137       1138       1121       1120        272        273       1123       1122        273        274       1124       1123        274        275       1125       1124        275        276       1126       1125        276        277       1127       1126        277        278       1128       1127        278        279       1129       1128        279        280       1130       1129        280        281       1131       1130        281        282       1132       1131        282        283       1133       1132        283        284       1134       1133        284        285       1135       1134        285        286       1136       1135        286        287       1137       1136        287        288       1138       1137 </DataArray>
<DataArray type="Int32"                                    Name="offsets"                                                      NumberOfComponents=" 1" format="ascii">
         4          8         12         16         20         24         28         32         36         40         44         48         52         56         60         64         68         72         76         80         84         88         92         96        100        104        108        112        116        120        124        128        132        136        140        144        148        152        156        160        164        168        172        176        180        184        188        192        196        200        204        208        212        216        220        224        228        232        236        240        244        248        252        256        260        264        268        272        276        280        284        288        292        296        300        304        308        312        316        320        324        328        332        336        340        344        348        352        356        360        364        368        372        376        380        384        388        392        396        400        404        408        412        416        420        424        428        432        436        440        444        448        452        456        460        464        468        472        476        480        484        488        492        496        500        504        508        512        516        520        524        528        532        536        540        544        548        552        556        560        564        568        572        576        580        584        588        592        596        600        604        608        612        616        620        624        628        632        636        640        644        648        652        656        660        664        668        672        676        680        684        688        692        696        700        704        708        712        716        720        724        728        732        736        740        744        748        752        756        760        764        768        772        776        780        784        788        792        796        800        804        808        812        816        820        824        828        832        836        840        844        848        852        856        860        864        868        872        876        880        884        888        892        896        900        904        908        912        916        920        924        928        932        936        940        944        948        952        956        960        964        968        972        976        980        984        988        992        996       1000       1004       1008       1012       1016       1020       1024       1028       1032       1036       1040       1044       1048       1052       1056       1060       1064       1068       1072       1076       1080       1084       1088       1092       1096       1100       1104       1108       1112       1116       1120       1124       1128       1132       1136       1140       1144       1148       1152       1156       1160       1164       1168       1172       1176       1180       1184       1188       1192       1196       1200       1204       1208       1212       1216       1220       1224       1228       1232       1236       1240       1244       1248       1252       1256       1260       1264       1268       1272       1276       1280       1284       1288       1292       1296       1300       1304       1308       1312       1316       1320       1324       1328       1332       1336       1340       1344       1348       1352       1356       1360       1364       1368       1372       1376       1380       1384       1388       1392       1396       1400       1404       1408       1412       1416       1420       1424       1428       1432       1436       1440       1444       1448       1452       1456       1460       1464       1468       1472       1476       1480       1484       1488       1492       1496       1500       1504       1508       1512       1516       1520       1524       1528       1532       1536       1540       1544       1548       1552       1556       1560       1564       1568       1572       1576       1580       1584       1588       1592       1596       1600       1604       1608       1612       1616       1620       1624       1628       1632       1636       1640       1644       1648       1652       1656       1660       1664       1668       1672       1676       1680       1684       1688       1692       1696       1700       1704       1708       1712       1716       1720       1724       1728       1732       1736       1740       1744       1748       1752       1756       1760       1764       1768       1772       1776       1780       1784       1788       1792       1796       1800       1804       1808       1812       1816       1820       1824       1828       1832       1836       1840       1844       1848       1852       1856       1860       1864       1868       1872       1876       1880       1884       1888       1892       1896       1900       1904       1908       1912       1916       1920       1924       1928       1932       1936       1940       1944       1948       1952       1956       1960       1964       1968       1972       1976       1980       1984       1988       1992       1996       2000       2004       2008       2012       2016       2020       2024       2028       2032       2036       2040       2044       2048       2052       2056       2060       2064       2068       2072       2076       2080       2084       2088       2092       2096       2100       2104       2108       2112       2116       2120       2124       2128       2132       2136       2140       2144       2148       2152       2156       2160       2164       2168       2172       2176       2180       2184       2188       2192       2196       2200       2204       2208       2212       2216       2220       2224       2228       2232       2236       2240       2244       2248       2252       2256       2260       2264       2268       2272       2276       2280       2284       2288       2292       2296       2300       2304       2308       2312       2316       2320       2324       2328       2332       2336       2340       2344       2348       2352       2356       2360       2364       2368       2372       2376       2380       2384       2388       2392       2396       2400       2404       2408       2412       2416       2420       2424       2428       2432       2436       2440       2444       2448       2452       2456       2460       2464       2468       2472       2476       2480       2484       2488       2492       2496       2500       2504       2508       2512       2516       2520       2524       2528       2532       2536       2540       2544       2548       2552       2556       2560       2564       2568       2572       2576       2580       2584       2588       2592       2596       2600       2604       2608       2612       2616       2620       2624       2628       2632       2636       2640       2644       2648       2652       2656       2660       2664       2668       2672       2676       2680       2684       2688       2692       2696       2700       2704       2708       2712       2716       2720       2724       2728       2732       2736       2740       2744       2748       2752       2756       2760       2764       2768       2772       2776       2780       2784       2788       2792       2796       2800       2804       2808       2812       2816       2820       2824       2828       2832       2836       2840       2844       2848       2852       2856       2860       2864       2868       2872       2876       2880       2884       2888       2892       2896       2900       2904       2908       2912       2916       2920       2924       2928       2932       2936       2940       2944       2948       2952       2956       2960       2964       2968       2972       2976       2980       2984       2988       2992       2996       3000       3004       3008       3012       3016       3020       3024       3028       3032       3036       3040       3044       3048       3052       3056       3060       3064       3068       3072       3076       3080       3084       3088       3092       3096       3100       3104       3108       3112       3116       3120       3124       3128       3132       3136       3140       3144       3148       3152       3156       3160       3164       3168       3172       3176       3180       3184       3188       3192       3196       3200       3204       3208       3212       3216       3220       3224       3228       3232       3236       3240       3244       3248       3252       3256       3260       3264       3268       3272       3276       3280       3284       3288       3292       3296       3300       3304       3308       3312       3316       3320       3324       3328       3332       3336       3340       3344       3348       3352       3356       3360       3364       3368       3372       3376       3380       3384       3388       3392       3396       3400       3404       3408       3412       3416       3420       3424       3428       3432       3436       3440       3444       3448       3452       3456       3460       3464       3468       3472       3476       3480       3484       3488       3492       3496       3500       3504       3508       3512       3516       3520       3524       3528       3532       3536       3540       3544       3548       3552       3556       3560       3564       3568       3572       3576       3580       3584       3588       3592       3596       3600       3604       3608       3612       3616       3620       3624       3628       3632       3636       3640       3644       3648       3652       3656       3660       3664       3668       3672       3676       3680       3684       3688       3692       3696       3700       3704       3708       3712       3716       3720       3724       3728       3732       3736       3740       3744       3748       3752       3756       3760       3764       3768       3772       3776       3780       3784       3788       3792       3796       3800       3804       3808       3812       3816       3820       3824       3828       3832       3836       3840       3844       3848       3852       3856       3860       3864       3868       3872       3876       3880       3884       3888       3892       3896       3900       3904       3908       3912       3916       3920       3924       3928       3932       3936       3940       3944       3948       3952       3956       3960       3964       3968       3972       3976       3980       3984       3988       3992       3996       4000       4004       4008       4012       4016       4020       4024       4028       4032       4036       4040       4044       4048       4052       4056       4060       4064       4068       4072       4076       4080       4084       4088       4092       4096 </DataArray>
<DataArray type="UInt8"                                    Name="types"                                                      NumberOfComponents=" 1" format="ascii">
         9          9          9          9          9          9          9          9          9          9          9          9          9          9          9          9          9          9          9          9          9          9          9          9          9          9          9          9          9          9          9          9          9          9          9          9          9          9          9          9          9          9          9          9          9          9          9          9          9          9          9          9          9          9          9          9          9          9          9          9          9          9          9          9          9          9          9          9          9          9          9          9          9          9          9          9          9          9          9          9          9          9          9          9          9          9          9          9          9          9          9          9          9          9          9          9          9          9          9          9          9          9          9          9          9          9          9          9          9          9          9          9          9          9          9          9          9          9          9          9          9          9          9          9          9          9          9          9          9          9          9          9          9          9          9          9          9          9          9          9          9          9          9          9          9          9          9          9          9          9          9          9          9          9          9          9          9          9          9          9          9          9          9          9          9          9          9          9          9          9          9          9          9          9          9          9          9          9          9          9          9          9          9          9          9          9          9          9          9          9          9          9          9          9          9          9          9          9          9          9          9          9          9          9          9          9          9          9          9          9          9          9          9          9          9          9          9          9          9          9          9          9          9          9          9          9          9          9          9          9          9          9          9          9          9          9          9          9          9          9          9          9          9          9          9          9          9          9          9          9          9          9          9          9          9          9          9          9          9          9          9          9          9          9          9          9          9          9          9          9          9          9          9          9          9          9          9          9          9          9          9          9          9          9          9          9          9          9          9          9          9          9          9          9          9          9          9          9          9          9          9          9          9          9          9          9          9          9          9          9          9          9          9          9          9          9          9          9          9          9          9          9          9          9          9          9          9          9          9          9          9          9          9          9          9          9          9          9          9          9          9          9          9          9          9          9          9          9          9          9          9          9          9          9          9          9          9          9          9          9          9          9          9          9          9          9          9          9          9          9          9          9          9          9          9          9          9          9          9          9          9          9          9          9          9          9          9          9          9          9          9          9          9          9          9          9          9          9          9          9          9          9          9          9          9          9          9          9          9          9          9          9          9          9          9          9          9          9          9          9          9          9          9          9          9          9          9          9          9          9          9          9          9          9          9          9          9          9          9          9          9          9          9          9          9          9          9          9          9          9          9          9          9          9          9          9          9          9          9          9          9          9          9          9          9          9          9          9          9          9          9          9          9          9          9          9          9          9          9          9          9          9          9          9          9          9          9          9          9          9          9          9          9          9          9          9          9          9          9          9          9          9          9          9          9          9          9          9          9          9          9          9          9          9          9          9          9          9          9          9          9          9          9          9          9          9          9          9          9          9          9          9          9          9          9          9          9          9          9          9          9          9          9          9          9          9          9          9          9          9          9          9          9          9          9          9          9          9          9          9          9          9          9          9          9          9          9          9          9          9          9          9          9          9          9          9          9          9          9          9          9          9          9          9          9          9          9          9          9          9          9          9          9          9          9          9          9          9          9          9          9          9          9          9          9          9          9          9          9          9          9          9          9          9          9          9          9          9          9          9          9          9          9          9          9          9          9          9          9          9          9          9          9          9          9          9          9          9          9          9          9          9          9          9          9          9          9          9          9          9          9          9          9          9          9          9          9          9          9          9          9          9          9          9          9          9          9          9          9          9          9          9          9          9          9          9          9          9          9          9          9          9          9          9          9          9          9          9          9          9          9          9          9          9          9          9          9          9          9          9          9          9          9          9          9          9          9          9          9          9          9          9          9          9          9          9          9          9          9          9          9          9          9          9          9          9          9          9          9          9          9          9          9          9          9          9          9          9          9          9          9          9          9          9          9          9          9          9          9          9          9          9          9          9          9          9          9          9          9          9          9          9          9          9          9          9          9          9          9          9          9          9          9          9          9          9          9          9          9          9          9          9          9          9          9          9          9          9          9          9          9          9          9          9          9          9          9          9          9          9          9          9          9          9          9          9          9          9          9          9          9          9          9          9          9          9          9          9          9          9          9          9          9          9          9          9          9          9          9          9          9          9          9          9          9          9          9          9          9          9          9          9          9          9          9          9          9          9          9          9          9          9          9          9          9          9          9          9          9          9          9          9          9          9          9          9          9          9          9          9          9          9          9          9          9          9          9          9          9          9          9          9          9          9          9          9          9          9          9          9          9          9          9          9          9          9          9          9          9          9          9          9          9          9          9          9          9          9          9          9          9          9          9          9          9          9          9          9          9          9          9          9          9          9          9          9          9          9          9          9          9          9          9          9          9          9          9          9          9          9          9          9          9          9          9          9          9          9          9          9          9          9          9          9          9          9          9          9          9          9          9          9          9          9          9          9          9          9          9          9          9          9          9          9          9          9          9          9          9          9          9          9          9          9          9          9          9          9          9          9          9          9          9          9          9          9          9          9          9          9          9          9          9          9          9          9          9          9          9          9          9          9          9          9          9          9          9          9          9          9          9          9          9          9 </DataArray>
</Cells>
<CellData>
<DataArray type="Int32"                                    Name="material"                                                      NumberOfComponents=" 1" format="ascii">
         1          1          1          1          1          1          1          1          1          1          1          1          1          1          1          1          1          1          1          1          1          1          1          1          1          1          1          1          1          1          1          1          1          1          1          1          1          1          1          1          1          1          1          1          1          1          1          1          1          1          1          1          1          1          1          1          1          1          1          1          1          1          1          1          1          1          1          1          1          1          1          1          1          1          1          1          1          1          1          1          1          1          1          1          1          1          1          1          1          1          1          1          1          1          1          1          1          1          1          1          1          1          1          1          1          1          1          1          1          1          1          1          1          1          1          1          1          1          1          1          1          1          1          1          1          1          1          1          1          1          1          1          1          1          1          1          1          1          1          1          1          1          1          1          1          1          1          1          1          1          1          1          1          1          1          1          1          1          1          1          1          1          1          1          1          1          1          1          1          1          1          1          1          1          1          1          1          1          1          1          1          1          1          1          1          1          1          1          1          1          1          1          1          1          1          1          1          1          1          1          1          1          1          1          1          1          1          1          1          1          1          1          1          1          1          1          1          1          1          1          1          1          1          1          1          1          1          1          1          1          1          1          1          1          1          1          1          1          1          1          1          1          1          1          1          1          1          1          1          1          1          1          1          1          1          1          1          1          1          1          1          1          1          1          1          1          1          1          1          1          1          1          1          1          1          1          1          1          1          1          1          1          1          1          1          1          1          1          1          1          1          1          1          1          1          1          1          1          1          1          1          1          1          1          1          1          1          1          1          1          1          1          1          1          1          1          1          1          1          1          1          1          1          1          1          1          1          1          1          1          1          1          1          1          1          1          1          1          1          1          1          1          1          1          1          1          1          1          1          1          1          1          1          1          1          1          1          1          1          1          1          1          1          1          1          1          1          1          1          1          1          1          1          1          1          1          1          1          1          1          1          1          1          1          1          1          1          1          1          1          1          1          1          1          1          1          1          1          1          1          1          1          1          1          1          1          1          1          1          1          1          1          1          1          1          1          1          1          1          1          1          1          1          1          1          1          1          1          1          1          1          1          1          1          1          1          1          1          1          1          1          1          1          1          1          1          1          1          1          1          1          1          1          1          1          1          1          1          1          1          1          1          1          1          1          1          1          1          1          1          1          1          1          1          1          1          1          1          1          1          1          1          1          1          1          1          1          1          1          1          1          1          1          1          1          1          1          1          1          1          1          1          1          1          1          1          1          1          1          1          1          1          1          1          1          1          1          1          1          1          1          1          1          1          1          1          1          1          1          1          1          1          1          1          1          1          1          1          1          1          1          1          1          1          1          1          1          1          1          1          1          1          1          1          1          1          1          1          1          1          1          1          1          1          1          1          1          1          1          1          1          1          1          1          1          1          1          1          1          1          1          1          1          1          1          1          1          1          1          1          1          1          1          1          1          1          1          1          1          1          1          1          1          1          1          1          1          1          1          1          1          1          1          1          1          1          1          1          1          1          1          1          1          1          1          1          1          1          1          1          1          1          1          1          1          1          1          1          1          1          1          1          1          1          1          1          1          1          1          1          1          1          1          1          1          1          1          1          1          1          1          1          1          1          1          1          1          1          1          1          1          1          1          1          1          1          1          1          1          1          1          1          1          1          1          1          1          1          1          1          1          1          1          1          1          1          1          1          1          1          1          1          1          1          1          1          1          1          1          1          1          1          1          1          1          1          1          1          1          1          1          1          1          1          1          1          1          1          1          1          1          1          1          1          1          1          1          1          1          1          1          1          1          1          1          1          1          1          1          1          1          1          1          1          1          1          1          1          1          1          1          1          1          1          1          1          1          1          1          1          1          1          1          1          1          1          1          1          1          1          1          1          1          1          1          1          1          1          1          1          1          1          1          1          1          1          1          1          1          1          1          1          1          1          1          1          1          1          1          1          1          1          1          1          1          1          1          1          1          1          1          1          1          1          1          1          1          1          1          1          1          1          1          1          1          1          1          1          1          1          1          1          1          1          1          1          1          1          1          1          1          1          1          1          1          1          1          1          1          1          1          1          1          1          1          1          1          1          1          1          1          1          1          1          1          1          1          1          1          1          1          1          1          1          1          1          1          1          1          1          1          1          1          1          1          1          1          1          1          1          1          1          1          1          1          1          1          1          1          1          1          1          1          1          1          1          1          1          1          1          1          1          1          1          1          1          1          1          1          1          1          1          1          1          1          1          1          1          1          1          1          1          1          1          1          1          1          1          1          1          1          1          1          1          1          1          1          1          1          1          1          1          1          1          1          1          1          1          1          1          1          1          1          1          1          1          1          1          1          1          1          1          1          1          1          1          1          1          1          1          1          1          1          1          1          1          1          1          1          1          1          1          1          1          1          1          1          1          1          1          1          1          1          1          1          1          1          1          1          1          1          1          1          1 </DataArray>
</CellData>
<PointData>
<DataArray type="Float64"                                    Name="u"                                                      NumberOfComponents=" 3" format="ascii">
             -0.000446709               0.000000000               0.999999985              -0.000488733              -0.000000000               0.999999985              -0.000507963               0.000000000               0.999999985              -0.000519423               0.000000000               0.999999985              -0.000528666               0.000000000               0.999999985              -0.000537866              -0.000000000               0.999999985              -0.000547793               0.000000000               0.999999985              -0.000558768              -0.000000000               0.999999985              -0.000570783               0.000000000               0.999999985              -0.000583635               0.000000000               0.999999985              -0.000597328               0.000000000               0.999999985              -0.000611655               0.000000000               0.999999985              -0.000626454              -0.000000000               0.999999985              -0.000641567               0.000000000               0.999999985              -0.000656665               0.000000000               0.999999985              -0.000671331               0.000000000               0.999999985              -0.000685074              -0.000000000               0.999999985              -0.000444127               0.000107114               0.999999985              -0.000483343               0.000089242               0.999999985              -0.000500796               0.000082304               0.999999985              -0.000511202               0.000080977               0.999999985              -0.000519836               0.000082497               0.999999985              -0.000528656               0.000085614               0.999999985              -0.000538344               0.000089580               0.999999985              -0.000549030               0.000093946               0.999999985              -0.000560640               0.000098360               0.999999985              -0.000573085               0.000102576               0.999999985              -0.000586296               0.000106515               0.999999985              -0.000600024               0.000110037               0.999999985              -0.000614108               0.000112673               0.999999985              -0.000628320               0.000114165               0.999999985              -0.000642418               0.000114113               0.999999985              -0.000656070               0.000111956               0.999999985              -0.000668767               0.000107025               0.999999985              -0.000436314               0.000213072               0.999999985              -0.000467398               0.000177773               0.999999985              -0.000480072               0.000164736               0.999999985              -0.000487694               0.000162765               0.999999985              -0.000494743               0.000166377               0.999999985              -0.000502562               0.000173014               0.999999985              -0.000511489               0.000181194               0.999999985              -0.000521443               0.000190036               0.999999985              -0.000532236               0.000198830               0.999999985              -0.000543623               0.000207289               0.999999985              -0.000555455               0.000215303               0.999999985              -0.000567474               0.000222380               0.999999985              -0.000579409               0.000227836               0.999999985              -0.000591077               0.000231118               0.999999985              -0.000602226               0.000231896               0.999999985              -0.000612716               0.000229373               0.999999985              -0.000622507               0.000222576               0.999999985              -0.000423576               0.000316685               0.999999985              -0.000441933               0.000265074               0.999999985              -0.000447820               0.000247455               0.999999985              -0.000451866               0.000245965               0.999999985              -0.000456978               0.000252493               0.999999985              -0.000463685               0.000263191               0.999999985              -0.000471838               0.000275889               0.999999985              -0.000480956               0.000289249               0.999999985              -0.000490661               0.000302566               0.999999985              -0.000500599               0.000315323               0.999999985              -0.000510499               0.000327225               0.999999985              -0.000519962               0.000337688               0.999999985              -0.000528801               0.000346068               0.999999985              -0.000536939               0.000351926               0.999999985              -0.000544340               0.000355010               0.999999985              -0.000551099               0.000354737               0.999999985              -0.000557403               0.000350560               0.999999985              -0.000406307               0.000416882               0.999999985              -0.000408462               0.000350767               0.999999985              -0.000406858               0.000330439               0.999999985              -0.000407633               0.000330712               0.999999985              -0.000411332               0.000340938               0.999999985              -0.000417300               0.000356098               0.999999985              -0.000424743               0.000373522               0.999999985              -0.000433049               0.000391511               0.999999985              -0.000441567               0.000409226               0.999999985              -0.000449772               0.000426098               0.999999985              -0.000457294               0.000441749               0.999999985              -0.000463967               0.000455547               0.999999985              -0.000469610               0.000467110               0.999999985              -0.000474302               0.000476207               0.999999985              -0.000478181               0.000482745               0.999999985              -0.000481553               0.000486887               0.999999985              -0.000484802               0.000488599               0.999999985              -0.000384822               0.000512731               0.999999985              -0.000368842               0.000434665               0.999999985              -0.000360518               0.000413487               0.999999985              -0.000359115               0.000416591               0.999999985              -0.000362302               0.000430935               0.999999985              -0.000368173               0.000450670               0.999999985              -0.000375338               0.000472738               0.999999985              -0.000382951               0.000495300               0.999999985              -0.000390237               0.000517219               0.999999985              -0.000396773               0.000537940               0.999999985              -0.000402167               0.000557024               0.999999985              -0.000406162               0.000574051               0.999999985              -0.000408843               0.000588858               0.999999985              -0.000410574               0.000601714               0.999999985              -0.000411643               0.000612844               0.999999985              -0.000412335               0.000622333               0.999999985              -0.000412625               0.000630677               0.999999985              -0.000359754               0.000603246               0.999999985              -0.000325288               0.000516558               0.999999985              -0.000311922               0.000496238               0.999999985              -0.000309900               0.000502731               0.999999985              -0.000313658               0.000521287               0.999999985              -0.000320079               0.000545435               0.999999985              -0.000327387               0.000571817               0.999999985              -0.000334556               0.000598638               0.999999985              -0.000340811               0.000624423               0.999999985              -0.000345623               0.000648667               0.999999985              -0.000348711               0.000671027               0.999999985              -0.000350063               0.000691310               0.999999985              -0.000350050               0.000709826               0.999999985              -0.000348898               0.000727029               0.999999985              -0.000346809               0.000742825               0.999999985              -0.000343810               0.000757365               0.999999985              -0.000339852               0.000770649               0.999999985              -0.000331546               0.000687605               0.999999985              -0.000279856               0.000596286               0.999999985              -0.000263874               0.000577904               0.999999985              -0.000262978               0.000587827               0.999999985              -0.000268217               0.000610367               0.999999985              -0.000275631               0.000638665               0.999999985              -0.000283293               0.000669068               0.999999985              -0.000289994               0.000699684               0.999999985              -0.000294966               0.000729061               0.999999985              -0.000297652               0.000756716               0.999999985              -0.000297983               0.000782426               0.999999985              -0.000296190               0.000806422               0.999999985              -0.000292527               0.000828921               0.999999985              -0.000287346               0.000850032               0.999999985              -0.000280903               0.000869731               0.999999985              -0.000273219               0.000887979               0.999999985              -0.000264258               0.000904789               0.999999985              -0.000301262               0.000764346               0.999999985              -0.000234183               0.000673736               0.999999985              -0.000218892               0.000657432               0.999999985              -0.000220334               0.000670430               0.999999985              -0.000227637               0.000696631               0.999999985              -0.000236195               0.000728736               0.999999985              -0.000244066               0.000762982               0.999999985              -0.000249992               0.000797193               0.999999985              -0.000252953               0.000830047               0.999999985              -0.000252675               0.000861054               0.999999985              -0.000249249               0.000890395               0.999999985              -0.000243271               0.000917744               0.999999985              -0.000235169               0.000943108               0.999999985              -0.000225441               0.000966895               0.999999985              -0.000214434               0.000989178               0.999999985              -0.000202370               0.001010098               0.999999985              -0.000189589               0.001029634               0.999999985              -0.000270507               0.000836385               0.999999985              -0.000196809               0.000757694               0.999999985              -0.000178409               0.000736686               0.999999985              -0.000178379               0.000743828               0.999999985              -0.000184852               0.000765007               0.999999985              -0.000192882               0.000793416               0.999999985              -0.000200716               0.000825342               0.999999985              -0.000207001               0.000858568               0.999999985              -0.000210685               0.000891478               0.999999985              -0.000211219               0.000923458               0.999999985              -0.000208476               0.000953965               0.999999985              -0.000202729               0.000982825               0.999999985              -0.000194368               0.001010010               0.999999985              -0.000183689               0.001035376               0.999999985              -0.000171657               0.001059353               0.999999985              -0.000158601               0.001082110               0.999999985              -0.000145112               0.001103562               0.999999985              -0.000236774               0.000901578               0.999999985              -0.000162196               0.000838245               0.999999985              -0.000140843               0.000817220               0.999999985              -0.000138673               0.000820312               0.999999985              -0.000143665               0.000837369               0.999999985              -0.000150778               0.000862441               0.999999985              -0.000158012               0.000892123               0.999999985              -0.000164182               0.000924215               0.999999985              -0.000168295               0.000957002               0.999999985              -0.000169554               0.000989647               0.999999985              -0.000167539               0.001021387               0.999999985              -0.000162284               0.001051546               0.999999985              -0.000154040               0.001080185               0.999999985              -0.000142750               0.001107207               0.999999985              -0.000128994               0.001132721               0.999999985              -0.000113772               0.001157090               0.999999985              -0.000097628               0.001180548               0.999999985              -0.000200867               0.000958462               0.999999985              -0.000130307               0.000913092               0.999999985              -0.000107302               0.000895517               0.999999985              -0.000102822               0.000897198               0.999999985              -0.000105855               0.000911500               0.999999985              -0.000111542               0.000934045               0.999999985              -0.000117720               0.000961822               0.999999985              -0.000123306               0.000992854               0.999999985              -0.000127318               0.001025594               0.999999985              -0.000128897               0.001059017               0.999999985              -0.000127745               0.001092086               0.999999985              -0.000123265               0.001123906               0.999999985              -0.000115315               0.001154281               0.999999985              -0.000103857               0.001183032               0.999999985              -0.000089021               0.001210297               0.999999985              -0.000071269               0.001236204               0.999999985              -0.000051303               0.001261274               0.999999985              -0.000163088               0.001006123               0.999999985              -0.000101021               0.000979366               0.999999985              -0.000078296               0.000967820               0.999999985              -0.000072098               0.000970462               0.999999985              -0.000073104               0.000983801               0.999999985              -0.000077063               0.001004866               0.999999985              -0.000081888               0.001031390               0.999999985              -0.000086466               0.001061692               0.999999985              -0.000089903               0.001094465               0.999999985              -0.000091490               0.001128746               0.999999985              -0.000091007               0.001163389               0.999999985              -0.000087526               0.001197293               0.999999985              -0.000080299               0.001230046               0.999999985              -0.000069243               0.001261286               0.999999985              -0.000054252               0.001290985               0.999999985              -0.000034967               0.001319140               0.999999985              -0.000011421               0.001346165               0.999999985              -0.000123771               0.001043825               0.999999985              -0.000073933               0.001034173               0.999999985              -0.000053835               0.001029982               0.999999985              -0.000047073               0.001035279               0.999999985              -0.000046594               0.001049177               0.999999985              -0.000048932               0.001069905               0.999999985              -0.000052222               0.001095983               0.999999985              -0.000055506               0.001126097               0.999999985              -0.000058079               0.001159132               0.999999985              -0.000059525               0.001194262               0.999999985              -0.000059380               0.001230444               0.999999985              -0.000056748               0.001266720               0.999999985              -0.000050912               0.001302344               0.999999985              -0.000041241               0.001336734               0.999999985              -0.000027375               0.001369703               0.999999985              -0.000008708               0.001401002               0.999999985               0.000015790               0.001430818               0.999999985              -0.000083223               0.001071187               0.999999985              -0.000048418               0.001075181               0.999999985              -0.000033373               0.001077901               0.999999985              -0.000027633               0.001086416               0.999999985              -0.000026551               0.001101674               0.999999985              -0.000027597               0.001122952               0.999999985              -0.000029517               0.001149266               0.999999985              -0.000031468               0.001179649               0.999999985              -0.000033147               0.001213211               0.999999985              -0.000034189               0.001249289               0.999999985              -0.000034108               0.001286957               0.999999985              -0.000032340               0.001325301               0.999999985              -0.000028132               0.001363686               0.999999985              -0.000020957               0.001401369               0.999999985              -0.000010265               0.001437922               0.999999985               0.000004792               0.001472889               0.999999985               0.000025815               0.001506065               0.999999985              -0.000041821               0.001087822               0.999999985              -0.000023940               0.001100581               0.999999985              -0.000015895               0.001108143               0.999999985              -0.000012629               0.001119203               0.999999985              -0.000011834               0.001135776               0.999999985              -0.000012139               0.001157796               0.999999985              -0.000012936               0.001184592               0.999999985              -0.000013771               0.001215341               0.999999985              -0.000014658               0.001249400               0.999999985              -0.000015184               0.001286298               0.999999985              -0.000015147               0.001325094               0.999999985              -0.000014197               0.001364949               0.999999985              -0.000011961               0.001405259               0.999999985              -0.000008120               0.001445346               0.999999985              -0.000002354               0.001484733               0.999999985               0.000006145               0.001522745               0.999999985               0.000018380               0.001558824               0.999999985              -0.000000000               0.001093393               0.999999985              -0.000000000               0.001109157               0.999999985              -0.000000000               0.001118450               0.999999985              -0.000000000               0.001130470               0.999999985              -0.000000000               0.001147550               0.999999985               0.000000000               0.001169926               0.999999985               0.000000000               0.001196979               0.999999985              -0.000000000               0.001227868               0.999999985               0.000000000               0.001262121               0.999999985               0.000000000               0.001299339               0.999999985               0.000000000               0.001338620               0.999999985              -0.000000000               0.001379048               0.999999985              -0.000000000               0.001420006               0.999999985               0.000000000               0.001460933               0.999999985               0.000000000               0.001501352               0.999999985              -0.000000000               0.001540560               0.999999985              -0.000000000               0.001577807               0.999999985              -0.000446709               0.000000000               0.999999985              -0.000488733              -0.000000000               0.999999985              -0.000507963               0.000000000               0.999999985              -0.000519423               0.000000000               0.999999985              -0.000528666               0.000000000               0.999999985              -0.000537866              -0.000000000               0.999999985              -0.000547793               0.000000000               0.999999985              -0.000558768              -0.000000000               0.999999985              -0.000570783               0.000000000               0.999999985              -0.000583635               0.000000000               0.999999985              -0.000597328               0.000000000               0.999999985              -0.000611655               0.000000000               0.999999985              -0.000626454              -0.000000000               0.999999985              -0.000641567               0.000000000               0.999999985              -0.000656665               0.000000000               0.999999985              -0.000671331               0.000000000               0.999999985              -0.000685074              -0.000000000               0.999999985              -0.000444127              -0.000107114               0.999999985              -0.000483343              -0.000089242               0.999999985              -0.000500796              -0.000082304               0.999999985              -0.000511202              -0.000080977               0.999999985              -0.000519836              -0.000082497               0.999999985              -0.000528656              -0.000085614               0.999999985              -0.000538344              -0.000089580               0.999999985              -0.000549030              -0.000093946               0.999999985              -0.000560640              -0.000098360               0.999999985              -0.000573085              -0.000102576               0.999999985              -0.000586296              -0.000106515               0.999999985              -0.000600024              -0.000110037               0.999999985              -0.000614108              -0.000112673               0.999999985              -0.000628320              -0.000114165               0.999999985              -0.000642418              -0.000114113               0.999999985              -0.000656070              -0.000111956               0.999999985              -0.000668767              -0.000107025               0.999999985              -0.000436314              -0.000213072               0.999999985              -0.000467398              -0.000177773               0.999999985              -0.000480072              -0.000164736               0.999999985              -0.000487694              -0.000162765               0.999999985              -0.000494743              -0.000166377               0.999999985              -0.000502562              -0.000173014               0.999999985              -0.000511489              -0.000181194               0.999999985              -0.000521443              -0.000190036               0.999999985              -0.000532236              -0.000198830               0.999999985              -0.000543623              -0.000207289               0.999999985              -0.000555455              -0.000215303               0.999999985              -0.000567474              -0.000222380               0.999999985              -0.000579409              -0.000227836               0.999999985              -0.000591077              -0.000231118               0.999999985              -0.000602226              -0.000231896               0.999999985              -0.000612716              -0.000229373               0.999999985              -0.000622507              -0.000222576               0.999999985              -0.000423576              -0.000316685               0.999999985              -0.000441933              -0.000265074               0.999999985              -0.000447820              -0.000247455               0.999999985              -0.000451866              -0.000245965               0.999999985              -0.000456978              -0.000252493               0.999999985              -0.000463685              -0.000263191               0.999999985              -0.000471838              -0.000275889               0.999999985              -0.000480956              -0.000289249               0.999999985              -0.000490661              -0.000302566               0.999999985              -0.000500599              -0.000315323               0.999999985              -0.000510499              -0.000327225               0.999999985              -0.000519962              -0.000337688               0.999999985              -0.000528801              -0.000346068               0.999999985              -0.000536939              -0.000351926               0.999999985              -0.000544340              -0.000355010               0.999999985              -0.000551099              -0.000354737               0.999999985              -0.000557403              -0.000350560               0.999999985              -0.000406307              -0.000416882               0.999999985              -0.000408462              -0.000350767               0.999999985              -0.000406858              -0.000330439               0.999999985              -0.000407633              -0.000330712               0.999999985              -0.000411332              -0.000340938               0.999999985              -0.000417300              -0.000356098               0.999999985              -0.000424743              -0.000373522               0.999999985              -0.000433049              -0.000391511               0.999999985              -0.000441567              -0.000409226               0.999999985              -0.000449772              -0.000426098               0.999999985              -0.000457294              -0.000441749               0.999999985              -0.000463967              -0.000455547               0.999999985              -0.000469610              -0.000467110               0.999999985              -0.000474302              -0.000476207               0.999999985              -0.000478181              -0.000482745               0.999999985              -0.000481553              -0.000486887               0.999999985              -0.000484802              -0.000488599               0.999999985              -0.000384822              -0.000512731               0.999999985              -0.000368842              -0.000434665               0.999999985              -0.000360518              -0.000413487               0.999999985              -0.000359115              -0.000416591               0.999999985              -0.000362302              -0.000430935               0.999999985              -0.000368173              -0.000450670               0.999999985              -0.000375338              -0.000472738               0.999999985              -0.000382951              -0.000495300               0.999999985              -0.000390237              -0.000517219               0.999999985              -0.000396773              -0.000537940               0.999999985              -0.000402167              -0.000557024               0.999999985              -0.000406162              -0.000574051               0.999999985              -0.000408843              -0.000588858               0.999999985              -0.000410574              -0.000601714               0.999999985              -0.000411643              -0.000612844               0.999999985              -0.000412335              -0.000622333               0.999999985              -0.000412625              -0.000630677               0.999999985              -0.000359754              -0.000603246               0.999999985              -0.000325288              -0.000516558               0.999999985              -0.000311922              -0.000496238               0.999999985              -0.000309900              -0.000502731               0.999999985              -0.000313658              -0.000521287               0.999999985              -0.000320079              -0.000545435               0.999999985              -0.000327387              -0.000571817               0.999999985              -0.000334556              -0.000598638               0.999999985              -0.000340811              -0.000624423               0.999999985              -0.000345623              -0.000648667               0.999999985              -0.000348711              -0.000671027               0.999999985              -0.000350063              -0.000691310               0.999999985              -0.000350050              -0.000709826               0.999999985              -0.000348898              -0.000727029               0.999999985              -0.000346809              -0.000742825               0.999999985              -0.000343810              -0.000757365               0.999999985              -0.000339852              -0.000770649               0.999999985              -0.000331546              -0.000687605               0.999999985              -0.000279856              -0.000596286               0.999999985              -0.000263874              -0.000577904               0.999999985              -0.000262978              -0.000587827               0.999999985              -0.000268217              -0.000610367               0.999999985              -0.000275631              -0.000638665               0.999999985              -0.000283293              -0.000669068               0.999999985              -0.000289994              -0.000699684               0.999999985              -0.000294966              -0.000729061               0.999999985              -0.000297652              -0.000756716               0.999999985              -0.000297983              -0.000782426               0.999999985              -0.000296190              -0.000806422               0.999999985              -0.000292527              -0.000828921               0.999999985              -0.000287346              -0.000850032               0.999999985              -0.000280903              -0.000869731               0.999999985              -0.000273219              -0.000887979               0.999999985              -0.000264258              -0.000904789               0.999999985              -0.000301262              -0.000764346               0.999999985              -0.000234183              -0.000673736               0.999999985              -0.000218892              -0.000657432               0.999999985              -0.000220334              -0.000670430               0.999999985              -0.000227637              -0.000696631               0.999999985              -0.000236195              -0.000728736               0.999999985              -0.000244066              -0.000762982               0.999999985              -0.000249992              -0.000797193               0.999999985              -0.000252953              -0.000830047               0.999999985              -0.000252675              -0.000861054               0.999999985              -0.000249249              -0.000890395               0.999999985              -0.000243271              -0.000917744               0.999999985              -0.000235169              -0.000943108               0.999999985              -0.000225441              -0.000966895               0.999999985              -0.000214434              -0.000989178               0.999999985              -0.000202370              -0.001010098               0.999999985              -0.000189589              -0.001029634               0.999999985              -0.000270507              -0.000836385               0.999999985              -0.000196809              -0.000757694               0.999999985              -0.000178409              -0.000736686               0.999999985              -0.000178379              -0.000743828               0.999999985              -0.000184852              -0.000765007               0.999999985              -0.000192882              -0.000793416               0.999999985              -0.000200716              -0.000825342               0.999999985              -0.000207001              -0.000858568               0.999999985              -0.000210685              -0.000891478               0.999999985              -0.000211219              -0.000923458               0.999999985              -0.000208476              -0.000953965               0.999999985              -0.000202729              -0.000982825               0.999999985              -0.000194368              -0.001010010               0.999999985              -0.000183689              -0.001035376               0.999999985              -0.000171657              -0.001059353               0.999999985              -0.000158601              -0.001082110               0.999999985              -0.000145112              -0.001103562               0.999999985              -0.000236774              -0.000901578               0.999999985              -0.000162196              -0.000838245               0.999999985              -0.000140843              -0.000817220               0.999999985              -0.000138673              -0.000820312               0.999999985              -0.000143665              -0.000837369               0.999999985              -0.000150778              -0.000862441               0.999999985              -0.000158012              -0.000892123               0.999999985              -0.000164182              -0.000924215               0.999999985              -0.000168295              -0.000957002               0.999999985              -0.000169554              -0.000989647               0.999999985              -0.000167539              -0.001021387               0.999999985              -0.000162284              -0.001051546               0.999999985              -0.000154040              -0.001080185               0.999999985              -0.000142750              -0.001107207               0.999999985              -0.000128994              -0.001132721               0.999999985              -0.000113772              -0.001157090               0.999999985              -0.000097628              -0.001180548               0.999999985              -0.000200867              -0.000958462               0.999999985              -0.000130307              -0.000913092               0.999999985              -0.000107302              -0.000895517               0.999999985              -0.000102822              -0.000897198               0.999999985              -0.000105855              -0.000911500               0.999999985              -0.000111542              -0.000934045               0.999999985              -0.000117720              -0.000961822               0.999999985              -0.000123306              -0.000992854               0.999999985              -0.000127318              -0.001025594               0.999999985              -0.000128897              -0.001059017               0.999999985              -0.000127745              -0.001092086               0.999999985              -0.000123265              -0.001123906               0.999999985              -0.000115315              -0.001154281               0.999999985              -0.000103857              -0.001183032               0.999999985              -0.000089021              -0.001210297               0.999999985              -0.000071269              -0.001236204               0.999999985              -0.000051303              -0.001261274               0.999999985              -0.000163088              -0.001006123               0.999999985              -0.000101021              -0.000979366               0.999999985              -0.000078296              -0.000967820               0.999999985              -0.000072098              -0.000970462               0.999999985              -0.000073104              -0.000983801               0.999999985              -0.000077063              -0.001004866               0.999999985              -0.000081888              -0.001031390               0.999999985              -0.000086466              -0.001061692               0.999999985              -0.000089903              -0.001094465               0.999999985              -0.000091490              -0.001128746               0.999999985              -0.000091007              -0.001163389               0.999999985              -0.000087526              -0.001197293               0.999999985              -0.000080299              -0.001230046               0.999999985              -0.000069243              -0.001261286               0.999999985              -0.000054252              -0.001290985               0.999999985              -0.000034967              -0.001319140               0.999999985              -0.000011421              -0.001346165               0.999999985              -0.000123771              -0.001043825               0.999999985              -0.000073933              -0.001034173               0.999999985              -0.000053835              -0.001029982               0.999999985              -0.000047073              -0.001035279               0.999999985              -0.000046594              -0.001049177               0.999999985              -0.000048932              -0.001069905               0.999999985              -0.000052222              -0.001095983               0.999999985              -0.000055506              -0.001126097               0.999999985              -0.000058079              -0.001159132               0.999999985              -0.000059525              -0.001194262               0.999999985              -0.000059380              -0.001230444               0.999999985              -0.000056748              -0.001266720               0.999999985              -0.000050912              -0.001302344               0.999999985              -0.000041241              -0.001336734               0.999999985              -0.000027375              -0.001369703               0.999999985              -0.000008708              -0.001401002               0.999999985               0.000015790              -0.001430818               0.999999985              -0.000083223              -0.001071187               0.999999985              -0.000048418              -0.001075181               0.999999985              -0.000033373              -0.001077901               0.999999985              -0.000027633              -0.001086416               0.999999985              -0.000026551              -0.001101674               0.999999985              -0.000027597              -0.001122952               0.999999985              -0.000029517              -0.001149266               0.999999985              -0.000031468              -0.001179649               0.999999985              -0.000033147              -0.001213211               0.999999985              -0.000034189              -0.001249289               0.999999985              -0.000034108              -0.001286957               0.999999985              -0.000032340              -0.001325301               0.999999985              -0.000028132              -0.001363686               0.999999985              -0.000020957              -0.001401369               0.999999985              -0.000010265              -0.001437922               0.999999985               0.000004792              -0.001472889               0.999999985               0.000025815              -0.001506065               0.999999985              -0.000041821              -0.001087822               0.999999985              -0.000023940              -0.001100581               0.999999985              -0.000015895              -0.001108143               0.999999985              -0.000012629              -0.001119203               0.999999985              -0.000011834              -0.001135776               0.999999985              -0.000012139              -0.001157796               0.999999985              -0.000012936              -0.001184592               0.999999985              -0.000013771              -0.001215341               0.999999985              -0.000014658              -0.001249400               0.999999985              -0.000015184              -0.001286298               0.999999985              -0.000015147              -0.001325094               0.999999985              -0.000014197              -0.001364949               0.999999985              -0.000011961              -0.001405259               0.999999985              -0.000008120              -0.001445346               0.999999985              -0.000002354              -0.001484733               0.999999985               0.000006145              -0.001522745               0.999999985               0.000018380              -0.001558824               0.999999985              -0.000000000              -0.001093393               0.999999985               0.000000000              -0.001109157               0.999999985               0.000000000              -0.001118450               0.999999985               0.000000000              -0.001130470               0.999999985              -0.000000000              -0.001147550               0.999999985              -0.000000000              -0.001169926               0.999999985               0.000000000              -0.001196979               0.999999985              -0.000000000              -0.001227868               0.999999985               0.000000000              -0.001262121               0.999999985               0.000000000              -0.001299339               0.999999985              -0.000000000              -0.001338620               0.999999985              -0.000000000              -0.001379048               0.999999985              -0.000000000              -0.001420006               0.999999985              -0.000000000              -0.001460933               0.999999985              -0.000000000              -0.001501352               0.999999985               0.000000000              -0.001540560               0.999999985               0.000000000              -0.001577807               0.999999985               0.000446709              -0.000000000               0.999999985               0.000488733              -0.000000000               0.999999985               0.000507963               0.000000000               0.999999985               0.000519423               0.000000000               0.999999985               0.000528666              -0.000000000               0.999999985               0.000537866              -0.000000000               0.999999985               0.000547793              -0.000000000               0.999999985               0.000558768              -0.000000000               0.999999985               0.000570783               0.000000000               0.999999985               0.000583635               0.000000000               0.999999985               0.000597328              -0.000000000               0.999999985               0.000611655               0.000000000               0.999999985               0.000626454              -0.000000000               0.999999985               0.000641567              -0.000000000               0.999999985               0.000656665               0.000000000               0.999999985               0.000671331               0.000000000               0.999999985               0.000685074               0.000000000               0.999999985               0.000444127              -0.000107114               0.999999985               0.000483343              -0.000089242               0.999999985               0.000500796              -0.000082304               0.999999985               0.000511202              -0.000080977               0.999999985               0.000519836              -0.000082497               0.999999985               0.000528656              -0.000085614               0.999999985               0.000538344              -0.000089580               0.999999985               0.000549030              -0.000093946               0.999999985               0.000560640              -0.000098360               0.999999985               0.000573085              -0.000102576               0.999999985               0.000586296              -0.000106515               0.999999985               0.000600024              -0.000110037               0.999999985               0.000614108              -0.000112673               0.999999985               0.000628320              -0.000114165               0.999999985               0.000642418              -0.000114113               0.999999985               0.000656070              -0.000111956               0.999999985               0.000668767              -0.000107025               0.999999985               0.000436314              -0.000213072               0.999999985               0.000467398              -0.000177773               0.999999985               0.000480072              -0.000164736               0.999999985               0.000487694              -0.000162765               0.999999985               0.000494743              -0.000166377               0.999999985               0.000502562              -0.000173014               0.999999985               0.000511489              -0.000181194               0.999999985               0.000521443              -0.000190036               0.999999985               0.000532236              -0.000198830               0.999999985               0.000543623              -0.000207289               0.999999985               0.000555455              -0.000215303               0.999999985               0.000567474              -0.000222380               0.999999985               0.000579409              -0.000227836               0.999999985               0.000591077              -0.000231118               0.999999985               0.000602226              -0.000231896               0.999999985               0.000612716              -0.000229373               0.999999985               0.000622507              -0.000222576               0.999999985               0.000423576              -0.000316685               0.999999985               0.000441933              -0.000265074               0.999999985               0.000447820              -0.000247455               0.999999985               0.000451866              -0.000245965               0.999999985               0.000456978              -0.000252493               0.999999985               0.000463685              -0.000263191               0.999999985               0.000471838              -0.000275889               0.999999985               0.000480956              -0.000289249               0.999999985               0.000490661              -0.000302566               0.999999985               0.000500599              -0.000315323               0.999999985               0.000510499              -0.000327225               0.999999985               0.000519962              -0.000337688               0.999999985               0.000528801              -0.000346068               0.999999985               0.000536939              -0.000351926               0.999999985               0.000544340              -0.000355010               0.999999985               0.000551099              -0.000354737               0.999999985               0.000557403              -0.000350560               0.999999985               0.000406307              -0.000416882               0.999999985               0.000408462              -0.000350767               0.999999985               0.000406858              -0.000330439               0.999999985               0.000407633              -0.000330712               0.999999985               0.000411332              -0.000340938               0.999999985               0.000417300              -0.000356098               0.999999985               0.000424743              -0.000373522               0.999999985               0.000433049              -0.000391511               0.999999985               0.000441567              -0.000409226               0.999999985               0.000449772              -0.000426098               0.999999985               0.000457294              -0.000441749               0.999999985               0.000463967              -0.000455547               0.999999985               0.000469610              -0.000467110               0.999999985               0.000474302              -0.000476207               0.999999985               0.000478181              -0.000482745               0.999999985               0.000481553              -0.000486887               0.999999985               0.000484802              -0.000488599               0.999999985               0.000384822              -0.000512731               0.999999985               0.000368842              -0.000434665               0.999999985               0.000360518              -0.000413487               0.999999985               0.000359115              -0.000416591               0.999999985               0.000362302              -0.000430935               0.999999985               0.000368173              -0.000450670               0.999999985               0.000375338              -0.000472738               0.999999985               0.000382951              -0.000495300               0.999999985               0.000390237              -0.000517219               0.999999985               0.000396773              -0.000537940               0.999999985               0.000402167              -0.000557024               0.999999985               0.000406162              -0.000574051               0.999999985               0.000408843              -0.000588858               0.999999985               0.000410574              -0.000601714               0.999999985               0.000411643              -0.000612844               0.999999985               0.000412335              -0.000622333               0.999999985               0.000412625              -0.000630677               0.999999985               0.000359754              -0.000603246               0.999999985               0.000325288              -0.000516558               0.999999985               0.000311922              -0.000496238               0.999999985               0.000309900              -0.000502731               0.999999985               0.000313658              -0.000521287               0.999999985               0.000320079              -0.000545435               0.999999985               0.000327387              -0.000571817               0.999999985               0.000334556              -0.000598638               0.999999985               0.000340811              -0.000624423               0.999999985               0.000345623              -0.000648667               0.999999985               0.000348711              -0.000671027               0.999999985               0.000350063              -0.000691310               0.999999985               0.000350050              -0.000709826               0.999999985               0.000348898              -0.000727029               0.999999985               0.000346809              -0.000742825               0.999999985               0.000343810              -0.000757365               0.999999985               0.000339852              -0.000770649               0.999999985               0.000331546              -0.000687605               0.999999985               0.000279856              -0.000596286               0.999999985               0.000263874              -0.000577904               0.999999985               0.000262978              -0.000587827               0.999999985               0.000268217              -0.000610367               0.999999985               0.000275631              -0.000638665               0.999999985               0.000283293              -0.000669068               0.999999985               0.000289994              -0.000699684               0.999999985               0.000294966              -0.000729061               0.999999985               0.000297652              -0.000756716               0.999999985               0.000297983              -0.000782426               0.999999985               0.000296190              -0.000806422               0.999999985               0.000292527              -0.000828921               0.999999985               0.000287346              -0.000850032               0.999999985               0.000280903              -0.000869731               0.999999985               0.000273219              -0.000887979               0.999999985               0.000264258              -0.000904789               0.999999985               0.000301262              -0.000764346               0.999999985               0.000234183              -0.000673736               0.999999985               0.000218892              -0.000657432               0.999999985               0.000220334              -0.000670430               0.999999985               0.000227637              -0.000696631               0.999999985               0.000236195              -0.000728736               0.999999985               0.000244066              -0.000762982               0.999999985               0.000249992              -0.000797193               0.999999985               0.000252953              -0.000830047               0.999999985               0.000252675              -0.000861054               0.999999985               0.000249249              -0.000890395               0.999999985               0.000243271              -0.000917744               0.999999985               0.000235169              -0.000943108               0.999999985               0.000225441              -0.000966895               0.999999985               0.000214434              -0.000989178               0.999999985               0.000202370              -0.001010098               0.999999985               0.000189589              -0.001029634               0.999999985               0.000270507              -0.000836385               0.999999985               0.000196809              -0.000757694               0.999999985               0.000178409              -0.000736686               0.999999985               0.000178379              -0.000743828               0.999999985               0.000184852              -0.000765007               0.999999985               0.000192882              -0.000793416               0.999999985               0.000200716              -0.000825342               0.999999985               0.000207001              -0.000858568               0.999999985               0.000210685              -0.000891478               0.999999985               0.000211219              -0.000923458               0.999999985               0.000208476              -0.000953965               0.999999985               0.000202729              -0.000982825               0.999999985               0.000194368              -0.001010010               0.999999985               0.000183689              -0.001035376               0.999999985               0.000171657              -0.001059353               0.999999985               0.000158601              -0.001082110               0.999999985               0.000145112              -0.001103562               0.999999985               0.000236774              -0.000901578               0.999999985               0.000162196              -0.000838245               0.999999985               0.000140843              -0.000817220               0.999999985               0.000138673              -0.000820312               0.999999985               0.000143665              -0.000837369               0.999999985               0.000150778              -0.000862441               0.999999985               0.000158012              -0.000892123               0.999999985               0.000164182              -0.000924215               0.999999985               0.000168295              -0.000957002               0.999999985               0.000169554              -0.000989647               0.999999985               0.000167539              -0.001021387               0.999999985               0.000162284              -0.001051546               0.999999985               0.000154040              -0.001080185               0.999999985               0.000142750              -0.001107207               0.999999985               0.000128994              -0.001132721               0.999999985               0.000113772              -0.001157090               0.999999985               0.000097628              -0.001180548               0.999999985               0.000200867              -0.000958462               0.999999985               0.000130307              -0.000913092               0.999999985               0.000107302              -0.000895517               0.999999985               0.000102822              -0.000897198               0.999999985               0.000105855              -0.000911500               0.999999985               0.000111542              -0.000934045               0.999999985               0.000117720              -0.000961822               0.999999985               0.000123306              -0.000992854               0.999999985               0.000127318              -0.001025594               0.999999985               0.000128897              -0.001059017               0.999999985               0.000127745              -0.001092086               0.999999985               0.000123265              -0.001123906               0.999999985               0.000115315              -0.001154281               0.999999985               0.000103857              -0.001183032               0.999999985               0.000089021              -0.001210297               0.999999985               0.000071269              -0.001236204               0.999999985               0.000051303              -0.001261274               0.999999985               0.000163088              -0.001006123               0.999999985               0.000101021              -0.000979366               0.999999985               0.000078296              -0.000967820               0.999999985               0.000072098              -0.000970462               0.999999985               0.000073104              -0.000983801               0.999999985               0.000077063              -0.001004866               0.999999985               0.000081888              -0.001031390               0.999999985               0.000086466              -0.001061692               0.999999985               0.000089903              -0.001094465               0.999999985               0.000091490              -0.001128746               0.999999985               0.000091007              -0.001163389               0.999999985               0.000087526              -0.001197293               0.999999985               0.000080299              -0.001230046               0.999999985               0.000069243              -0.001261286               0.999999985               0.000054252              -0.001290985               0.999999985               0.000034967              -0.001319140               0.999999985               0.000011421              -0.001346165               0.999999985               0.000123771              -0.001043825               0.999999985               0.000073933              -0.001034173               0.999999985               0.000053835              -0.001029982               0.999999985               0.000047073              -0.001035279               0.999999985               0.000046594              -0.001049177               0.999999985               0.000048932              -0.001069905               0.999999985               0.000052222              -0.001095983               0.999999985               0.000055506              -0.001126097               0.999999985               0.000058079              -0.001159132               0.999999985               0.000059525              -0.001194262               0.999999985               0.000059380              -0.001230444               0.999999985               0.000056748              -0.001266720               0.999999985               0.000050912              -0.001302344               0.999999985               0.000041241              -0.001336734               0.999999985               0.000027375              -0.001369703               0.999999985               0.000008708              -0.001401002               0.999999985              -0.000015790              -0.001430818               0.999999985               0.000083223              -0.001071187               0.999999985               0.000048418              -0.001075181               0.999999985               0.000033373              -0.001077901               0.999999985               0.000027633              -0.001086416               0.999999985               0.000026551              -0.001101674               0.999999985               0.000027597              -0.001122952               0.999999985               0.000029517              -0.001149266               0.999999985               0.000031468              -0.001179649               0.999999985               0.000033147              -0.001213211               0.999999985               0.000034189              -0.001249289               0.999999985               0.000034108              -0.001286957               0.999999985               0.000032340              -0.001325301               0.999999985               0.000028132              -0.001363686               0.999999985               0.000020957              -0.001401369               0.999999985               0.000010265              -0.001437922               0.999999985              -0.000004792              -0.001472889               0.999999985              -0.000025815              -0.001506065               0.999999985               0.000041821              -0.001087822               0.999999985               0.000023940              -0.001100581               0.999999985               0.000015895              -0.001108143               0.999999985               0.000012629              -0.001119203               0.999999985               0.000011834              -0.001135776               0.999999985               0.000012139              -0.001157796               0.999999985               0.000012936              -0.001184592               0.999999985               0.000013771              -0.001215341               0.999999985               0.000014658              -0.001249400               0.999999985               0.000015184              -0.001286298               0.999999985               0.000015147              -0.001325094               0.999999985               0.000014197              -0.001364949               0.999999985               0.000011961              -0.001405259               0.999999985               0.000008120              -0.001445346               0.999999985               0.000002354              -0.001484733               0.999999985              -0.000006145              -0.001522745               0.999999985              -0.000018380              -0.001558824               0.999999985              -0.000000000              -0.001093393               0.999999985               0.000000000              -0.001109157               0.999999985               0.000000000              -0.001118450               0.999999985               0.000000000              -0.001130470               0.999999985              -0.000000000              -0.001147550               0.999999985              -0.000000000              -0.001169926               0.999999985               0.000000000              -0.001196979               0.999999985              -0.000000000              -0.001227868               0.999999985               0.000000000              -0.001262121               0.999999985               0.000000000              -0.001299339               0.999999985              -0.000000000              -0.001338620               0.999999985              -0.000000000              -0.001379048               0.999999985              -0.000000000              -0.001420006               0.999999985              -0.000000000              -0.001460933               0.999999985              -0.000000000              -0.001501352               0.999999985               0.000000000              -0.001540560               0.999999985               0.000000000              -0.001577807               0.999999985               0.000446709              -0.000000000               0.999999985               0.000488733              -0.000000000               0.999999985               0.000507963               0.000000000               0.999999985               0.000519423               0.000000000               0.999999985               0.000528666              -0.000000000               0.999999985               0.000537866              -0.000000000               0.999999985               0.000547793              -0.000000000               0.999999985               0.000558768              -0.000000000               0.999999985               0.000570783               0.000000000               0.999999985               0.000583635               0.000000000               0.999999985               0.000597328              -0.000000000               0.999999985               0.000611655               0.000000000               0.999999985               0.000626454              -0.000000000               0.999999985               0.000641567              -0.000000000               0.999999985               0.000656665               0.000000000               0.999999985               0.000671331               0.000000000               0.999999985               0.000685074               0.000000000               0.999999985               0.000444127               0.000107114               0.999999985               0.000483343               0.000089242               0.999999985               0.000500796               0.000082304               0.999999985               0.000511202               0.000080977               0.999999985               0.000519836               0.000082497               0.999999985               0.000528656               0.000085614               0.999999985               0.000538344               0.000089580               0.999999985               0.000549030               0.000093946               0.999999985               0.000560640               0.000098360               0.999999985               0.000573085               0.000102576               0.999999985               0.000586296               0.000106515               0.999999985               0.000600024               0.000110037               0.999999985               0.000614108               0.000112673               0.999999985               0.000628320               0.000114165               0.999999985               0.000642418               0.000114113               0.999999985               0.000656070               0.000111956               0.999999985               0.000668767               0.000107025               0.999999985               0.000436314               0.000213072               0.999999985               0.000467398               0.000177773               0.999999985               0.000480072               0.000164736               0.999999985               0.000487694               0.000162765               0.999999985               0.000494743               0.000166377               0.999999985               0.000502562               0.000173014               0.999999985               0.000511489               0.000181194               0.999999985               0.000521443               0.000190036               0.999999985               0.000532236               0.000198830               0.999999985               0.000543623               0.000207289               0.999999985               0.000555455               0.000215303               0.999999985               0.000567474               0.000222380               0.999999985               0.000579409               0.000227836               0.999999985               0.000591077               0.000231118               0.999999985               0.000602226               0.000231896               0.999999985               0.000612716               0.000229373               0.999999985               0.000622507               0.000222576               0.999999985               0.000423576               0.000316685               0.999999985               0.000441933               0.000265074               0.999999985               0.000447820               0.000247455               0.999999985               0.000451866               0.000245965               0.999999985               0.000456978               0.000252493               0.999999985               0.000463685               0.000263191               0.999999985               0.000471838               0.000275889               0.999999985               0.000480956               0.000289249               0.999999985               0.000490661               0.000302566               0.999999985               0.000500599               0.000315323               0.999999985               0.000510499               0.000327225               0.999999985               0.000519962               0.000337688               0.999999985               0.000528801               0.000346068               0.999999985               0.000536939               0.000351926               0.999999985               0.000544340               0.000355010               0.999999985               0.000551099               0.000354737               0.999999985               0.000557403               0.000350560               0.999999985               0.000406307               0.000416882               0.999999985               0.000408462               0.000350767               0.999999985               0.000406858               0.000330439               0.999999985               0.000407633               0.000330712               0.999999985               0.000411332               0.000340938               0.999999985               0.000417300               0.000356098               0.999999985               0.000424743               0.000373522               0.999999985               0.000433049               0.000391511               0.999999985               0.000441567               0.000409226               0.999999985               0.000449772               0.000426098               0.999999985               0.000457294               0.000441749               0.999999985               0.000463967               0.000455547               0.999999985               0.000469610               0.000467110               0.999999985               0.000474302               0.000476207               0.999999985               0.000478181               0.000482745               0.999999985               0.000481553               0.000486887               0.999999985               0.000484802               0.000488599               0.999999985               0.000384822               0.000512731               0.999999985               0.000368842               0.000434665               0.999999985               0.000360518               0.000413487               0.999999985               0.000359115               0.000416591               0.999999985               0.000362302               0.000430935               0.999999985               0.000368173               0.000450670               0.999999985               0.000375338               0.000472738               0.999999985               0.000382951               0.000495300               0.999999985               0.000390237               0.000517219               0.999999985               0.000396773               0.000537940               0.999999985               0.000402167               0.000557024               0.999999985               0.000406162               0.000574051               0.999999985               0.000408843               0.000588858               0.999999985               0.000410574               0.000601714               0.999999985               0.000411643               0.000612844               0.999999985               0.000412335               0.000622333               0.999999985               0.000412625               0.000630677               0.999999985               0.000359754               0.000603246               0.999999985               0.000325288               0.000516558               0.999999985               0.000311922               0.000496238               0.999999985               0.000309900               0.000502731               0.999999985               0.000313658               0.000521287               0.999999985               0.000320079               0.000545435               0.999999985               0.000327387               0.000571817               0.999999985               0.000334556               0.000598638               0.999999985               0.000340811               0.000624423               0.999999985               0.000345623               0.000648667               0.999999985               0.000348711               0.000671027               0.999999985               0.000350063               0.000691310               0.999999985               0.000350050               0.000709826               0.999999985               0.000348898               0.000727029               0.999999985               0.000346809               0.000742825               0.999999985               0.000343810               0.000757365               0.999999985               0.000339852               0.000770649               0.999999985               0.000331546               0.000687605               0.999999985               0.000279856               0.000596286               0.999999985               0.000263874               0.000577904               0.999999985               0.000262978               0.000587827               0.999999985               0.000268217               0.000610367               0.999999985               0.000275631               0.000638665               0.999999985               0.000283293               0.000669068               0.999999985               0.000289994               0.000699684               0.999999985               0.000294966               0.000729061               0.999999985               0.000297652               0.000756716               0.999999985               0.000297983               0.000782426               0.999999985               0.000296190               0.000806422               0.999999985               0.000292527               0.000828921               0.999999985               0.000287346               0.000850032               0.999999985               0.000280903               0.000869731               0.999999985               0.000273219               0.000887979               0.999999985               0.000264258               0.000904789               0.999999985               0.000301262               0.000764346               0.999999985               0.000234183               0.000673736               0.999999985               0.000218892               0.000657432               0.999999985               0.000220334               0.000670430               0.999999985               0.000227637               0.000696631               0.999999985               0.000236195               0.000728736               0.999999985               0.000244066               0.000762982               0.999999985               0.000249992               0.000797193               0.999999985               0.000252953               0.000830047               0.999999985               0.000252675               0.000861054               0.999999985               0.000249249               0.000890395               0.999999985               0.000243271               0.000917744               0.999999985               0.000235169               0.000943108               0.999999985               0.000225441               0.000966895               0.999999985               0.000214434               0.000989178               0.999999985               0.000202370               0.001010098               0.999999985               0.000189589               0.001029634               0.999999985               0.000270507               0.000836385               0.999999985               0.000196809               0.000757694               0.999999985               0.000178409               0.000736686               0.999999985               0.000178379               0.000743828               0.999999985               0.000184852               0.000765007               0.999999985               0.000192882               0.000793416               0.999999985               0.000200716               0.000825342               0.999999985               0.000207001               0.000858568               0.999999985               0.000210685               0.000891478               0.999999985               0.000211219               0.000923458               0.999999985               0.000208476               0.000953965               0.999999985               0.000202729               0.000982825               0.999999985               0.000194368               0.001010010               0.999999985               0.000183689               0.001035376               0.999999985               0.000171657               0.001059353               0.999999985               0.000158601               0.001082110               0.999999985               0.000145112               0.001103562               0.999999985               0.000236774               0.000901578               0.999999985               0.000162196               0.000838245               0.999999985               0.000140843               0.000817220               0.999999985               0.000138673               0.000820312               0.999999985               0.000143665               0.000837369               0.999999985               0.000150778               0.000862441               0.999999985               0.000158012               0.000892123               0.999999985               0.000164182               0.000924215               0.999999985               0.000168295               0.000957002               0.999999985               0.000169554               0.000989647               0.999999985               0.000167539               0.001021387               0.999999985               0.000162284               0.001051546               0.999999985               0.000154040               0.001080185               0.999999985               0.000142750               0.001107207               0.999999985               0.000128994               0.001132721               0.999999985               0.000113772               0.001157090               0.999999985               0.000097628               0.001180548               0.999999985               0.000200867               0.000958462               0.999999985               0.000130307               0.000913092               0.999999985               0.000107302               0.000895517               0.999999985               0.000102822               0.000897198               0.999999985               0.000105855               0.000911500               0.999999985               0.000111542               0.000934045               0.999999985               0.000117720               0.000961822               0.999999985               0.000123306               0.000992854               0.999999985               0.000127318               0.001025594               0.999999985               0.000128897               0.001059017               0.999999985               0.000127745               0.001092086               0.999999985               0.000123265               0.001123906               0.999999985               0.000115315               0.001154281               0.999999985               0.000103857               0.001183032               0.999999985               0.000089021               0.001210297               0.999999985               0.000071269               0.001236204               0.999999985               0.000051303               0.001261274               0.999999985               0.000163088               0.001006123               0.999999985               0.000101021               0.000979366               0.999999985               0.000078296               0.000967820               0.999999985               0.000072098               0.000970462               0.999999985               0.000073104               0.000983801               0.999999985               0.000077063               0.001004866               0.999999985               0.000081888               0.001031390               0.999999985               0.000086466               0.001061692               0.999999985               0.000089903               0.001094465               0.999999985               0.000091490               0.001128746               0.999999985               0.000091007               0.001163389               0.999999985               0.000087526               0.001197293               0.999999985               0.000080299               0.001230046               0.999999985               0.000069243               0.001261286               0.999999985               0.000054252               0.001290985               0.999999985               0.000034967               0.001319140               0.999999985               0.000011421               0.001346165               0.999999985               0.000123771               0.001043825               0.999999985               0.000073933               0.001034173               0.999999985               0.000053835               0.001029982               0.999999985               0.000047073               0.001035279               0.999999985               0.000046594               0.001049177               0.999999985               0.000048932               0.001069905               0.999999985               0.000052222               0.001095983               0.999999985               0.000055506               0.001126097               0.999999985               0.000058079               0.001159132               0.999999985               0.000059525               0.001194262               0.999999985               0.000059380               0.001230444               0.999999985               0.000056748               0.001266720               0.999999985               0.000050912               0.001302344               0.999999985               0.000041241               0.001336734               0.999999985               0.000027375               0.001369703               0.999999985               0.000008708               0.001401002               0.999999985              -0.000015790               0.001430818               0.999999985               0.000083223               0.001071187               0.999999985               0.000048418               0.001075181               0.999999985               0.000033373               0.001077901               0.999999985               0.000027633               0.001086416               0.999999985               0.000026551               0.001101674               0.999999985               0.000027597               0.001122952               0.999999985               0.000029517               0.001149266               0.999999985               0.000031468               0.001179649               0.999999985               0.000033147               0.001213211               0.999999985               0.000034189               0.001249289               0.999999985               0.000034108               0.001286957               0.999999985               0.000032340               0.001325301               0.999999985               0.000028132               0.001363686               0.999999985               0.000020957               0.001401369               0.999999985               0.000010265               0.001437922               0.999999985              -0.000004792               0.001472889               0.999999985              -0.000025815               0.001506065               0.999999985               0.000041821               0.001087822               0.999999985               0.000023940               0.001100581               0.999999985               0.000015895               0.001108143               0.999999985               0.000012629               0.001119203               0.999999985               0.000011834               0.001135776               0.999999985               0.000012139               0.001157796               0.999999985               0.000012936               0.001184592               0.999999985               0.000013771               0.001215341               0.999999985               0.000014658               0.001249400               0.999999985               0.000015184               0.001286298               0.999999985               0.000015147               0.001325094               0.999999985               0.000014197               0.001364949               0.999999985               0.000011961               0.001405259               0.999999985               0.000008120               0.001445346               0.999999985               0.000002354               0.001484733               0.999999985              -0.000006145               0.001522745               0.999999985              -0.000018380               0.001558824               0.999999985              -0.000000000               0.001093393               0.999999985              -0.000000000               0.001109157               0.999999985              -0.000000000               0.001118450               0.999999985              -0.000000000               0.001130470               0.999999985              -0.000000000               0.001147550               0.999999985               0.000000000               0.001169926               0.999999985               0.000000000               0.001196979               0.999999985              -0.000000000               0.001227868               0.999999985               0.000000000               0.001262121               0.999999985               0.000000000               0.001299339               0.999999985               0.000000000               0.001338620               0.999999985              -0.000000000               0.001379048               0.999999985              -0.000000000               0.001420006               0.999999985               0.000000000               0.001460933               0.999999985               0.000000000               0.001501352               0.999999985              -0.000000000               0.001540560               0.999999985              -0.000000000               0.001577807               0.999999985 </DataArray>
<DataArray type="Float64"                                    Name="defo"                                                      NumberOfComponents=" 3" format="ascii">
             -0.000446709               0.000000000               0.999999985              -0.000488733              -0.000000000               0.999999985              -0.000507963               0.000000000               0.999999985              -0.000519423               0.000000000               0.999999985              -0.000528666               0.000000000               0.999999985              -0.000537866              -0.000000000               0.999999985              -0.000547793               0.000000000               0.999999985              -0.000558768              -0.000000000               0.999999985              -0.000570783               0.000000000               0.999999985              -0.000583635               0.000000000               0.999999985              -0.000597328               0.000000000               0.999999985              -0.000611655               0.000000000               0.999999985              -0.000626454              -0.000000000               0.999999985              -0.000641567               0.000000000               0.999999985              -0.000656665               0.000000000               0.999999985              -0.000671331               0.000000000               0.999999985              -0.000685074              -0.000000000               0.999999985              -0.000444127               0.000107114               0.999999985              -0.000483343               0.000089242               0.999999985              -0.000500796               0.000082304               0.999999985              -0.000511202               0.000080977               0.999999985              -0.000519836               0.000082497               0.999999985              -0.000528656               0.000085614               0.999999985              -0.000538344               0.000089580               0.999999985              -0.000549030               0.000093946               0.999999985              -0.000560640               0.000098360               0.999999985              -0.000573085               0.000102576               0.999999985              -0.000586296               0.000106515               0.999999985              -0.000600024               0.000110037               0.999999985              -0.000614108               0.000112673               0.999999985              -0.000628320               0.000114165               0.999999985              -0.000642418               0.000114113               0.999999985              -0.000656070               0.000111956               0.999999985              -0.000668767               0.000107025               0.999999985              -0.000436314               0.000213072               0.999999985              -0.000467398               0.000177773               0.999999985              -0.000480072               0.000164736               0.999999985              -0.000487694               0.000162765               0.999999985              -0.000494743               0.000166377               0.999999985              -0.000502562               0.000173014               0.999999985              -0.000511489               0.000181194               0.999999985              -0.000521443               0.000190036               0.999999985              -0.000532236               0.000198830               0.999999985              -0.000543623               0.000207289               0.999999985              -0.000555455               0.000215303               0.999999985              -0.000567474               0.000222380               0.999999985              -0.000579409               0.000227836               0.999999985              -0.000591077               0.000231118               0.999999985              -0.000602226               0.000231896               0.999999985              -0.000612716               0.000229373               0.999999985              -0.000622507               0.000222576               0.999999985              -0.000423576               0.000316685               0.999999985              -0.000441933               0.000265074               0.999999985              -0.000447820               0.000247455               0.999999985              -0.000451866               0.000245965               0.999999985              -0.000456978               0.000252493               0.999999985              -0.000463685               0.000263191               0.999999985              -0.000471838               0.000275889               0.999999985              -0.000480956               0.000289249               0.999999985              -0.000490661               0.000302566               0.999999985              -0.000500599               0.000315323               0.999999985              -0.000510499               0.000327225               0.999999985              -0.000519962               0.000337688               0.999999985              -0.000528801               0.000346068               0.999999985              -0.000536939               0.000351926               0.999999985              -0.000544340               0.000355010               0.999999985              -0.000551099               0.000354737               0.999999985              -0.000557403               0.000350560               0.999999985              -0.000406307               0.000416882               0.999999985              -0.000408462               0.000350767               0.999999985              -0.000406858               0.000330439               0.999999985              -0.000407633               0.000330712               0.999999985              -0.000411332               0.000340938               0.999999985              -0.000417300               0.000356098               0.999999985              -0.000424743               0.000373522               0.999999985              -0.000433049               0.000391511               0.999999985              -0.000441567               0.000409226               0.999999985              -0.000449772               0.000426098               0.999999985              -0.000457294               0.000441749               0.999999985              -0.000463967               0.000455547               0.999999985              -0.000469610               0.000467110               0.999999985              -0.000474302               0.000476207               0.999999985              -0.000478181               0.000482745               0.999999985              -0.000481553               0.000486887               0.999999985              -0.000484802               0.000488599               0.999999985              -0.000384822               0.000512731               0.999999985              -0.000368842               0.000434665               0.999999985              -0.000360518               0.000413487               0.999999985              -0.000359115               0.000416591               0.999999985              -0.000362302               0.000430935               0.999999985              -0.000368173               0.000450670               0.999999985              -0.000375338               0.000472738               0.999999985              -0.000382951               0.000495300               0.999999985              -0.000390237               0.000517219               0.999999985              -0.000396773               0.000537940               0.999999985              -0.000402167               0.000557024               0.999999985              -0.000406162               0.000574051               0.999999985              -0.000408843               0.000588858               0.999999985              -0.000410574               0.000601714               0.999999985              -0.000411643               0.000612844               0.999999985              -0.000412335               0.000622333               0.999999985              -0.000412625               0.000630677               0.999999985              -0.000359754               0.000603246               0.999999985              -0.000325288               0.000516558               0.999999985              -0.000311922               0.000496238               0.999999985              -0.000309900               0.000502731               0.999999985              -0.000313658               0.000521287               0.999999985              -0.000320079               0.000545435               0.999999985              -0.000327387               0.000571817               0.999999985              -0.000334556               0.000598638               0.999999985              -0.000340811               0.000624423               0.999999985              -0.000345623               0.000648667               0.999999985              -0.000348711               0.000671027               0.999999985              -0.000350063               0.000691310               0.999999985              -0.000350050               0.000709826               0.999999985              -0.000348898               0.000727029               0.999999985              -0.000346809               0.000742825               0.999999985              -0.000343810               0.000757365               0.999999985              -0.000339852               0.000770649               0.999999985              -0.000331546               0.000687605               0.999999985              -0.000279856               0.000596286               0.999999985              -0.000263874               0.000577904               0.999999985              -0.000262978               0.000587827               0.999999985              -0.000268217               0.000610367               0.999999985              -0.000275631               0.000638665               0.999999985              -0.000283293               0.000669068               0.999999985              -0.000289994               0.000699684               0.999999985              -0.000294966               0.000729061               0.999999985              -0.000297652               0.000756716               0.999999985              -0.000297983               0.000782426               0.999999985              -0.000296190               0.000806422               0.999999985              -0.000292527               0.000828921               0.999999985              -0.000287346               0.000850032               0.999999985              -0.000280903               0.000869731               0.999999985              -0.000273219               0.000887979               0.999999985              -0.000264258               0.000904789               0.999999985              -0.000301262               0.000764346               0.999999985              -0.000234183               0.000673736               0.999999985              -0.000218892               0.000657432               0.999999985              -0.000220334               0.000670430               0.999999985              -0.000227637               0.000696631               0.999999985              -0.000236195               0.000728736               0.999999985              -0.000244066               0.000762982               0.999999985              -0.000249992               0.000797193               0.999999985              -0.000252953               0.000830047               0.999999985              -0.000252675               0.000861054               0.999999985              -0.000249249               0.000890395               0.999999985              -0.000243271               0.000917744               0.999999985              -0.000235169               0.000943108               0.999999985              -0.000225441               0.000966895               0.999999985              -0.000214434               0.000989178               0.999999985              -0.000202370               0.001010098               0.999999985              -0.000189589               0.001029634               0.999999985              -0.000270507               0.000836385               0.999999985              -0.000196809               0.000757694               0.999999985              -0.000178409               0.000736686               0.999999985              -0.000178379               0.000743828               0.999999985              -0.000184852               0.000765007               0.999999985              -0.000192882               0.000793416               0.999999985              -0.000200716               0.000825342               0.999999985              -0.000207001               0.000858568               0.999999985              -0.000210685               0.000891478               0.999999985              -0.000211219               0.000923458               0.999999985              -0.000208476               0.000953965               0.999999985              -0.000202729               0.000982825               0.999999985              -0.000194368               0.001010010               0.999999985              -0.000183689               0.001035376               0.999999985              -0.000171657               0.001059353               0.999999985              -0.000158601               0.001082110               0.999999985              -0.000145112               0.001103562               0.999999985              -0.000236774               0.000901578               0.999999985              -0.000162196               0.000838245               0.999999985              -0.000140843               0.000817220               0.999999985              -0.000138673               0.000820312               0.999999985              -0.000143665               0.000837369               0.999999985              -0.000150778               0.000862441               0.999999985              -0.000158012               0.000892123               0.999999985              -0.000164182               0.000924215               0.999999985              -0.000168295               0.000957002               0.999999985              -0.000169554               0.000989647               0.999999985              -0.000167539               0.001021387               0.999999985              -0.000162284               0.001051546               0.999999985              -0.000154040               0.001080185               0.999999985              -0.000142750               0.001107207               0.999999985              -0.000128994               0.001132721               0.999999985              -0.000113772               0.001157090               0.999999985              -0.000097628               0.001180548               0.999999985              -0.000200867               0.000958462               0.999999985              -0.000130307               0.000913092               0.999999985              -0.000107302               0.000895517               0.999999985              -0.000102822               0.000897198               0.999999985              -0.000105855               0.000911500               0.999999985              -0.000111542               0.000934045               0.999999985              -0.000117720               0.000961822               0.999999985              -0.000123306               0.000992854               0.999999985              -0.000127318               0.001025594               0.999999985              -0.000128897               0.001059017               0.999999985              -0.000127745               0.001092086               0.999999985              -0.000123265               0.001123906               0.999999985              -0.000115315               0.001154281               0.999999985              -0.000103857               0.001183032               0.999999985              -0.000089021               0.001210297               0.999999985              -0.000071269               0.001236204               0.999999985              -0.000051303               0.001261274               0.999999985              -0.000163088               0.001006123               0.999999985              -0.000101021               0.000979366               0.999999985              -0.000078296               0.000967820               0.999999985              -0.000072098               0.000970462               0.999999985              -0.000073104               0.000983801               0.999999985              -0.000077063               0.001004866               0.999999985              -0.000081888               0.001031390               0.999999985              -0.000086466               0.001061692               0.999999985              -0.000089903               0.001094465               0.999999985              -0.000091490               0.001128746               0.999999985              -0.000091007               0.001163389               0.999999985              -0.000087526               0.001197293               0.999999985              -0.000080299               0.001230046               0.999999985              -0.000069243               0.001261286               0.999999985              -0.000054252               0.001290985               0.999999985              -0.000034967               0.001319140               0.999999985              -0.000011421               0.001346165               0.999999985              -0.000123771               0.001043825               0.999999985              -0.000073933               0.001034173               0.999999985              -0.000053835               0.001029982               0.999999985              -0.000047073               0.001035279               0.999999985              -0.000046594               0.001049177               0.999999985              -0.000048932               0.001069905               0.999999985              -0.000052222               0.001095983               0.999999985              -0.000055506               0.001126097               0.999999985              -0.000058079               0.001159132               0.999999985              -0.000059525               0.001194262               0.999999985              -0.000059380               0.001230444               0.999999985              -0.000056748               0.001266720               0.999999985              -0.000050912               0.001302344               0.999999985              -0.000041241               0.001336734               0.999999985              -0.000027375               0.001369703               0.999999985              -0.000008708               0.001401002               0.999999985               0.000015790               0.001430818               0.999999985              -0.000083223               0.001071187               0.999999985              -0.000048418               0.001075181               0.999999985              -0.000033373               0.001077901               0.999999985              -0.000027633               0.001086416               0.999999985              -0.000026551               0.001101674               0.999999985              -0.000027597               0.001122952               0.999999985              -0.000029517               0.001149266               0.999999985              -0.000031468               0.001179649               0.999999985              -0.000033147               0.001213211               0.999999985              -0.000034189               0.001249289               0.999999985              -0.000034108               0.001286957               0.999999985              -0.000032340               0.001325301               0.999999985              -0.000028132               0.001363686               0.999999985              -0.000020957               0.001401369               0.999999985              -0.000010265               0.001437922               0.999999985               0.000004792               0.001472889               0.999999985               0.000025815               0.001506065               0.999999985              -0.000041821               0.001087822               0.999999985              -0.000023940               0.001100581               0.999999985              -0.000015895               0.001108143               0.999999985              -0.000012629               0.001119203               0.999999985              -0.000011834               0.001135776               0.999999985              -0.000012139               0.001157796               0.999999985              -0.000012936               0.001184592               0.999999985              -0.000013771               0.001215341               0.999999985              -0.000014658               0.001249400               0.999999985              -0.000015184               0.001286298               0.999999985              -0.000015147               0.001325094               0.999999985              -0.000014197               0.001364949               0.999999985              -0.000011961               0.001405259               0.999999985              -0.000008120               0.001445346               0.999999985              -0.000002354               0.001484733               0.999999985               0.000006145               0.001522745               0.999999985               0.000018380               0.001558824               0.999999985              -0.000000000               0.001093393               0.999999985              -0.000000000               0.001109157               0.999999985              -0.000000000               0.001118450               0.999999985              -0.000000000               0.001130470               0.999999985              -0.000000000               0.001147550               0.999999985               0.000000000               0.001169926               0.999999985               0.000000000               0.001196979               0.999999985              -0.000000000               0.001227868               0.999999985               0.000000000               0.001262121               0.999999985               0.000000000               0.001299339               0.999999985               0.000000000               0.001338620               0.999999985              -0.000000000               0.001379048               0.999999985              -0.000000000               0.001420006               0.999999985               0.000000000               0.001460933               0.999999985               0.000000000               0.001501352               0.999999985              -0.000000000               0.001540560               0.999999985              -0.000000000               0.001577807               0.999999985              -0.000446709               0.000000000               0.999999985              -0.000488733              -0.000000000               0.999999985              -0.000507963               0.000000000               0.999999985              -0.000519423               0.000000000               0.999999985              -0.000528666               0.000000000               0.999999985              -0.000537866              -0.000000000               0.999999985              -0.000547793               0.000000000               0.999999985              -0.000558768              -0.000000000               0.999999985              -0.000570783               0.000000000               0.999999985              -0.000583635               0.000000000               0.999999985              -0.000597328               0.000000000               0.999999985              -0.000611655               0.000000000               0.999999985              -0.000626454              -0.000000000               0.999999985              -0.000641567               0.000000000               0.999999985              -0.000656665               0.000000000               0.999999985              -0.000671331               0.000000000               0.999999985              -0.000685074              -0.000000000               0.999999985              -0.000444127              -0.000107114               0.999999985              -0.000483343              -0.000089242               0.999999985              -0.000500796              -0.000082304               0.999999985              -0.000511202              -0.000080977               0.999999985              -0.000519836              -0.000082497               0.999999985              -0.000528656              -0.000085614               0.999999985              -0.000538344              -0.000089580               0.999999985              -0.000549030              -0.000093946               0.999999985              -0.000560640              -0.000098360               0.999999985              -0.000573085              -0.000102576               0.999999985              -0.000586296              -0.000106515               0.999999985              -0.000600024              -0.000110037               0.999999985              -0.000614108              -0.000112673               0.999999985              -0.000628320              -0.000114165               0.999999985              -0.000642418              -0.000114113               0.999999985              -0.000656070              -0.000111956               0.999999985              -0.000668767              -0.000107025               0.999999985              -0.000436314              -0.000213072               0.999999985              -0.000467398              -0.000177773               0.999999985              -0.000480072              -0.000164736               0.999999985              -0.000487694              -0.000162765               0.999999985              -0.000494743              -0.000166377               0.999999985              -0.000502562              -0.000173014               0.999999985              -0.000511489              -0.000181194               0.999999985              -0.000521443              -0.000190036               0.999999985              -0.000532236              -0.000198830               0.999999985              -0.000543623              -0.000207289               0.999999985              -0.000555455              -0.000215303               0.999999985              -0.000567474              -0.000222380               0.999999985              -0.000579409              -0.000227836               0.999999985              -0.000591077              -0.000231118               0.999999985              -0.000602226              -0.000231896               0.999999985              -0.000612716              -0.000229373               0.999999985              -0.000622507              -0.000222576               0.999999985              -0.000423576              -0.000316685               0.999999985              -0.000441933              -0.000265074               0.999999985              -0.000447820              -0.000247455               0.999999985              -0.000451866              -0.000245965               0.999999985              -0.000456978              -0.000252493               0.999999985              -0.000463685              -0.000263191               0.999999985              -0.000471838              -0.000275889               0.999999985              -0.000480956              -0.000289249               0.999999985              -0.000490661              -0.000302566               0.999999985              -0.000500599              -0.000315323               0.999999985              -0.000510499              -0.000327225               0.999999985              -0.000519962              -0.000337688               0.999999985              -0.000528801              -0.000346068               0.999999985              -0.000536939              -0.000351926               0.999999985              -0.000544340              -0.000355010               0.999999985              -0.000551099              -0.000354737               0.999999985              -0.000557403              -0.000350560               0.999999985              -0.000406307              -0.000416882               0.999999985              -0.000408462              -0.000350767               0.999999985              -0.000406858              -0.000330439               0.999999985              -0.000407633              -0.000330712               0.999999985              -0.000411332              -0.000340938               0.999999985              -0.000417300              -0.000356098               0.999999985              -0.000424743              -0.000373522               0.999999985              -0.000433049              -0.000391511               0.999999985              -0.000441567              -0.000409226               0.999999985              -0.000449772              -0.000426098               0.999999985              -0.000457294              -0.000441749               0.999999985              -0.000463967              -0.000455547               0.999999985              -0.000469610              -0.000467110               0.999999985              -0.000474302              -0.000476207               0.999999985              -0.000478181              -0.000482745               0.999999985              -0.000481553              -0.000486887               0.999999985              -0.000484802              -0.000488599               0.999999985              -0.000384822              -0.000512731               0.999999985              -0.000368842              -0.000434665               0.999999985              -0.000360518              -0.000413487               0.999999985              -0.000359115              -0.000416591               0.999999985              -0.000362302              -0.000430935               0.999999985              -0.000368173              -0.000450670               0.999999985              -0.000375338              -0.000472738               0.999999985              -0.000382951              -0.000495300               0.999999985              -0.000390237              -0.000517219               0.999999985              -0.000396773              -0.000537940               0.999999985              -0.000402167              -0.000557024               0.999999985              -0.000406162              -0.000574051               0.999999985              -0.000408843              -0.000588858               0.999999985              -0.000410574              -0.000601714               0.999999985              -0.000411643              -0.000612844               0.999999985              -0.000412335              -0.000622333               0.999999985              -0.000412625              -0.000630677               0.999999985              -0.000359754              -0.000603246               0.999999985              -0.000325288              -0.000516558               0.999999985              -0.000311922              -0.000496238               0.999999985              -0.000309900              -0.000502731               0.999999985              -0.000313658              -0.000521287               0.999999985              -0.000320079              -0.000545435               0.999999985              -0.000327387              -0.000571817               0.999999985              -0.000334556              -0.000598638               0.999999985              -0.000340811              -0.000624423               0.999999985              -0.000345623              -0.000648667               0.999999985              -0.000348711              -0.000671027               0.999999985              -0.000350063              -0.000691310               0.999999985              -0.000350050              -0.000709826               0.999999985              -0.000348898              -0.000727029               0.999999985              -0.000346809              -0.000742825               0.999999985              -0.000343810              -0.000757365               0.999999985              -0.000339852              -0.000770649               0.999999985              -0.000331546              -0.000687605               0.999999985              -0.000279856              -0.000596286               0.999999985              -0.000263874              -0.000577904               0.999999985              -0.000262978              -0.000587827               0.999999985              -0.000268217              -0.000610367               0.999999985              -0.000275631              -0.000638665               0.999999985              -0.000283293              -0.000669068               0.999999985              -0.000289994              -0.000699684               0.999999985              -0.000294966              -0.000729061               0.999999985              -0.000297652              -0.000756716               0.999999985              -0.000297983              -0.000782426               0.999999985              -0.000296190              -0.000806422               0.999999985              -0.000292527              -0.000828921               0.999999985              -0.000287346              -0.000850032               0.999999985              -0.000280903              -0.000869731               0.999999985              -0.000273219              -0.000887979               0.999999985              -0.000264258              -0.000904789               0.999999985              -0.000301262              -0.000764346               0.999999985              -0.000234183              -0.000673736               0.999999985              -0.000218892              -0.000657432               0.999999985              -0.000220334              -0.000670430               0.999999985              -0.000227637              -0.000696631               0.999999985              -0.000236195              -0.000728736               0.999999985              -0.000244066              -0.000762982               0.999999985              -0.000249992              -0.000797193               0.999999985              -0.000252953              -0.000830047               0.999999985              -0.000252675              -0.000861054               0.999999985              -0.000249249              -0.000890395               0.999999985              -0.000243271              -0.000917744               0.999999985              -0.000235169              -0.000943108               0.999999985              -0.000225441              -0.000966895               0.999999985              -0.000214434              -0.000989178               0.999999985              -0.000202370              -0.001010098               0.999999985              -0.000189589              -0.001029634               0.999999985              -0.000270507              -0.000836385               0.999999985              -0.000196809              -0.000757694               0.999999985              -0.000178409              -0.000736686               0.999999985              -0.000178379              -0.000743828               0.999999985              -0.000184852              -0.000765007               0.999999985              -0.000192882              -0.000793416               0.999999985              -0.000200716              -0.000825342               0.999999985              -0.000207001              -0.000858568               0.999999985              -0.000210685              -0.000891478               0.999999985              -0.000211219              -0.000923458               0.999999985              -0.000208476              -0.000953965               0.999999985              -0.000202729              -0.000982825               0.999999985              -0.000194368              -0.001010010               0.999999985              -0.000183689              -0.001035376               0.999999985              -0.000171657              -0.001059353               0.999999985              -0.000158601              -0.001082110               0.999999985              -0.000145112              -0.001103562               0.999999985              -0.000236774              -0.000901578               0.999999985              -0.000162196              -0.000838245               0.999999985              -0.000140843              -0.000817220               0.999999985              -0.000138673              -0.000820312               0.999999985              -0.000143665              -0.000837369               0.999999985              -0.000150778              -0.000862441               0.999999985              -0.000158012              -0.000892123               0.999999985              -0.000164182              -0.000924215               0.999999985              -0.000168295              -0.000957002               0.999999985              -0.000169554              -0.000989647               0.999999985              -0.000167539              -0.001021387               0.999999985              -0.000162284              -0.001051546               0.999999985              -0.000154040              -0.001080185               0.999999985              -0.000142750              -0.001107207               0.999999985              -0.000128994              -0.001132721               0.999999985              -0.000113772              -0.001157090               0.999999985              -0.000097628              -0.001180548               0.999999985              -0.000200867              -0.000958462               0.999999985              -0.000130307              -0.000913092               0.999999985              -0.000107302              -0.000895517               0.999999985              -0.000102822              -0.000897198               0.999999985              -0.000105855              -0.000911500               0.999999985              -0.000111542              -0.000934045               0.999999985              -0.000117720              -0.000961822               0.999999985              -0.000123306              -0.000992854               0.999999985              -0.000127318              -0.001025594               0.999999985              -0.000128897              -0.001059017               0.999999985              -0.000127745              -0.001092086               0.999999985              -0.000123265              -0.001123906               0.999999985              -0.000115315              -0.001154281               0.999999985              -0.000103857              -0.001183032               0.999999985              -0.000089021              -0.001210297               0.999999985              -0.000071269              -0.001236204               0.999999985              -0.000051303              -0.001261274               0.999999985              -0.000163088              -0.001006123               0.999999985              -0.000101021              -0.000979366               0.999999985              -0.000078296              -0.000967820               0.999999985              -0.000072098              -0.000970462               0.999999985              -0.000073104              -0.000983801               0.999999985              -0.000077063              -0.001004866               0.999999985              -0.000081888              -0.001031390               0.999999985              -0.000086466              -0.001061692               0.999999985              -0.000089903              -0.001094465               0.999999985              -0.000091490              -0.001128746               0.999999985              -0.000091007              -0.001163389               0.999999985              -0.000087526              -0.001197293               0.999999985              -0.000080299              -0.001230046               0.999999985              -0.000069243              -0.001261286               0.999999985              -0.000054252              -0.001290985               0.999999985              -0.000034967              -0.001319140               0.999999985              -0.000011421              -0.001346165               0.999999985              -0.000123771              -0.001043825               0.999999985              -0.000073933              -0.001034173               0.999999985              -0.000053835              -0.001029982               0.999999985              -0.000047073              -0.001035279               0.999999985              -0.000046594              -0.001049177               0.999999985              -0.000048932              -0.001069905               0.999999985              -0.000052222              -0.001095983               0.999999985              -0.000055506              -0.001126097               0.999999985              -0.000058079              -0.001159132               0.999999985              -0.000059525              -0.001194262               0.999999985              -0.000059380              -0.001230444               0.999999985              -0.000056748              -0.001266720               0.999999985              -0.000050912              -0.001302344               0.999999985              -0.000041241              -0.001336734               0.999999985              -0.000027375              -0.001369703               0.999999985              -0.000008708              -0.001401002               0.999999985               0.000015790              -0.001430818               0.999999985              -0.000083223              -0.001071187               0.999999985              -0.000048418              -0.001075181               0.999999985              -0.000033373              -0.001077901               0.999999985              -0.000027633              -0.001086416               0.999999985              -0.000026551              -0.001101674               0.999999985              -0.000027597              -0.001122952               0.999999985              -0.000029517              -0.001149266               0.999999985              -0.000031468              -0.001179649               0.999999985              -0.000033147              -0.001213211               0.999999985              -0.000034189              -0.001249289               0.999999985              -0.000034108              -0.001286957               0.999999985              -0.000032340              -0.001325301               0.999999985              -0.000028132              -0.001363686               0.999999985              -0.000020957              -0.001401369               0.999999985              -0.000010265              -0.001437922               0.999999985               0.000004792              -0.001472889               0.999999985               0.000025815              -0.001506065               0.999999985              -0.000041821              -0.001087822               0.999999985              -0.000023940              -0.001100581               0.999999985              -0.000015895              -0.001108143               0.999999985              -0.000012629              -0.001119203               0.999999985              -0.000011834              -0.001135776               0.999999985              -0.000012139              -0.001157796               0.999999985              -0.000012936              -0.001184592               0.999999985              -0.000013771              -0.001215341               0.999999985              -0.000014658              -0.001249400               0.999999985              -0.000015184              -0.001286298               0.999999985              -0.000015147              -0.001325094               0.999999985              -0.000014197              -0.001364949               0.999999985              -0.000011961              -0.001405259               0.999999985              -0.000008120              -0.001445346               0.999999985              -0.000002354              -0.001484733               0.999999985               0.000006145              -0.001522745               0.999999985               0.000018380              -0.001558824               0.999999985              -0.000000000              -0.001093393               0.999999985               0.000000000              -0.001109157               0.999999985               0.000000000              -0.001118450               0.999999985               0.000000000              -0.001130470               0.999999985              -0.000000000              -0.001147550               0.999999985              -0.000000000              -0.001169926               0.999999985               0.000000000              -0.001196979               0.999999985              -0.000000000              -0.001227868               0.999999985               0.000000000              -0.001262121               0.999999985               0.000000000              -0.001299339               0.999999985              -0.000000000              -0.001338620               0.999999985              -0.000000000              -0.001379048               0.999999985              -0.000000000              -0.001420006               0.999999985              -0.000000000              -0.001460933               0.999999985              -0.000000000              -0.001501352               0.999999985               0.000000000              -0.001540560               0.999999985               0.000000000              -0.001577807               0.999999985               0.000446709              -0.000000000               0.999999985               0.000488733              -0.000000000               0.999999985               0.000507963               0.000000000               0.999999985               0.000519423               0.000000000               0.999999985               0.000528666              -0.000000000               0.999999985               0.000537866              -0.000000000               0.999999985               0.000547793              -0.000000000               0.999999985               0.000558768              -0.000000000               0.999999985               0.000570783               0.000000000               0.999999985               0.000583635               0.000000000               0.999999985               0.000597328              -0.000000000               0.999999985               0.000611655               0.000000000               0.999999985               0.000626454              -0.000000000               0.999999985               0.000641567              -0.000000000               0.999999985               0.000656665               0.000000000               0.999999985               0.000671331               0.000000000               0.999999985               0.000685074               0.000000000               0.999999985               0.000444127              -0.000107114               0.999999985               0.000483343              -0.000089242               0.999999985               0.000500796              -0.000082304               0.999999985               0.000511202              -0.000080977               0.999999985               0.000519836              -0.000082497               0.999999985               0.000528656              -0.000085614               0.999999985               0.000538344              -0.000089580               0.999999985               0.000549030              -0.000093946               0.999999985               0.000560640              -0.000098360               0.999999985               0.000573085              -0.000102576               0.999999985               0.000586296              -0.000106515               0.999999985               0.000600024              -0.000110037               0.999999985               0.000614108              -0.000112673               0.999999985               0.000628320              -0.000114165               0.999999985               0.000642418              -0.000114113               0.999999985               0.000656070              -0.000111956               0.999999985               0.000668767              -0.000107025               0.999999985               0.000436314              -0.000213072               0.999999985               0.000467398              -0.000177773               0.999999985               0.000480072              -0.000164736               0.999999985               0.000487694              -0.000162765               0.999999985               0.000494743              -0.000166377               0.999999985               0.000502562              -0.000173014               0.999999985               0.000511489              -0.000181194               0.999999985               0.000521443              -0.000190036               0.999999985               0.000532236              -0.000198830               0.999999985               0.000543623              -0.000207289               0.999999985               0.000555455              -0.000215303               0.999999985               0.000567474              -0.000222380               0.999999985               0.000579409              -0.000227836               0.999999985               0.000591077              -0.000231118               0.999999985               0.000602226              -0.000231896               0.999999985               0.000612716              -0.000229373               0.999999985               0.000622507              -0.000222576               0.999999985               0.000423576              -0.000316685               0.999999985               0.000441933              -0.000265074               0.999999985               0.000447820              -0.000247455               0.999999985               0.000451866              -0.000245965               0.999999985               0.000456978              -0.000252493               0.999999985               0.000463685              -0.000263191               0.999999985               0.000471838              -0.000275889               0.999999985               0.000480956              -0.000289249               0.999999985               0.000490661              -0.000302566               0.999999985               0.000500599              -0.000315323               0.999999985               0.000510499              -0.000327225               0.999999985               0.000519962              -0.000337688               0.999999985               0.000528801              -0.000346068               0.999999985               0.000536939              -0.000351926               0.999999985               0.000544340              -0.000355010               0.999999985               0.000551099              -0.000354737               0.999999985               0.000557403              -0.000350560               0.999999985               0.000406307              -0.000416882               0.999999985               0.000408462              -0.000350767               0.999999985               0.000406858              -0.000330439               0.999999985               0.000407633              -0.000330712               0.999999985               0.000411332              -0.000340938               0.999999985               0.000417300              -0.000356098               0.999999985               0.000424743              -0.000373522               0.999999985               0.000433049              -0.000391511               0.999999985               0.000441567              -0.000409226               0.999999985               0.000449772              -0.000426098               0.999999985               0.000457294              -0.000441749               0.999999985               0.000463967              -0.000455547               0.999999985               0.000469610              -0.000467110               0.999999985               0.000474302              -0.000476207               0.999999985               0.000478181              -0.000482745               0.999999985               0.000481553              -0.000486887               0.999999985               0.000484802              -0.000488599               0.999999985               0.000384822              -0.000512731               0.999999985               0.000368842              -0.000434665               0.999999985               0.000360518              -0.000413487               0.999999985               0.000359115              -0.000416591               0.999999985               0.000362302              -0.000430935               0.999999985               0.000368173              -0.000450670               0.999999985               0.000375338              -0.000472738               0.999999985               0.000382951              -0.000495300               0.999999985               0.000390237              -0.000517219               0.999999985               0.000396773              -0.000537940               0.999999985               0.000402167              -0.000557024               0.999999985               0.000406162              -0.000574051               0.999999985               0.000408843              -0.000588858               0.999999985               0.000410574              -0.000601714               0.999999985               0.000411643              -0.000612844               0.999999985               0.000412335              -0.000622333               0.999999985               0.000412625              -0.000630677               0.999999985               0.000359754              -0.000603246               0.999999985               0.000325288              -0.000516558               0.999999985               0.000311922              -0.000496238               0.999999985               0.000309900              -0.000502731               0.999999985               0.000313658              -0.000521287               0.999999985               0.000320079              -0.000545435               0.999999985               0.000327387              -0.000571817               0.999999985               0.000334556              -0.000598638               0.999999985               0.000340811              -0.000624423               0.999999985               0.000345623              -0.000648667               0.999999985               0.000348711              -0.000671027               0.999999985               0.000350063              -0.000691310               0.999999985               0.000350050              -0.000709826               0.999999985               0.000348898              -0.000727029               0.999999985               0.000346809              -0.000742825               0.999999985               0.000343810              -0.000757365               0.999999985               0.000339852              -0.000770649               0.999999985               0.000331546              -0.000687605               0.999999985               0.000279856              -0.000596286               0.999999985               0.000263874              -0.000577904               0.999999985               0.000262978              -0.000587827               0.999999985               0.000268217              -0.000610367               0.999999985               0.000275631              -0.000638665               0.999999985               0.000283293              -0.000669068               0.999999985               0.000289994              -0.000699684               0.999999985               0.000294966              -0.000729061               0.999999985               0.000297652              -0.000756716               0.999999985               0.000297983              -0.000782426               0.999999985               0.000296190              -0.000806422               0.999999985               0.000292527              -0.000828921               0.999999985               0.000287346              -0.000850032               0.999999985               0.000280903              -0.000869731               0.999999985               0.000273219              -0.000887979               0.999999985               0.000264258              -0.000904789               0.999999985               0.000301262              -0.000764346               0.999999985               0.000234183              -0.000673736               0.999999985               0.000218892              -0.000657432               0.999999985               0.000220334              -0.000670430               0.999999985               0.000227637              -0.000696631               0.999999985               0.000236195              -0.000728736               0.999999985               0.000244066              -0.000762982               0.999999985               0.000249992              -0.000797193               0.999999985               0.000252953              -0.000830047               0.999999985               0.000252675              -0.000861054               0.999999985               0.000249249              -0.000890395               0.999999985               0.000243271              -0.000917744               0.999999985               0.000235169              -0.000943108               0.999999985               0.000225441              -0.000966895               0.999999985               0.000214434              -0.000989178               0.999999985               0.000202370              -0.001010098               0.999999985               0.000189589              -0.001029634               0.999999985               0.000270507              -0.000836385               0.999999985               0.000196809              -0.000757694               0.999999985               0.000178409              -0.000736686               0.999999985               0.000178379              -0.000743828               0.999999985               0.000184852              -0.000765007               0.999999985               0.000192882              -0.000793416               0.999999985               0.000200716              -0.000825342               0.999999985               0.000207001              -0.000858568               0.999999985               0.000210685              -0.000891478               0.999999985               0.000211219              -0.000923458               0.999999985               0.000208476              -0.000953965               0.999999985               0.000202729              -0.000982825               0.999999985               0.000194368              -0.001010010               0.999999985               0.000183689              -0.001035376               0.999999985               0.000171657              -0.001059353               0.999999985               0.000158601              -0.001082110               0.999999985               0.000145112              -0.001103562               0.999999985               0.000236774              -0.000901578               0.999999985               0.000162196              -0.000838245               0.999999985               0.000140843              -0.000817220               0.999999985               0.000138673              -0.000820312               0.999999985               0.000143665              -0.000837369               0.999999985               0.000150778              -0.000862441               0.999999985               0.000158012              -0.000892123               0.999999985               0.000164182              -0.000924215               0.999999985               0.000168295              -0.000957002               0.999999985               0.000169554              -0.000989647               0.999999985               0.000167539              -0.001021387               0.999999985               0.000162284              -0.001051546               0.999999985               0.000154040              -0.001080185               0.999999985               0.000142750              -0.001107207               0.999999985               0.000128994              -0.001132721               0.999999985               0.000113772              -0.001157090               0.999999985               0.000097628              -0.001180548               0.999999985               0.000200867              -0.000958462               0.999999985               0.000130307              -0.000913092               0.999999985               0.000107302              -0.000895517               0.999999985               0.000102822              -0.000897198               0.999999985               0.000105855              -0.000911500               0.999999985               0.000111542              -0.000934045               0.999999985               0.000117720              -0.000961822               0.999999985               0.000123306              -0.000992854               0.999999985               0.000127318              -0.001025594               0.999999985               0.000128897              -0.001059017               0.999999985               0.000127745              -0.001092086               0.999999985               0.000123265              -0.001123906               0.999999985               0.000115315              -0.001154281               0.999999985               0.000103857              -0.001183032               0.999999985               0.000089021              -0.001210297               0.999999985               0.000071269              -0.001236204               0.999999985               0.000051303              -0.001261274               0.999999985               0.000163088              -0.001006123               0.999999985               0.000101021              -0.000979366               0.999999985               0.000078296              -0.000967820               0.999999985               0.000072098              -0.000970462               0.999999985               0.000073104              -0.000983801               0.999999985               0.000077063              -0.001004866               0.999999985               0.000081888              -0.001031390               0.999999985               0.000086466              -0.001061692               0.999999985               0.000089903              -0.001094465               0.999999985               0.000091490              -0.001128746               0.999999985               0.000091007              -0.001163389               0.999999985               0.000087526              -0.001197293               0.999999985               0.000080299              -0.001230046               0.999999985               0.000069243              -0.001261286               0.999999985               0.000054252              -0.001290985               0.999999985               0.000034967              -0.001319140               0.999999985               0.000011421              -0.001346165               0.999999985               0.000123771              -0.001043825               0.999999985               0.000073933              -0.001034173               0.999999985               0.000053835              -0.001029982               0.999999985               0.000047073              -0.001035279               0.999999985               0.000046594              -0.001049177               0.999999985               0.000048932              -0.001069905               0.999999985               0.000052222              -0.001095983               0.999999985               0.000055506              -0.001126097               0.999999985               0.000058079              -0.001159132               0.999999985               0.000059525              -0.001194262               0.999999985               0.000059380              -0.001230444               0.999999985               0.000056748              -0.001266720               0.999999985               0.000050912              -0.001302344               0.999999985               0.000041241              -0.001336734               0.999999985               0.000027375              -0.001369703               0.999999985               0.000008708              -0.001401002               0.999999985              -0.000015790              -0.001430818               0.999999985               0.000083223              -0.001071187               0.999999985               0.000048418              -0.001075181               0.999999985               0.000033373              -0.001077901               0.999999985               0.000027633              -0.001086416               0.999999985               0.000026551              -0.001101674               0.999999985               0.000027597              -0.001122952               0.999999985               0.000029517              -0.001149266               0.999999985               0.000031468              -0.001179649               0.999999985               0.000033147              -0.001213211               0.999999985               0.000034189              -0.001249289               0.999999985               0.000034108              -0.001286957               0.999999985               0.000032340              -0.001325301               0.999999985               0.000028132              -0.001363686               0.999999985               0.000020957              -0.001401369               0.999999985               0.000010265              -0.001437922               0.999999985              -0.000004792              -0.001472889               0.999999985              -0.000025815              -0.001506065               0.999999985               0.000041821              -0.001087822               0.999999985               0.000023940              -0.001100581               0.999999985               0.000015895              -0.001108143               0.999999985               0.000012629              -0.001119203               0.999999985               0.000011834              -0.001135776               0.999999985               0.000012139              -0.001157796               0.999999985               0.000012936              -0.001184592               0.999999985               0.000013771              -0.001215341               0.999999985               0.000014658              -0.001249400               0.999999985               0.000015184              -0.001286298               0.999999985               0.000015147              -0.001325094               0.999999985               0.000014197              -0.001364949               0.999999985               0.000011961              -0.001405259               0.999999985               0.000008120              -0.001445346               0.999999985               0.000002354              -0.001484733               0.999999985              -0.000006145              -0.001522745               0.999999985              -0.000018380              -0.001558824               0.999999985              -0.000000000              -0.001093393               0.999999985               0.000000000              -0.001109157               0.999999985               0.000000000              -0.001118450               0.999999985               0.000000000              -0.001130470               0.999999985              -0.000000000              -0.001147550               0.999999985              -0.000000000              -0.001169926               0.999999985               0.000000000              -0.001196979               0.999999985              -0.000000000              -0.001227868               0.999999985               0.000000000              -0.001262121               0.999999985               0.000000000              -0.001299339               0.999999985              -0.000000000              -0.001338620               0.999999985              -0.000000000              -0.001379048               0.999999985              -0.000000000              -0.001420006               0.999999985              -0.000000000              -0.001460933               0.999999985              -0.000000000              -0.001501352               0.999999985               0.000000000              -0.001540560               0.999999985               0.000000000              -0.001577807               0.999999985               0.000446709              -0.000000000               0.999999985               0.000488733              -0.000000000               0.999999985               0.000507963               0.000000000               0.999999985               0.000519423               0.000000000               0.999999985               0.000528666              -0.000000000               0.999999985               0.000537866              -0.000000000               0.999999985               0.000547793              -0.000000000               0.999999985               0.000558768              -0.000000000               0.999999985               0.000570783               0.000000000               0.999999985               0.000583635               0.000000000               0.999999985               0.000597328              -0.000000000               0.999999985               0.000611655               0.000000000               0.999999985               0.000626454              -0.000000000               0.999999985               0.000641567              -0.000000000               0.999999985               0.000656665               0.000000000               0.999999985               0.000671331               0.000000000               0.999999985               0.000685074               0.000000000               0.999999985               0.000444127               0.000107114               0.999999985               0.000483343               0.000089242               0.999999985               0.000500796               0.000082304               0.999999985               0.000511202               0.000080977               0.999999985               0.000519836               0.000082497               0.999999985               0.000528656               0.000085614               0.999999985               0.000538344               0.000089580               0.999999985               0.000549030               0.000093946               0.999999985               0.000560640               0.000098360               0.999999985               0.000573085               0.000102576               0.999999985               0.000586296               0.000106515               0.999999985               0.000600024               0.000110037               0.999999985               0.000614108               0.000112673               0.999999985               0.000628320               0.000114165               0.999999985               0.000642418               0.000114113               0.999999985               0.000656070               0.000111956               0.999999985               0.000668767               0.000107025               0.999999985               0.000436314               0.000213072               0.999999985               0.000467398               0.000177773               0.999999985               0.000480072               0.000164736               0.999999985               0.000487694               0.000162765               0.999999985               0.000494743               0.000166377               0.999999985               0.000502562               0.000173014               0.999999985               0.000511489               0.000181194               0.999999985               0.000521443               0.000190036               0.999999985               0.000532236               0.000198830               0.999999985               0.000543623               0.000207289               0.999999985               0.000555455               0.000215303               0.999999985               0.000567474               0.000222380               0.999999985               0.000579409               0.000227836               0.999999985               0.000591077               0.000231118               0.999999985               0.000602226               0.000231896               0.999999985               0.000612716               0.000229373               0.999999985               0.000622507               0.000222576               0.999999985               0.000423576               0.000316685               0.999999985               0.000441933               0.000265074               0.999999985               0.000447820               0.000247455               0.999999985               0.000451866               0.000245965               0.999999985               0.000456978               0.000252493               0.999999985               0.000463685               0.000263191               0.999999985               0.000471838               0.000275889               0.999999985               0.000480956               0.000289249               0.999999985               0.000490661               0.000302566               0.999999985               0.000500599               0.000315323               0.999999985               0.000510499               0.000327225               0.999999985               0.000519962               0.000337688               0.999999985               0.000528801               0.000346068               0.999999985               0.000536939               0.000351926               0.999999985               0.000544340               0.000355010               0.999999985               0.000551099               0.000354737               0.999999985               0.000557403               0.000350560               0.999999985               0.000406307               0.000416882               0.999999985               0.000408462               0.000350767               0.999999985               0.000406858               0.000330439               0.999999985               0.000407633               0.000330712               0.999999985               0.000411332               0.000340938               0.999999985               0.000417300               0.000356098               0.999999985               0.000424743               0.000373522               0.999999985               0.000433049               0.000391511               0.999999985               0.000441567               0.000409226               0.999999985               0.000449772               0.000426098               0.999999985               0.000457294               0.000441749               0.999999985               0.000463967               0.000455547               0.999999985               0.000469610               0.000467110               0.999999985               0.000474302               0.000476207               0.999999985               0.000478181               0.000482745               0.999999985               0.000481553               0.000486887               0.999999985               0.000484802               0.000488599               0.999999985               0.000384822               0.000512731               0.999999985               0.000368842               0.000434665               0.999999985               0.000360518               0.000413487               0.999999985               0.000359115               0.000416591               0.999999985               0.000362302               0.000430935               0.999999985               0.000368173               0.000450670               0.999999985               0.000375338               0.000472738               0.999999985               0.000382951               0.000495300               0.999999985               0.000390237               0.000517219               0.999999985               0.000396773               0.000537940               0.999999985               0.000402167               0.000557024               0.999999985               0.000406162               0.000574051               0.999999985               0.000408843               0.000588858               0.999999985               0.000410574               0.000601714               0.999999985               0.000411643               0.000612844               0.999999985               0.000412335               0.000622333               0.999999985               0.000412625               0.000630677               0.999999985               0.000359754               0.000603246               0.999999985               0.000325288               0.000516558               0.999999985               0.000311922               0.000496238               0.999999985               0.000309900               0.000502731               0.999999985               0.000313658               0.000521287               0.999999985               0.000320079               0.000545435               0.999999985               0.000327387               0.000571817               0.999999985               0.000334556               0.000598638               0.999999985               0.000340811               0.000624423               0.999999985               0.000345623               0.000648667               0.999999985               0.000348711               0.000671027               0.999999985               0.000350063               0.000691310               0.999999985               0.000350050               0.000709826               0.999999985               0.000348898               0.000727029               0.999999985               0.000346809               0.000742825               0.999999985               0.000343810               0.000757365               0.999999985               0.000339852               0.000770649               0.999999985               0.000331546               0.000687605               0.999999985               0.000279856               0.000596286               0.999999985               0.000263874               0.000577904               0.999999985               0.000262978               0.000587827               0.999999985               0.000268217               0.000610367               0.999999985               0.000275631               0.000638665               0.999999985               0.000283293               0.000669068               0.999999985               0.000289994               0.000699684               0.999999985               0.000294966               0.000729061               0.999999985               0.000297652               0.000756716               0.999999985               0.000297983               0.000782426               0.999999985               0.000296190               0.000806422               0.999999985               0.000292527               0.000828921               0.999999985               0.000287346               0.000850032               0.999999985               0.000280903               0.000869731               0.999999985               0.000273219               0.000887979               0.999999985               0.000264258               0.000904789               0.999999985               0.000301262               0.000764346               0.999999985               0.000234183               0.000673736               0.999999985               0.000218892               0.000657432               0.999999985               0.000220334               0.000670430               0.999999985               0.000227637               0.000696631               0.999999985               0.000236195               0.000728736               0.999999985               0.000244066               0.000762982               0.999999985               0.000249992               0.000797193               0.999999985               0.000252953               0.000830047               0.999999985               0.000252675               0.000861054               0.999999985               0.000249249               0.000890395               0.999999985               0.000243271               0.000917744               0.999999985               0.000235169               0.000943108               0.999999985               0.000225441               0.000966895               0.999999985               0.000214434               0.000989178               0.999999985               0.000202370               0.001010098               0.999999985               0.000189589               0.001029634               0.999999985               0.000270507               0.000836385               0.999999985               0.000196809               0.000757694               0.999999985               0.000178409               0.000736686               0.999999985               0.000178379               0.000743828               0.999999985               0.000184852               0.000765007               0.999999985               0.000192882               0.000793416               0.999999985               0.000200716               0.000825342               0.999999985               0.000207001               0.000858568               0.999999985               0.000210685               0.000891478               0.999999985               0.000211219               0.000923458               0.999999985               0.000208476               0.000953965               0.999999985               0.000202729               0.000982825               0.999999985               0.000194368               0.001010010               0.999999985               0.000183689               0.001035376               0.999999985               0.000171657               0.001059353               0.999999985               0.000158601               0.001082110               0.999999985               0.000145112               0.001103562               0.999999985               0.000236774               0.000901578               0.999999985               0.000162196               0.000838245               0.999999985               0.000140843               0.000817220               0.999999985               0.000138673               0.000820312               0.999999985               0.000143665               0.000837369               0.999999985               0.000150778               0.000862441               0.999999985               0.000158012               0.000892123               0.999999985               0.000164182               0.000924215               0.999999985               0.000168295               0.000957002               0.999999985               0.000169554               0.000989647               0.999999985               0.000167539               0.001021387               0.999999985               0.000162284               0.001051546               0.999999985               0.000154040               0.001080185               0.999999985               0.000142750               0.001107207               0.999999985               0.000128994               0.001132721               0.999999985               0.000113772               0.001157090               0.999999985               0.000097628               0.001180548               0.999999985               0.000200867               0.000958462               0.999999985               0.000130307               0.000913092               0.999999985               0.000107302               0.000895517               0.999999985               0.000102822               0.000897198               0.999999985               0.000105855               0.000911500               0.999999985               0.000111542               0.000934045               0.999999985               0.000117720               0.000961822               0.999999985               0.000123306               0.000992854               0.999999985               0.000127318               0.001025594               0.999999985               0.000128897               0.001059017               0.999999985               0.000127745               0.001092086               0.999999985               0.000123265               0.001123906               0.999999985               0.000115315               0.001154281               0.999999985               0.000103857               0.001183032               0.999999985               0.000089021               0.001210297               0.999999985               0.000071269               0.001236204               0.999999985               0.000051303               0.001261274               0.999999985               0.000163088               0.001006123               0.999999985               0.000101021               0.000979366               0.999999985               0.000078296               0.000967820               0.999999985               0.000072098               0.000970462               0.999999985               0.000073104               0.000983801               0.999999985               0.000077063               0.001004866               0.999999985               0.000081888               0.001031390               0.999999985               0.000086466               0.001061692               0.999999985               0.000089903               0.001094465               0.999999985               0.000091490               0.001128746               0.999999985               0.000091007               0.001163389               0.999999985               0.000087526               0.001197293               0.999999985               0.000080299               0.001230046               0.999999985               0.000069243               0.001261286               0.999999985               0.000054252               0.001290985               0.999999985               0.000034967               0.001319140               0.999999985               0.000011421               0.001346165               0.999999985               0.000123771               0.001043825               0.999999985               0.000073933               0.001034173               0.999999985               0.000053835               0.001029982               0.999999985               0.000047073               0.001035279               0.999999985               0.000046594               0.001049177               0.999999985               0.000048932               0.001069905               0.999999985               0.000052222               0.001095983               0.999999985               0.000055506               0.001126097               0.999999985               0.000058079               0.001159132               0.999999985               0.000059525               0.001194262               0.999999985               0.000059380               0.001230444               0.999999985               0.000056748               0.001266720               0.999999985               0.000050912               0.001302344               0.999999985               0.000041241               0.001336734               0.999999985               0.000027375               0.001369703               0.999999985               0.000008708               0.001401002               0.999999985              -0.000015790               0.001430818               0.999999985               0.000083223               0.001071187               0.999999985               0.000048418               0.001075181               0.999999985               0.000033373               0.001077901               0.999999985               0.000027633               0.001086416               0.999999985               0.000026551               0.001101674               0.999999985               0.000027597               0.001122952               0.999999985               0.000029517               0.001149266               0.999999985               0.000031468               0.001179649               0.999999985               0.000033147               0.001213211               0.999999985               0.000034189               0.001249289               0.999999985               0.000034108               0.001286957               0.999999985               0.000032340               0.001325301               0.999999985               0.000028132               0.001363686               0.999999985               0.000020957               0.001401369               0.999999985               0.000010265               0.001437922               0.999999985              -0.000004792               0.001472889               0.999999985              -0.000025815               0.001506065               0.999999985               0.000041821               0.001087822               0.999999985               0.000023940               0.001100581               0.999999985               0.000015895               0.001108143               0.999999985               0.000012629               0.001119203               0.999999985               0.000011834               0.001135776               0.999999985               0.000012139               0.001157796               0.999999985               0.000012936               0.001184592               0.999999985               0.000013771               0.001215341               0.999999985               0.000014658               0.001249400               0.999999985               0.000015184               0.001286298               0.999999985               0.000015147               0.001325094               0.999999985               0.000014197               0.001364949               0.999999985               0.000011961               0.001405259               0.999999985               0.000008120               0.001445346               0.999999985               0.000002354               0.001484733               0.999999985              -0.000006145               0.001522745               0.999999985              -0.000018380               0.001558824               0.999999985              -0.000000000               0.001093393               0.999999985              -0.000000000               0.001109157               0.999999985              -0.000000000               0.001118450               0.999999985              -0.000000000               0.001130470               0.999999985              -0.000000000               0.001147550               0.999999985               0.000000000               0.001169926               0.999999985               0.000000000               0.001196979               0.999999985              -0.000000000               0.001227868               0.999999985               0.000000000               0.001262121               0.999999985               0.000000000               0.001299339               0.999999985               0.000000000               0.001338620               0.999999985              -0.000000000               0.001379048               0.999999985              -0.000000000               0.001420006               0.999999985               0.000000000               0.001460933               0.999999985               0.000000000               0.001501352               0.999999985              -0.000000000               0.001540560               0.999999985              -0.000000000               0.001577807               0.999999985 </DataArray>
<DataArray type="Float64"                                    Name="stress"                                                      NumberOfComponents="10" format="ascii">
              0.001771598               0.019698027               0.000000000              -0.001797900               0.007165243               0.005367343               0.000000000               0.000000000               0.000000000               0.000000000               0.001783378               0.015608556              -0.000000000              -0.001282300               0.005630233               0.004347934               0.000000000               0.000000000               0.000000000               0.000000000               0.002359066               0.012316003              -0.000000000              -0.000654849               0.004323576               0.003668727               0.000000000               0.000000000               0.000000000               0.000000000               0.002288602               0.010488208              -0.000000000              -0.000452799               0.003646967               0.003194168               0.000000000               0.000000000               0.000000000               0.000000000               0.002026505               0.009358198              -0.000000000              -0.000409834               0.003255979               0.002846145               0.000000000               0.000000000               0.000000000               0.000000000               0.001727406               0.008598140              -0.000000000              -0.000426989               0.003008348               0.002581359               0.000000000               0.000000000               0.000000000               0.000000000               0.001441102               0.008046877               0.000000000              -0.000465445               0.002837414               0.002371969               0.000000000               0.000000000               0.000000000               0.000000000               0.001182307               0.007617736               0.000000000              -0.000508851               0.002708837               0.002199986               0.000000000               0.000000000               0.000000000               0.000000000               0.000958425               0.007260845               0.000000000              -0.000548195               0.002602989               0.002054794               0.000000000               0.000000000               0.000000000               0.000000000               0.000757788               0.006943217               0.000000000              -0.000583730               0.002508959               0.001925229               0.000000000               0.000000000               0.000000000               0.000000000               0.000579518               0.006650848               0.000000000              -0.000614035               0.002421605               0.001807570               0.000000000               0.000000000               0.000000000               0.000000000               0.000427140               0.006370952              -0.000000000              -0.000636190               0.002335693               0.001699503               0.000000000               0.000000000               0.000000000               0.000000000               0.000290375               0.006079255               0.000000000              -0.000651015               0.002243403               0.001592388               0.000000000               0.000000000               0.000000000               0.000000000               0.000173544               0.005764314               0.000000000              -0.000655459               0.002139905               0.001484446               0.000000000               0.000000000               0.000000000               0.000000000               0.000085046               0.005414768              -0.000000000              -0.000644952               0.002019889               0.001374937               0.000000000               0.000000000               0.000000000               0.000000000               0.000031280               0.005014859              -0.000000000              -0.000615126               0.001876645               0.001261519               0.000000000               0.000000000               0.000000000               0.000000000              -0.000017976               0.004708230              -0.000000000              -0.000595268               0.001767817               0.001172549               0.000000000               0.000000000               0.000000000               0.000000000               0.001842036               0.019302112              -0.001362896              -0.001721997               0.007007972               0.005285975               0.000000000               0.000000000               0.000000000               0.000000000               0.001760395               0.015348074              -0.000715819              -0.001258358               0.005535426               0.004277068               0.000000000               0.000000000               0.000000000               0.000000000               0.002235487               0.012198237              -0.000068850              -0.000686470               0.004294862               0.003608391               0.000000000               0.000000000               0.000000000               0.000000000               0.002122964               0.010443010               0.000203227              -0.000509263               0.003650723               0.003141459               0.000000000               0.000000000               0.000000000               0.000000000               0.001850543               0.009353181               0.000312742              -0.000475193               0.003276093               0.002800901               0.000000000               0.000000000               0.000000000               0.000000000               0.001556183               0.008615075               0.000351766              -0.000493315               0.003036101               0.002542787               0.000000000               0.000000000               0.000000000               0.000000000               0.001283669               0.008075157               0.000358037              -0.000528017               0.002867698               0.002339680               0.000000000               0.000000000               0.000000000               0.000000000               0.001044616               0.007651052               0.000349315              -0.000564649               0.002738542               0.002173892               0.000000000               0.000000000               0.000000000               0.000000000               0.000836944               0.007293568               0.000333914              -0.000597841               0.002630445               0.002032605               0.000000000               0.000000000               0.000000000               0.000000000               0.000651283               0.006976701               0.000318114              -0.000627855               0.002534829               0.001906974               0.000000000               0.000000000               0.000000000               0.000000000               0.000490535               0.006688388               0.000303018              -0.000652096               0.002446806               0.001794709               0.000000000               0.000000000               0.000000000               0.000000000               0.000355313               0.006411703               0.000281145              -0.000668219               0.002359953               0.001691734               0.000000000               0.000000000               0.000000000               0.000000000               0.000237178               0.006126643               0.000251149              -0.000676887               0.002267823               0.001590936               0.000000000               0.000000000               0.000000000               0.000000000               0.000137857               0.005823048               0.000214826              -0.000676183               0.002166391               0.001490208               0.000000000               0.000000000               0.000000000               0.000000000               0.000062514               0.005496295               0.000165297              -0.000663593               0.002053277               0.001389685               0.000000000               0.000000000               0.000000000               0.000000000               0.000019217               0.005137322               0.000093997              -0.000634957               0.001924076               0.001289119               0.000000000               0.000000000               0.000000000               0.000000000              -0.000020634               0.004869911               0.000057248              -0.000616475               0.001828779               0.001212304               0.000000000               0.000000000               0.000000000               0.000000000               0.002017385               0.018166129              -0.002543107              -0.001514244               0.006560064               0.005045819               0.000000000               0.000000000               0.000000000               0.000000000               0.001677406               0.014609992              -0.001341405              -0.001197219               0.005269021               0.004071802               0.000000000               0.000000000               0.000000000               0.000000000               0.001878567               0.011868294              -0.000151080              -0.000779072               0.004215749               0.003436677               0.000000000               0.000000000               0.000000000               0.000000000               0.001665353               0.010314584               0.000336133              -0.000664814               0.003659765               0.002994951               0.000000000               0.000000000               0.000000000               0.000000000               0.001374049               0.009330806               0.000528940              -0.000651081               0.003327265               0.002676184               0.000000000               0.000000000               0.000000000               0.000000000               0.001100896               0.008649273               0.000594891              -0.000668321               0.003105836               0.002437515               0.000000000               0.000000000               0.000000000               0.000000000               0.000867449               0.008136542               0.000602767              -0.000691773               0.002942744               0.002250972               0.000000000               0.000000000               0.000000000               0.000000000               0.000673775               0.007721818               0.000584005              -0.000712560               0.002811434               0.002098874               0.000000000               0.000000000               0.000000000               0.000000000               0.000514546               0.007370069               0.000555087              -0.000728302               0.002699432               0.001971130               0.000000000               0.000000000               0.000000000               0.000000000               0.000380126               0.007059131               0.000528461              -0.000739843               0.002599634               0.001859792               0.000000000               0.000000000               0.000000000               0.000000000               0.000269023               0.006773910               0.000501586              -0.000745854               0.002506565               0.001760712               0.000000000               0.000000000               0.000000000               0.000000000               0.000182180               0.006500869               0.000463495              -0.000744289               0.002415031               0.001670742               0.000000000               0.000000000               0.000000000               0.000000000               0.000112496               0.006231626               0.000411772              -0.000736765               0.002322776               0.001586011               0.000000000               0.000000000               0.000000000               0.000000000               0.000060542               0.005964370               0.000350111              -0.000722841               0.002229050               0.001506209               0.000000000               0.000000000               0.000000000               0.000000000               0.000027348               0.005701965               0.000269477              -0.000702488               0.002134799               0.001432310               0.000000000               0.000000000               0.000000000               0.000000000               0.000008311               0.005444204               0.000154128              -0.000677407               0.002040519               0.001363112               0.000000000               0.000000000               0.000000000               0.000000000              -0.000014179               0.005271505               0.000092438              -0.000664254               0.001978569               0.001314315               0.000000000               0.000000000               0.000000000               0.000000000               0.002216316               0.016443409              -0.003406165              -0.001224307               0.005889183               0.004664877               0.000000000               0.000000000               0.000000000               0.000000000               0.001515260               0.013506508              -0.001815296              -0.001120089               0.004875487               0.003755398               0.000000000               0.000000000               0.000000000               0.000000000               0.001333976               0.011376184              -0.000257971              -0.000921780               0.004099283               0.003177504               0.000000000               0.000000000               0.000000000               0.000000000               0.001010774               0.010112571               0.000352224              -0.000885029               0.003665833               0.002780804               0.000000000               0.000000000               0.000000000               0.000000000               0.000719868               0.009272336               0.000586288              -0.000889089               0.003387111               0.002498022               0.000000000               0.000000000               0.000000000               0.000000000               0.000489618               0.008661173               0.000663232              -0.000899038               0.003186708               0.002287670               0.000000000               0.000000000               0.000000000               0.000000000               0.000317114               0.008182188               0.000669623              -0.000903854               0.003028653               0.002124800               0.000000000               0.000000000               0.000000000               0.000000000               0.000193245               0.007783321               0.000646284              -0.000900446               0.002894563               0.001994117               0.000000000               0.000000000               0.000000000               0.000000000               0.000106278               0.007440723               0.000613670              -0.000890234               0.002776961               0.001886727               0.000000000               0.000000000               0.000000000               0.000000000               0.000044417               0.007134808               0.000581789              -0.000875193               0.002669976               0.001794784               0.000000000               0.000000000               0.000000000               0.000000000               0.000004809               0.006851948               0.000547673              -0.000854688               0.002568856               0.001714168               0.000000000               0.000000000               0.000000000               0.000000000              -0.000013651               0.006586594               0.000500935              -0.000828441               0.002471657               0.001643215               0.000000000               0.000000000               0.000000000               0.000000000              -0.000021360               0.006340658               0.000440080              -0.000800590               0.002380395               0.001579805               0.000000000               0.000000000               0.000000000               0.000000000              -0.000020933               0.006119216               0.000367770              -0.000772750               0.002297302               0.001524552               0.000000000               0.000000000               0.000000000               0.000000000              -0.000015365               0.005927032               0.000277005              -0.000746639               0.002224537               0.001477898               0.000000000               0.000000000               0.000000000               0.000000000              -0.000008781               0.005777686               0.000155348              -0.000725502               0.002167710               0.001442208               0.000000000               0.000000000               0.000000000               0.000000000              -0.000008883               0.005704132               0.000088077              -0.000716346               0.002140140               0.001423794               0.000000000               0.000000000               0.000000000               0.000000000               0.002330712               0.014347857              -0.003879399              -0.000919466               0.005089059               0.004169593               0.000000000               0.000000000               0.000000000               0.000000000               0.001254721               0.012182333              -0.002112347              -0.001052270               0.004411493               0.003359223               0.000000000               0.000000000               0.000000000               0.000000000               0.000672728               0.010778950              -0.000402194              -0.001095093               0.003957978               0.002862885               0.000000000               0.000000000               0.000000000               0.000000000               0.000272821               0.009839066               0.000236944              -0.001127573               0.003655513               0.002527941               0.000000000               0.000000000               0.000000000               0.000000000               0.000022147               0.009148725               0.000476766              -0.001135283               0.003427972               0.002292689               0.000000000               0.000000000               0.000000000               0.000000000              -0.000128634               0.008608958               0.000557114              -0.001124355               0.003244409               0.002120054               0.000000000               0.000000000               0.000000000               0.000000000              -0.000218185               0.008164095               0.000567257              -0.001102329               0.003088781               0.001986452               0.000000000               0.000000000               0.000000000               0.000000000              -0.000261263               0.007784220               0.000546846              -0.001070999               0.002951714               0.001880715               0.000000000               0.000000000               0.000000000               0.000000000              -0.000267244               0.007449282               0.000518284              -0.001031374               0.002826861               0.001795486               0.000000000               0.000000000               0.000000000               0.000000000              -0.000247136               0.007148028               0.000488033              -0.000986177               0.002711378               0.001725201               0.000000000               0.000000000               0.000000000               0.000000000              -0.000212564               0.006870442               0.000451951              -0.000938514               0.002602962               0.001664448               0.000000000               0.000000000               0.000000000               0.000000000              -0.000168634               0.006616934               0.000404304              -0.000890352               0.002502407               0.001612054               0.000000000               0.000000000               0.000000000               0.000000000              -0.000123368               0.006395014               0.000346260              -0.000845638               0.002413529               0.001567892               0.000000000               0.000000000               0.000000000               0.000000000              -0.000081289               0.006214560               0.000277155              -0.000807301               0.002340600               0.001533298               0.000000000               0.000000000               0.000000000               0.000000000              -0.000045576               0.006081045               0.000196874              -0.000777220               0.002286068               0.001508848               0.000000000               0.000000000               0.000000000               0.000000000              -0.000021126               0.006001096               0.000103671              -0.000758057               0.002253031               0.001494974               0.000000000               0.000000000               0.000000000               0.000000000              -0.000009124               0.005979874               0.000052616              -0.000750904               0.002243573               0.001492669               0.000000000               0.000000000               0.000000000               0.000000000               0.002266937               0.012090082              -0.003970994              -0.000661161               0.004250373               0.003589212               0.000000000               0.000000000               0.000000000               0.000000000               0.000890684               0.010776181              -0.002250068              -0.001013015               0.003929696               0.002916680               0.000000000               0.000000000               0.000000000               0.000000000              -0.000021766               0.010131754              -0.000593821              -0.001274628               0.003802094               0.002527465               0.000000000               0.000000000               0.000000000               0.000000000              -0.000431480               0.009499459               0.000004958              -0.001349234               0.003616199               0.002266965               0.000000000               0.000000000               0.000000000               0.000000000              -0.000601140               0.008943843               0.000233798              -0.001343404               0.003429052               0.002085648               0.000000000               0.000000000               0.000000000               0.000000000              -0.000650413               0.008466542               0.000319680              -0.001302220               0.003256226               0.001954006               0.000000000               0.000000000               0.000000000               0.000000000              -0.000641487               0.008051465               0.000342455              -0.001246988               0.003099457               0.001852470               0.000000000               0.000000000               0.000000000               0.000000000              -0.000595635               0.007689451               0.000333612              -0.001184542               0.002957972               0.001773430               0.000000000               0.000000000               0.000000000               0.000000000              -0.000524922               0.007363050               0.000314025              -0.001117224               0.002826734               0.001709509               0.000000000               0.000000000               0.000000000               0.000000000              -0.000439146               0.007066771               0.000291569              -0.001048024               0.002704908               0.001656884               0.000000000               0.000000000               0.000000000               0.000000000              -0.000341935               0.006799469               0.000262588              -0.000978157               0.002592519               0.001614362               0.000000000               0.000000000               0.000000000               0.000000000              -0.000246653               0.006565342               0.000225166              -0.000913160               0.002492812               0.001579652               0.000000000               0.000000000               0.000000000               0.000000000              -0.000166930               0.006372760               0.000182954              -0.000859191               0.002410629               0.001551438               0.000000000               0.000000000               0.000000000               0.000000000              -0.000105457               0.006227505               0.000136733              -0.000817982               0.002348475               0.001530493               0.000000000               0.000000000               0.000000000               0.000000000              -0.000061278               0.006123683               0.000085750              -0.000788438               0.002304020               0.001515582               0.000000000               0.000000000               0.000000000               0.000000000              -0.000027917               0.006056203               0.000038203              -0.000767492               0.002274545               0.001507053               0.000000000               0.000000000               0.000000000               0.000000000              -0.000016491               0.006025468               0.000019831              -0.000759366               0.002261591               0.001502225               0.000000000               0.000000000               0.000000000               0.000000000               0.001973218               0.009860038              -0.003740207              -0.000492551               0.003450829               0.002958278               0.000000000               0.000000000               0.000000000               0.000000000               0.000443684               0.009403051              -0.002263522              -0.001008999               0.003470651               0.002461652               0.000000000               0.000000000               0.000000000               0.000000000              -0.000670379               0.009463277              -0.000831005              -0.001434298               0.003632494               0.002198195               0.000000000               0.000000000               0.000000000               0.000000000              -0.001013817               0.009092426              -0.000310247              -0.001516731               0.003536355               0.002019624               0.000000000               0.000000000               0.000000000               0.000000000              -0.001068769               0.008653587              -0.000091052              -0.001482483               0.003378661               0.001896178               0.000000000               0.000000000               0.000000000               0.000000000              -0.001011375               0.008233643               0.000009230              -0.001408467               0.003214010               0.001805542               0.000000000               0.000000000               0.000000000               0.000000000              -0.000909558               0.007847984               0.000055253              -0.001322079               0.003056661               0.001734583               0.000000000               0.000000000               0.000000000               0.000000000              -0.000786472               0.007500139               0.000069562              -0.001232441               0.002910835               0.001678394               0.000000000               0.000000000               0.000000000               0.000000000              -0.000648892               0.007186802               0.000068697              -0.001141682               0.002776138               0.001634455               0.000000000               0.000000000               0.000000000               0.000000000              -0.000508678               0.006906912               0.000065586              -0.001054115               0.002653653               0.001599537               0.000000000               0.000000000               0.000000000               0.000000000              -0.000374585               0.006661681               0.000057352              -0.000973177               0.002544931               0.001571753               0.000000000               0.000000000               0.000000000               0.000000000              -0.000259709               0.006457111               0.000044667              -0.000904528               0.002453858               0.001549330               0.000000000               0.000000000               0.000000000               0.000000000              -0.000172992               0.006291909               0.000034624              -0.000851358               0.002381068               0.001529710               0.000000000               0.000000000               0.000000000               0.000000000              -0.000112398               0.006155698               0.000024770              -0.000811610               0.002322415               0.001510806               0.000000000               0.000000000               0.000000000               0.000000000              -0.000070010               0.006039640               0.000013539              -0.000781207               0.002273596               0.001492389               0.000000000               0.000000000               0.000000000               0.000000000              -0.000034873               0.005938973               0.000006695              -0.000755447               0.002231454               0.001476006               0.000000000               0.000000000               0.000000000               0.000000000              -0.000033431               0.005869437               0.000013486              -0.000746214               0.002205197               0.001458983               0.000000000               0.000000000               0.000000000               0.000000000               0.001460307               0.007793004              -0.003263929              -0.000426513               0.002739812               0.002313299               0.000000000               0.000000000               0.000000000               0.000000000              -0.000063197               0.008138953              -0.002193307              -0.001041067               0.003059979               0.002018912               0.000000000               0.000000000               0.000000000               0.000000000              -0.001212180               0.008778738              -0.001107903              -0.001551906               0.003443519               0.001891612               0.000000000               0.000000000               0.000000000               0.000000000              -0.001421692               0.008617782              -0.000664292              -0.001610353               0.003409350               0.001798996               0.000000000               0.000000000               0.000000000               0.000000000              -0.001347784               0.008283454              -0.000438895              -0.001540847               0.003274739               0.001733892               0.000000000               0.000000000               0.000000000               0.000000000              -0.001193671               0.007921131              -0.000311486              -0.001437764               0.003119605               0.001681841               0.000000000               0.000000000               0.000000000               0.000000000              -0.001016267               0.007572898              -0.000235236              -0.001327709               0.002966844               0.001639135               0.000000000               0.000000000               0.000000000               0.000000000              -0.000831072               0.007249003              -0.000188411              -0.001217775               0.002822235               0.001604461               0.000000000               0.000000000               0.000000000               0.000000000              -0.000646672               0.006958259              -0.000156413              -0.001112282               0.002690157               0.001577875               0.000000000               0.000000000               0.000000000               0.000000000              -0.000474550               0.006703662              -0.000127873              -0.001015911               0.002573169               0.001557257               0.000000000               0.000000000               0.000000000               0.000000000              -0.000331271               0.006485110              -0.000103525              -0.000934863               0.002473303               0.001538440               0.000000000               0.000000000               0.000000000               0.000000000              -0.000222270               0.006292547              -0.000080417              -0.000869917               0.002387467               0.001517550               0.000000000               0.000000000               0.000000000               0.000000000              -0.000151567               0.006112322              -0.000053989              -0.000820876               0.002311046               0.001490170               0.000000000               0.000000000               0.000000000               0.000000000              -0.000113350               0.005940285              -0.000028956              -0.000785040               0.002241755               0.001456715               0.000000000               0.000000000               0.000000000               0.000000000              -0.000086336               0.005782616              -0.000010107              -0.000755201               0.002179253               0.001424052               0.000000000               0.000000000               0.000000000               0.000000000              -0.000052801               0.005643085               0.000002090              -0.000725184               0.002122738               0.001397553               0.000000000               0.000000000               0.000000000               0.000000000              -0.000046817               0.005552219               0.000015570              -0.000711582               0.002087915               0.001376333               0.000000000               0.000000000               0.000000000               0.000000000               0.000820861               0.006030929              -0.002642732              -0.000446045               0.002158970               0.001712925               0.000000000               0.000000000               0.000000000               0.000000000              -0.000544052               0.007007925              -0.002090742              -0.001080009               0.002695954               0.001615945               0.000000000               0.000000000               0.000000000               0.000000000              -0.001603288               0.008110454              -0.001428816              -0.001615036               0.003241803               0.001626767               0.000000000               0.000000000               0.000000000               0.000000000              -0.001669622               0.008160690              -0.001036886              -0.001646190               0.003268933               0.001622742               0.000000000               0.000000000               0.000000000               0.000000000              -0.001493815               0.007943471              -0.000789042              -0.001553111               0.003165501               0.001612390               0.000000000               0.000000000               0.000000000               0.000000000              -0.001268006               0.007653271              -0.000623832              -0.001432158               0.003028451               0.001596293               0.000000000               0.000000000               0.000000000               0.000000000              -0.001034873               0.007356350              -0.000512469              -0.001307618               0.002887965               0.001580347               0.000000000               0.000000000               0.000000000               0.000000000              -0.000802031               0.007070015              -0.000429220              -0.001184510               0.002751485               0.001566974               0.000000000               0.000000000               0.000000000               0.000000000              -0.000583560               0.006805684              -0.000358830              -0.001069543               0.002625053               0.001555510               0.000000000               0.000000000               0.000000000               0.000000000              -0.000392688               0.006574815              -0.000293492              -0.000969108               0.002514619               0.001545511               0.000000000               0.000000000               0.000000000               0.000000000              -0.000250808               0.006357920              -0.000234040              -0.000888791               0.002415549               0.001526758               0.000000000               0.000000000               0.000000000               0.000000000              -0.000164658               0.006137591              -0.000180729              -0.000828944               0.002322158               0.001493214               0.000000000               0.000000000               0.000000000               0.000000000              -0.000124379               0.005919376              -0.000127340              -0.000786562               0.002235293               0.001448731               0.000000000               0.000000000               0.000000000               0.000000000              -0.000121357               0.005706197              -0.000075921              -0.000758782               0.002154974               0.001396192               0.000000000               0.000000000               0.000000000               0.000000000              -0.000128742               0.005510809              -0.000034473              -0.000737127               0.002082627               0.001345500               0.000000000               0.000000000               0.000000000               0.000000000              -0.000133384               0.005334191              -0.000007172              -0.000716791               0.002016976               0.001300185               0.000000000               0.000000000               0.000000000               0.000000000              -0.000134661               0.005235756               0.000005502              -0.000704966               0.001980223               0.001275257               0.000000000               0.000000000               0.000000000               0.000000000               0.000039250               0.004379734              -0.001971681              -0.000532749               0.001637479               0.001104730               0.000000000               0.000000000               0.000000000               0.000000000              -0.000926747               0.005703612              -0.001970773              -0.001060480               0.002254678               0.001194198               0.000000000               0.000000000               0.000000000               0.000000000              -0.001789950               0.007137397              -0.001777027              -0.001563403               0.002900242               0.001336840               0.000000000               0.000000000               0.000000000               0.000000000              -0.001785580               0.007481643              -0.001448222              -0.001604794               0.003028787               0.001423993               0.000000000               0.000000000               0.000000000               0.000000000              -0.001571149               0.007465226              -0.001175077              -0.001522331               0.002995827               0.001473496               0.000000000               0.000000000               0.000000000               0.000000000              -0.001318587               0.007322521              -0.000969051              -0.001409782               0.002910743               0.001500961               0.000000000               0.000000000               0.000000000               0.000000000              -0.001069502               0.007137373              -0.000817953              -0.001293232               0.002810178               0.001516946               0.000000000               0.000000000               0.000000000               0.000000000              -0.000830108               0.006930869              -0.000696433              -0.001177646               0.002702815               0.001525169               0.000000000               0.000000000               0.000000000               0.000000000              -0.000604217               0.006723109              -0.000589758              -0.001066968               0.002596670               0.001529702               0.000000000               0.000000000               0.000000000               0.000000000              -0.000406773               0.006523205              -0.000490930              -0.000967938               0.002497026               0.001529088               0.000000000               0.000000000               0.000000000               0.000000000              -0.000259959               0.006305881              -0.000396799              -0.000885718               0.002397178               0.001511461               0.000000000               0.000000000               0.000000000               0.000000000              -0.000169185               0.006075687              -0.000307490              -0.000822903               0.002299510               0.001476606               0.000000000               0.000000000               0.000000000               0.000000000              -0.000130445               0.005839397              -0.000220328              -0.000778840               0.002206060               0.001427220               0.000000000               0.000000000               0.000000000               0.000000000              -0.000141493               0.005605544              -0.000139877              -0.000753751               0.002119746               0.001365995               0.000000000               0.000000000               0.000000000               0.000000000              -0.000182785               0.005392479              -0.000073107              -0.000742602               0.002045009               0.001302407               0.000000000               0.000000000               0.000000000               0.000000000              -0.000236744               0.005191932              -0.000023533              -0.000737769               0.001976550               0.001238781               0.000000000               0.000000000               0.000000000               0.000000000              -0.000266900               0.005088252              -0.000002609              -0.000736117               0.001941439               0.001205322               0.000000000               0.000000000               0.000000000               0.000000000              -0.001001834               0.002873530              -0.001289276              -0.000734878               0.001202793               0.000467915               0.000000000               0.000000000               0.000000000               0.000000000              -0.001362874               0.004396614              -0.001785830              -0.001060653               0.001819074               0.000758421               0.000000000               0.000000000               0.000000000               0.000000000              -0.001891132               0.006020032              -0.002048685              -0.001461676               0.002493882               0.001032206               0.000000000               0.000000000               0.000000000               0.000000000              -0.001825575               0.006645880              -0.001838773              -0.001515323               0.002720378               0.001205056               0.000000000               0.000000000               0.000000000               0.000000000              -0.001598140               0.006861035              -0.001570077              -0.001456929               0.002772631               0.001315703               0.000000000               0.000000000               0.000000000               0.000000000              -0.001337931               0.006898324              -0.001336505              -0.001364012               0.002754089               0.001390077               0.000000000               0.000000000               0.000000000               0.000000000              -0.001089733               0.006851047              -0.001149374              -0.001265028               0.002705335               0.001440308               0.000000000               0.000000000               0.000000000               0.000000000              -0.000855192               0.006749840              -0.000995574              -0.001164424               0.002638066               0.001473641               0.000000000               0.000000000               0.000000000               0.000000000              -0.000630577               0.006623703              -0.000860362              -0.001064427               0.002562688               0.001498261               0.000000000               0.000000000               0.000000000               0.000000000              -0.000426251               0.006478938              -0.000734999              -0.000969709               0.002482861               0.001513152               0.000000000               0.000000000               0.000000000               0.000000000              -0.000260964               0.006291698              -0.000617286              -0.000884322               0.002391985               0.001507664               0.000000000               0.000000000               0.000000000               0.000000000              -0.000146731               0.006076540              -0.000502175              -0.000814590               0.002297023               0.001482433               0.000000000               0.000000000               0.000000000               0.000000000              -0.000085360               0.005849875              -0.000383233              -0.000763242               0.002204353               0.001441110               0.000000000               0.000000000               0.000000000               0.000000000              -0.000078648               0.005616453              -0.000265088              -0.000731548               0.002115982               0.001384434               0.000000000               0.000000000               0.000000000               0.000000000              -0.000126816               0.005393098              -0.000159699              -0.000721692               0.002038245               0.001316554               0.000000000               0.000000000               0.000000000               0.000000000              -0.000217837               0.005187495              -0.000070303              -0.000730124               0.001972522               0.001242398               0.000000000               0.000000000               0.000000000               0.000000000              -0.000288570               0.005078861              -0.000023002              -0.000743069               0.001940626               0.001197557               0.000000000               0.000000000               0.000000000               0.000000000              -0.002231757               0.001616933              -0.000643407              -0.001039024               0.000885312              -0.000153711               0.000000000               0.000000000               0.000000000               0.000000000              -0.001901838               0.003161781              -0.001511299              -0.001108410               0.001423386               0.000314976               0.000000000               0.000000000               0.000000000               0.000000000              -0.001949738               0.004776147              -0.002144277              -0.001328168               0.002034755               0.000706587               0.000000000               0.000000000               0.000000000               0.000000000              -0.001763844               0.005604565              -0.002088272              -0.001362010               0.002322172               0.000960162               0.000000000               0.000000000               0.000000000               0.000000000              -0.001513908               0.006036115              -0.001868483              -0.001322227               0.002452760               0.001130533               0.000000000               0.000000000               0.000000000               0.000000000              -0.001254459               0.006260828              -0.001637026              -0.001253023               0.002504596               0.001251573               0.000000000               0.000000000               0.000000000               0.000000000              -0.001011110               0.006367092              -0.001434794              -0.001175050               0.002514026               0.001338975               0.000000000               0.000000000               0.000000000               0.000000000              -0.000785802               0.006396793              -0.001261494              -0.001094273               0.002497000               0.001402728               0.000000000               0.000000000               0.000000000               0.000000000              -0.000571837               0.006379520              -0.001106819              -0.001011877               0.002463777               0.001451901               0.000000000               0.000000000               0.000000000               0.000000000              -0.000371211               0.006316969              -0.000969357              -0.000928823               0.002415243               0.001486420               0.000000000               0.000000000               0.000000000               0.000000000              -0.000194144               0.006188333              -0.000840771              -0.000846344               0.002344871               0.001498528               0.000000000               0.000000000               0.000000000               0.000000000              -0.000056075               0.006015344              -0.000707348              -0.000772944               0.002262743               0.001489798               0.000000000               0.000000000               0.000000000               0.000000000               0.000030157               0.005817594              -0.000566643              -0.000715889               0.002177808               0.001461919               0.000000000               0.000000000               0.000000000               0.000000000               0.000067192               0.005605576              -0.000421487              -0.000675498               0.002093673               0.001418174               0.000000000               0.000000000               0.000000000               0.000000000               0.000049769               0.005392106              -0.000276673              -0.000655348               0.002015800               0.001360452               0.000000000               0.000000000               0.000000000               0.000000000              -0.000034413               0.005188949              -0.000134517              -0.000661522               0.001950140               0.001288618               0.000000000               0.000000000               0.000000000               0.000000000              -0.000118082               0.005078753              -0.000056004              -0.000679123               0.001919275               0.001240152               0.000000000               0.000000000               0.000000000               0.000000000              -0.003559179               0.000677124              -0.000114314              -0.001419331               0.000698814              -0.000720517               0.000000000               0.000000000               0.000000000               0.000000000              -0.002512458               0.002065805              -0.001177267              -0.001200395               0.001088725              -0.000111670               0.000000000               0.000000000               0.000000000               0.000000000              -0.001992389               0.003507722              -0.002040004              -0.001185609               0.001564431               0.000378822               0.000000000               0.000000000               0.000000000               0.000000000              -0.001625027               0.004442288              -0.002127905              -0.001164670               0.001868970               0.000704301               0.000000000               0.000000000               0.000000000               0.000000000              -0.001324148               0.005043773              -0.001985788              -0.001127025               0.002056915               0.000929890               0.000000000               0.000000000               0.000000000               0.000000000              -0.001059751               0.005437854              -0.001788712              -0.001077137               0.002171645               0.001094508               0.000000000               0.000000000               0.000000000               0.000000000              -0.000825027               0.005699232              -0.001596981              -0.001021788               0.002240321               0.001218533               0.000000000               0.000000000               0.000000000               0.000000000              -0.000613787               0.005867717              -0.001423318              -0.000963633               0.002277097               0.001313464               0.000000000               0.000000000               0.000000000               0.000000000              -0.000412298               0.005973277              -0.001266325              -0.000901270               0.002291495               0.001390226               0.000000000               0.000000000               0.000000000               0.000000000              -0.000217134               0.006014674              -0.001130491              -0.000833258               0.002282624               0.001449366               0.000000000               0.000000000               0.000000000               0.000000000              -0.000041922               0.005970348              -0.001001893              -0.000762013               0.002244100               0.001482088               0.000000000               0.000000000               0.000000000               0.000000000               0.000110718               0.005866106              -0.000862338              -0.000691743               0.002185930               0.001494187               0.000000000               0.000000000               0.000000000               0.000000000               0.000231828               0.005723484              -0.000714265              -0.000628499               0.002117308               0.001488810               0.000000000               0.000000000               0.000000000               0.000000000               0.000312769               0.005553943              -0.000560086              -0.000576953               0.002043614               0.001466660               0.000000000               0.000000000               0.000000000               0.000000000               0.000347821               0.005368802              -0.000391541              -0.000540666               0.001969805               0.001429139               0.000000000               0.000000000               0.000000000               0.000000000               0.000323567               0.005183046              -0.000203290              -0.000526542               0.001903179               0.001376637               0.000000000               0.000000000               0.000000000               0.000000000               0.000276072               0.005083604              -0.000098805              -0.000531922               0.001871825               0.001339903               0.000000000               0.000000000               0.000000000               0.000000000              -0.004849895               0.000052987               0.000218978              -0.001825332               0.000626102              -0.001199230               0.000000000               0.000000000               0.000000000               0.000000000              -0.003137614               0.001175036              -0.000829806              -0.001323483               0.000832834              -0.000490649               0.000000000               0.000000000               0.000000000               0.000000000              -0.002033231               0.002337688              -0.001734577              -0.001054671               0.001130777               0.000076106               0.000000000               0.000000000               0.000000000               0.000000000              -0.001443623               0.003285259              -0.001915941              -0.000952015               0.001412413               0.000460398               0.000000000               0.000000000               0.000000000               0.000000000              -0.001064611               0.003995060              -0.001852006              -0.000898610               0.001631209               0.000732599               0.000000000               0.000000000               0.000000000               0.000000000              -0.000784252               0.004523865              -0.001708938              -0.000859577               0.001794465               0.000934888               0.000000000               0.000000000               0.000000000               0.000000000              -0.000555265               0.004922956              -0.001551114              -0.000823593               0.001915499               0.001091907               0.000000000               0.000000000               0.000000000               0.000000000              -0.000357983               0.005219501              -0.001401092              -0.000786680               0.002002043               0.001215363               0.000000000               0.000000000               0.000000000               0.000000000              -0.000168994               0.005443234              -0.001265941              -0.000743776               0.002062318               0.001318542               0.000000000               0.000000000               0.000000000               0.000000000               0.000015134               0.005592653              -0.001146244              -0.000693405               0.002095334               0.001401929               0.000000000               0.000000000               0.000000000               0.000000000               0.000182633               0.005650668              -0.001028027              -0.000637845               0.002096152               0.001458307               0.000000000               0.000000000               0.000000000               0.000000000               0.000342178               0.005636415              -0.000900636              -0.000576234               0.002070864               0.001494630               0.000000000               0.000000000               0.000000000               0.000000000               0.000493914               0.005565294              -0.000763786              -0.000510443               0.002025227               0.001514784               0.000000000               0.000000000               0.000000000               0.000000000               0.000631403               0.005455345              -0.000617044              -0.000445141               0.001966811               0.001521669               0.000000000               0.000000000               0.000000000               0.000000000               0.000746937               0.005316701              -0.000451436              -0.000384485               0.001900378               0.001515892               0.000000000               0.000000000               0.000000000               0.000000000               0.000831152               0.005162294              -0.000247358              -0.000333604               0.001831949               0.001498345               0.000000000               0.000000000               0.000000000               0.000000000               0.000872561               0.005087610              -0.000133936              -0.000308740               0.001798766               0.001490026               0.000000000               0.000000000               0.000000000               0.000000000              -0.005943429              -0.000310283               0.000319878              -0.002189999               0.000626568              -0.001563431               0.000000000               0.000000000               0.000000000               0.000000000              -0.003689814               0.000526580              -0.000512885              -0.001449501               0.000658689              -0.000790812               0.000000000               0.000000000               0.000000000               0.000000000              -0.002074886               0.001388197              -0.001258157              -0.000951605               0.000779928              -0.000171677               0.000000000               0.000000000               0.000000000               0.000000000              -0.001264443               0.002288890              -0.001451321              -0.000760276               0.001016380               0.000256104               0.000000000               0.000000000               0.000000000               0.000000000              -0.000798196               0.003055192              -0.001439155              -0.000681222               0.001245460               0.000564239               0.000000000               0.000000000               0.000000000               0.000000000              -0.000492949               0.003676370              -0.001352683              -0.000644401               0.001440244               0.000795843               0.000000000               0.000000000               0.000000000               0.000000000              -0.000263889               0.004175498              -0.001244261              -0.000620895               0.001598783               0.000977888               0.000000000               0.000000000               0.000000000               0.000000000              -0.000073460               0.004572794              -0.001137217              -0.000599146               0.001723965               0.001124819               0.000000000               0.000000000               0.000000000               0.000000000               0.000107024               0.004896703              -0.001041169              -0.000571953               0.001822869               0.001250916               0.000000000               0.000000000               0.000000000               0.000000000               0.000277335               0.005141150              -0.000951876              -0.000538642               0.001893247               0.001354604               0.000000000               0.000000000               0.000000000               0.000000000               0.000436264               0.005289420              -0.000861932              -0.000497578               0.001928981               0.001431404               0.000000000               0.000000000               0.000000000               0.000000000               0.000599356               0.005361888              -0.000763876              -0.000445477               0.001935770               0.001490294               0.000000000               0.000000000               0.000000000               0.000000000               0.000774374               0.005370641              -0.000657266              -0.000380939               0.001917175               0.001536236               0.000000000               0.000000000               0.000000000               0.000000000               0.000966253               0.005329468              -0.000542825              -0.000303838               0.001877751               0.001573913               0.000000000               0.000000000               0.000000000               0.000000000               0.001173428               0.005248277              -0.000409123              -0.000215999               0.001821408               0.001605409               0.000000000               0.000000000               0.000000000               0.000000000               0.001390351               0.005133458              -0.000230221              -0.000120300               0.001751236               0.001630935               0.000000000               0.000000000               0.000000000               0.000000000               0.001553023               0.005089731              -0.000131833              -0.000053833               0.001714504               0.001660671               0.000000000               0.000000000               0.000000000               0.000000000              -0.006677069              -0.000490316               0.000219128              -0.002442610               0.000650760              -0.001791850               0.000000000               0.000000000               0.000000000               0.000000000              -0.004068897               0.000132600              -0.000240402              -0.001542410               0.000558333              -0.000984077               0.000000000               0.000000000               0.000000000               0.000000000              -0.002109342               0.000766169              -0.000659772              -0.000886773               0.000550977              -0.000335796               0.000000000               0.000000000               0.000000000               0.000000000              -0.001140757               0.001610111              -0.000781773              -0.000629047               0.000746380               0.000117333               0.000000000               0.000000000               0.000000000               0.000000000              -0.000606445               0.002398383              -0.000786711              -0.000527214               0.000975191               0.000447977               0.000000000               0.000000000               0.000000000               0.000000000              -0.000272449               0.003072668              -0.000747709              -0.000486251               0.001186296               0.000700045               0.000000000               0.000000000               0.000000000               0.000000000              -0.000036597               0.003628375              -0.000693939              -0.000467270               0.001365203               0.000897933               0.000000000               0.000000000               0.000000000               0.000000000               0.000154244               0.004087238              -0.000640209              -0.000453062               0.001513420               0.001060357               0.000000000               0.000000000               0.000000000               0.000000000               0.000327029               0.004479337              -0.000590815              -0.000437280               0.001638858               0.001201577               0.000000000               0.000000000               0.000000000               0.000000000               0.000488012               0.004789667              -0.000542797              -0.000415703               0.001735107               0.001319404               0.000000000               0.000000000               0.000000000               0.000000000               0.000641534               0.004997981              -0.000494694              -0.000384171               0.001794034               0.001409863               0.000000000               0.000000000               0.000000000               0.000000000               0.000806901               0.005128692              -0.000441407              -0.000338498               0.001822379               0.001483882               0.000000000               0.000000000               0.000000000               0.000000000               0.001000323               0.005197482              -0.000382857              -0.000274564               0.001823998               0.001549434               0.000000000               0.000000000               0.000000000               0.000000000               0.001231168               0.005215790              -0.000320465              -0.000190285               0.001802008               0.001611722               0.000000000               0.000000000               0.000000000               0.000000000               0.001505314               0.005186009              -0.000244430              -0.000083758               0.001756572               0.001672814               0.000000000               0.000000000               0.000000000               0.000000000               0.001833685               0.005107102              -0.000138400               0.000049243               0.001685936               0.001735179               0.000000000               0.000000000               0.000000000               0.000000000               0.002105137               0.005090338              -0.000081998               0.000153132               0.001645718               0.001798851               0.000000000               0.000000000               0.000000000               0.000000000              -0.006935129              -0.000544012               0.000000000              -0.002532670               0.000662882              -0.001869788               0.000000000               0.000000000               0.000000000               0.000000000              -0.004203471               0.000000162              -0.000000000              -0.001576321               0.000525491              -0.001050830               0.000000000               0.000000000               0.000000000               0.000000000              -0.002123323               0.000549333              -0.000000000              -0.000864912               0.000471412              -0.000393500               0.000000000               0.000000000               0.000000000               0.000000000              -0.001099241               0.001367976               0.000000000              -0.000583211               0.000650391               0.000067180               0.000000000               0.000000000               0.000000000               0.000000000              -0.000539772               0.002161588              -0.000000000              -0.000472612               0.000878059               0.000405447               0.000000000               0.000000000               0.000000000               0.000000000              -0.000191751               0.002854591               0.000000000              -0.000428729               0.001094430               0.000665701               0.000000000               0.000000000               0.000000000               0.000000000               0.000050024               0.003427450              -0.000000000              -0.000409671               0.001279029               0.000869358               0.000000000               0.000000000               0.000000000               0.000000000               0.000242533               0.003906113              -0.000000000              -0.000397313               0.001434462               0.001037149               0.000000000               0.000000000               0.000000000               0.000000000               0.000410271               0.004322417               0.000000000              -0.000386450               0.001569608               0.001183158               0.000000000               0.000000000               0.000000000               0.000000000               0.000567997               0.004657880              -0.000000000              -0.000369235               0.001675689               0.001306454               0.000000000               0.000000000               0.000000000               0.000000000               0.000719649               0.004887412              -0.000000000              -0.000341057               0.001742807               0.001401749               0.000000000               0.000000000               0.000000000               0.000000000               0.000886318               0.005035625              -0.000000000              -0.000297083               0.001777553               0.001480469               0.000000000               0.000000000               0.000000000               0.000000000               0.001086856               0.005125138               0.000000000              -0.000233071               0.001786053               0.001552982               0.000000000               0.000000000               0.000000000               0.000000000               0.001332253               0.005167694               0.000000000              -0.000146367               0.001771336               0.001624970               0.000000000               0.000000000               0.000000000               0.000000000               0.001630519               0.005160106              -0.000000000              -0.000033569               0.001731208               0.001697639               0.000000000               0.000000000               0.000000000               0.000000000               0.002003185               0.005097472              -0.000000000               0.000114009               0.001661137               0.001775147               0.000000000               0.000000000               0.000000000               0.000000000               0.002317621               0.005091260              -0.000000000               0.000232698               0.001619504               0.001852202               0.000000000               0.000000000               0.000000000               0.000000000               0.000000000               0.000000000               0.000000000               0.000000000               0.000000000               0.000000000               0.000000000               0.000000000               0.000000000               0.000000000               0.000000000               0.000000000               0.000000000               0.000000000               0.000000000               0.000000000               0.000000000               0.000000000               0.000000000               0.000000000               0.000000000               0.000000000               0.000000000               0.000000000               0.000000000               0.000000000               0.000000000               0.000000000               0.000000000               0.000000000               0.000000000               0.000000000               0.000000000               0.000000000               0.000000000               0.000000000               0.000000000               0.000000000               0.000000000               0.000000000               0.000000000               0.000000000               0.000000000               0.000000000               0.000000000               0.000000000               0.000000000               0.000000000               0.000000000               0.000000000               0.000000000               0.000000000               0.000000000               0.000000000               0.000000000               0.000000000               0.000000000               0.000000000               0.000000000               0.000000000               0.000000000               0.000000000               0.000000000               0.000000000               0.000000000               0.000000000               0.000000000               0.000000000               0.000000000               0.000000000               0.000000000               0.000000000               0.000000000               0.000000000               0.000000000               0.000000000               0.000000000               0.000000000               0.000000000               0.000000000               0.000000000               0.000000000               0.000000000               0.000000000               0.000000000               0.000000000               0.000000000               0.000000000               0.000000000               0.000000000               0.000000000               0.000000000               0.000000000               0.000000000               0.000000000               0.000000000               0.000000000               0.000000000               0.000000000               0.000000000               0.000000000               0.000000000               0.000000000               0.000000000               0.000000000               0.000000000               0.000000000               0.000000000               0.000000000               0.000000000               0.000000000               0.000000000               0.000000000               0.000000000               0.000000000               0.000000000               0.000000000               0.000000000               0.000000000               0.000000000               0.000000000               0.000000000               0.000000000               0.000000000               0.000000000               0.000000000               0.000000000               0.000000000               0.000000000               0.000000000               0.000000000               0.000000000               0.000000000               0.000000000               0.000000000               0.000000000               0.000000000               0.000000000               0.000000000               0.000000000               0.000000000               0.000000000               0.000000000               0.000000000               0.000000000               0.000000000               0.000000000               0.000000000               0.000000000               0.000000000               0.000000000               0.000000000               0.000000000               0.000000000               0.000000000               0.000000000               0.000000000               0.000000000               0.000000000               0.000000000               0.000000000               0.000000000               0.000000000               0.000000000               0.000000000               0.000000000               0.000000000               0.000000000               0.000000000               0.000000000               0.001842036               0.019302112               0.001362896              -0.001721997               0.007007972               0.005285975               0.000000000               0.000000000               0.000000000               0.000000000               0.001760395               0.015348074               0.000715819              -0.001258358               0.005535426               0.004277068               0.000000000               0.000000000               0.000000000               0.000000000               0.002235487               0.012198237               0.000068850              -0.000686470               0.004294862               0.003608391               0.000000000               0.000000000               0.000000000               0.000000000               0.002122964               0.010443010              -0.000203227              -0.000509263               0.003650723               0.003141459               0.000000000               0.000000000               0.000000000               0.000000000               0.001850543               0.009353181              -0.000312742              -0.000475193               0.003276093               0.002800901               0.000000000               0.000000000               0.000000000               0.000000000               0.001556183               0.008615075              -0.000351766              -0.000493315               0.003036101               0.002542787               0.000000000               0.000000000               0.000000000               0.000000000               0.001283669               0.008075157              -0.000358037              -0.000528017               0.002867698               0.002339680               0.000000000               0.000000000               0.000000000               0.000000000               0.001044616               0.007651052              -0.000349315              -0.000564649               0.002738542               0.002173892               0.000000000               0.000000000               0.000000000               0.000000000               0.000836944               0.007293568              -0.000333914              -0.000597841               0.002630445               0.002032605               0.000000000               0.000000000               0.000000000               0.000000000               0.000651283               0.006976701              -0.000318114              -0.000627855               0.002534829               0.001906974               0.000000000               0.000000000               0.000000000               0.000000000               0.000490535               0.006688388              -0.000303018              -0.000652096               0.002446806               0.001794709               0.000000000               0.000000000               0.000000000               0.000000000               0.000355313               0.006411703              -0.000281145              -0.000668219               0.002359953               0.001691734               0.000000000               0.000000000               0.000000000               0.000000000               0.000237178               0.006126643              -0.000251149              -0.000676887               0.002267823               0.001590936               0.000000000               0.000000000               0.000000000               0.000000000               0.000137857               0.005823048              -0.000214826              -0.000676183               0.002166391               0.001490208               0.000000000               0.000000000               0.000000000               0.000000000               0.000062514               0.005496295              -0.000165297              -0.000663593               0.002053277               0.001389685               0.000000000               0.000000000               0.000000000               0.000000000               0.000019217               0.005137322              -0.000093997              -0.000634957               0.001924076               0.001289119               0.000000000               0.000000000               0.000000000               0.000000000              -0.000020634               0.004869911              -0.000057248              -0.000616475               0.001828779               0.001212304               0.000000000               0.000000000               0.000000000               0.000000000               0.002017385               0.018166129               0.002543107              -0.001514244               0.006560064               0.005045819               0.000000000               0.000000000               0.000000000               0.000000000               0.001677406               0.014609992               0.001341405              -0.001197219               0.005269021               0.004071802               0.000000000               0.000000000               0.000000000               0.000000000               0.001878567               0.011868294               0.000151080              -0.000779072               0.004215749               0.003436677               0.000000000               0.000000000               0.000000000               0.000000000               0.001665353               0.010314584              -0.000336133              -0.000664814               0.003659765               0.002994951               0.000000000               0.000000000               0.000000000               0.000000000               0.001374049               0.009330806              -0.000528940              -0.000651081               0.003327265               0.002676184               0.000000000               0.000000000               0.000000000               0.000000000               0.001100896               0.008649273              -0.000594891              -0.000668321               0.003105836               0.002437515               0.000000000               0.000000000               0.000000000               0.000000000               0.000867449               0.008136542              -0.000602767              -0.000691773               0.002942744               0.002250972               0.000000000               0.000000000               0.000000000               0.000000000               0.000673775               0.007721818              -0.000584005              -0.000712560               0.002811434               0.002098874               0.000000000               0.000000000               0.000000000               0.000000000               0.000514546               0.007370069              -0.000555087              -0.000728302               0.002699432               0.001971130               0.000000000               0.000000000               0.000000000               0.000000000               0.000380126               0.007059131              -0.000528461              -0.000739843               0.002599634               0.001859792               0.000000000               0.000000000               0.000000000               0.000000000               0.000269023               0.006773910              -0.000501586              -0.000745854               0.002506565               0.001760712               0.000000000               0.000000000               0.000000000               0.000000000               0.000182180               0.006500869              -0.000463495              -0.000744289               0.002415031               0.001670742               0.000000000               0.000000000               0.000000000               0.000000000               0.000112496               0.006231626              -0.000411772              -0.000736765               0.002322776               0.001586011               0.000000000               0.000000000               0.000000000               0.000000000               0.000060542               0.005964370              -0.000350111              -0.000722841               0.002229050               0.001506209               0.000000000               0.000000000               0.000000000               0.000000000               0.000027348               0.005701965              -0.000269477              -0.000702488               0.002134799               0.001432310               0.000000000               0.000000000               0.000000000               0.000000000               0.000008311               0.005444204              -0.000154128              -0.000677407               0.002040519               0.001363112               0.000000000               0.000000000               0.000000000               0.000000000              -0.000014179               0.005271505              -0.000092438              -0.000664254               0.001978569               0.001314315               0.000000000               0.000000000               0.000000000               0.000000000               0.002216316               0.016443409               0.003406165              -0.001224307               0.005889183               0.004664877               0.000000000               0.000000000               0.000000000               0.000000000               0.001515260               0.013506508               0.001815296              -0.001120089               0.004875487               0.003755398               0.000000000               0.000000000               0.000000000               0.000000000               0.001333976               0.011376184               0.000257971              -0.000921780               0.004099283               0.003177504               0.000000000               0.000000000               0.000000000               0.000000000               0.001010774               0.010112571              -0.000352224              -0.000885029               0.003665833               0.002780804               0.000000000               0.000000000               0.000000000               0.000000000               0.000719868               0.009272336              -0.000586288              -0.000889089               0.003387111               0.002498022               0.000000000               0.000000000               0.000000000               0.000000000               0.000489618               0.008661173              -0.000663232              -0.000899038               0.003186708               0.002287670               0.000000000               0.000000000               0.000000000               0.000000000               0.000317114               0.008182188              -0.000669623              -0.000903854               0.003028653               0.002124800               0.000000000               0.000000000               0.000000000               0.000000000               0.000193245               0.007783321              -0.000646284              -0.000900446               0.002894563               0.001994117               0.000000000               0.000000000               0.000000000               0.000000000               0.000106278               0.007440723              -0.000613670              -0.000890234               0.002776961               0.001886727               0.000000000               0.000000000               0.000000000               0.000000000               0.000044417               0.007134808              -0.000581789              -0.000875193               0.002669976               0.001794784               0.000000000               0.000000000               0.000000000               0.000000000               0.000004809               0.006851948              -0.000547673              -0.000854688               0.002568856               0.001714168               0.000000000               0.000000000               0.000000000               0.000000000              -0.000013651               0.006586594              -0.000500935              -0.000828441               0.002471657               0.001643215               0.000000000               0.000000000               0.000000000               0.000000000              -0.000021360               0.006340658              -0.000440080              -0.000800590               0.002380395               0.001579805               0.000000000               0.000000000               0.000000000               0.000000000              -0.000020933               0.006119216              -0.000367770              -0.000772750               0.002297302               0.001524552               0.000000000               0.000000000               0.000000000               0.000000000              -0.000015365               0.005927032              -0.000277005              -0.000746639               0.002224537               0.001477898               0.000000000               0.000000000               0.000000000               0.000000000              -0.000008781               0.005777686              -0.000155348              -0.000725502               0.002167710               0.001442208               0.000000000               0.000000000               0.000000000               0.000000000              -0.000008883               0.005704132              -0.000088077              -0.000716346               0.002140140               0.001423794               0.000000000               0.000000000               0.000000000               0.000000000               0.002330712               0.014347857               0.003879399              -0.000919466               0.005089059               0.004169593               0.000000000               0.000000000               0.000000000               0.000000000               0.001254721               0.012182333               0.002112347              -0.001052270               0.004411493               0.003359223               0.000000000               0.000000000               0.000000000               0.000000000               0.000672728               0.010778950               0.000402194              -0.001095093               0.003957978               0.002862885               0.000000000               0.000000000               0.000000000               0.000000000               0.000272821               0.009839066              -0.000236944              -0.001127573               0.003655513               0.002527941               0.000000000               0.000000000               0.000000000               0.000000000               0.000022147               0.009148725              -0.000476766              -0.001135283               0.003427972               0.002292689               0.000000000               0.000000000               0.000000000               0.000000000              -0.000128634               0.008608958              -0.000557114              -0.001124355               0.003244409               0.002120054               0.000000000               0.000000000               0.000000000               0.000000000              -0.000218185               0.008164095              -0.000567257              -0.001102329               0.003088781               0.001986452               0.000000000               0.000000000               0.000000000               0.000000000              -0.000261263               0.007784220              -0.000546846              -0.001070999               0.002951714               0.001880715               0.000000000               0.000000000               0.000000000               0.000000000              -0.000267244               0.007449282              -0.000518284              -0.001031374               0.002826861               0.001795486               0.000000000               0.000000000               0.000000000               0.000000000              -0.000247136               0.007148028              -0.000488033              -0.000986177               0.002711378               0.001725201               0.000000000               0.000000000               0.000000000               0.000000000              -0.000212564               0.006870442              -0.000451951              -0.000938514               0.002602962               0.001664448               0.000000000               0.000000000               0.000000000               0.000000000              -0.000168634               0.006616934              -0.000404304              -0.000890352               0.002502407               0.001612054               0.000000000               0.000000000               0.000000000               0.000000000              -0.000123368               0.006395014              -0.000346260              -0.000845638               0.002413529               0.001567892               0.000000000               0.000000000               0.000000000               0.000000000              -0.000081289               0.006214560              -0.000277155              -0.000807301               0.002340600               0.001533298               0.000000000               0.000000000               0.000000000               0.000000000              -0.000045576               0.006081045              -0.000196874              -0.000777220               0.002286068               0.001508848               0.000000000               0.000000000               0.000000000               0.000000000              -0.000021126               0.006001096              -0.000103671              -0.000758057               0.002253031               0.001494974               0.000000000               0.000000000               0.000000000               0.000000000              -0.000009124               0.005979874              -0.000052616              -0.000750904               0.002243573               0.001492669               0.000000000               0.000000000               0.000000000               0.000000000               0.002266937               0.012090082               0.003970994              -0.000661161               0.004250373               0.003589212               0.000000000               0.000000000               0.000000000               0.000000000               0.000890684               0.010776181               0.002250068              -0.001013015               0.003929696               0.002916680               0.000000000               0.000000000               0.000000000               0.000000000              -0.000021766               0.010131754               0.000593821              -0.001274628               0.003802094               0.002527465               0.000000000               0.000000000               0.000000000               0.000000000              -0.000431480               0.009499459              -0.000004958              -0.001349234               0.003616199               0.002266965               0.000000000               0.000000000               0.000000000               0.000000000              -0.000601140               0.008943843              -0.000233798              -0.001343404               0.003429052               0.002085648               0.000000000               0.000000000               0.000000000               0.000000000              -0.000650413               0.008466542              -0.000319680              -0.001302220               0.003256226               0.001954006               0.000000000               0.000000000               0.000000000               0.000000000              -0.000641487               0.008051465              -0.000342455              -0.001246988               0.003099457               0.001852470               0.000000000               0.000000000               0.000000000               0.000000000              -0.000595635               0.007689451              -0.000333612              -0.001184542               0.002957972               0.001773430               0.000000000               0.000000000               0.000000000               0.000000000              -0.000524922               0.007363050              -0.000314025              -0.001117224               0.002826734               0.001709509               0.000000000               0.000000000               0.000000000               0.000000000              -0.000439146               0.007066771              -0.000291569              -0.001048024               0.002704908               0.001656884               0.000000000               0.000000000               0.000000000               0.000000000              -0.000341935               0.006799469              -0.000262588              -0.000978157               0.002592519               0.001614362               0.000000000               0.000000000               0.000000000               0.000000000              -0.000246653               0.006565342              -0.000225166              -0.000913160               0.002492812               0.001579652               0.000000000               0.000000000               0.000000000               0.000000000              -0.000166930               0.006372760              -0.000182954              -0.000859191               0.002410629               0.001551438               0.000000000               0.000000000               0.000000000               0.000000000              -0.000105457               0.006227505              -0.000136733              -0.000817982               0.002348475               0.001530493               0.000000000               0.000000000               0.000000000               0.000000000              -0.000061278               0.006123683              -0.000085750              -0.000788438               0.002304020               0.001515582               0.000000000               0.000000000               0.000000000               0.000000000              -0.000027917               0.006056203              -0.000038203              -0.000767492               0.002274545               0.001507053               0.000000000               0.000000000               0.000000000               0.000000000              -0.000016491               0.006025468              -0.000019831              -0.000759366               0.002261591               0.001502225               0.000000000               0.000000000               0.000000000               0.000000000               0.001973218               0.009860038               0.003740207              -0.000492551               0.003450829               0.002958278               0.000000000               0.000000000               0.000000000               0.000000000               0.000443684               0.009403051               0.002263522              -0.001008999               0.003470651               0.002461652               0.000000000               0.000000000               0.000000000               0.000000000              -0.000670379               0.009463277               0.000831005              -0.001434298               0.003632494               0.002198195               0.000000000               0.000000000               0.000000000               0.000000000              -0.001013817               0.009092426               0.000310247              -0.001516731               0.003536355               0.002019624               0.000000000               0.000000000               0.000000000               0.000000000              -0.001068769               0.008653587               0.000091052              -0.001482483               0.003378661               0.001896178               0.000000000               0.000000000               0.000000000               0.000000000              -0.001011375               0.008233643              -0.000009230              -0.001408467               0.003214010               0.001805542               0.000000000               0.000000000               0.000000000               0.000000000              -0.000909558               0.007847984              -0.000055253              -0.001322079               0.003056661               0.001734583               0.000000000               0.000000000               0.000000000               0.000000000              -0.000786472               0.007500139              -0.000069562              -0.001232441               0.002910835               0.001678394               0.000000000               0.000000000               0.000000000               0.000000000              -0.000648892               0.007186802              -0.000068697              -0.001141682               0.002776138               0.001634455               0.000000000               0.000000000               0.000000000               0.000000000              -0.000508678               0.006906912              -0.000065586              -0.001054115               0.002653653               0.001599537               0.000000000               0.000000000               0.000000000               0.000000000              -0.000374585               0.006661681              -0.000057352              -0.000973177               0.002544931               0.001571753               0.000000000               0.000000000               0.000000000               0.000000000              -0.000259709               0.006457111              -0.000044667              -0.000904528               0.002453858               0.001549330               0.000000000               0.000000000               0.000000000               0.000000000              -0.000172992               0.006291909              -0.000034624              -0.000851358               0.002381068               0.001529710               0.000000000               0.000000000               0.000000000               0.000000000              -0.000112398               0.006155698              -0.000024770              -0.000811610               0.002322415               0.001510806               0.000000000               0.000000000               0.000000000               0.000000000              -0.000070010               0.006039640              -0.000013539              -0.000781207               0.002273596               0.001492389               0.000000000               0.000000000               0.000000000               0.000000000              -0.000034873               0.005938973              -0.000006695              -0.000755447               0.002231454               0.001476006               0.000000000               0.000000000               0.000000000               0.000000000              -0.000033431               0.005869437              -0.000013486              -0.000746214               0.002205197               0.001458983               0.000000000               0.000000000               0.000000000               0.000000000               0.001460307               0.007793004               0.003263929              -0.000426513               0.002739812               0.002313299               0.000000000               0.000000000               0.000000000               0.000000000              -0.000063197               0.008138953               0.002193307              -0.001041067               0.003059979               0.002018912               0.000000000               0.000000000               0.000000000               0.000000000              -0.001212180               0.008778738               0.001107903              -0.001551906               0.003443519               0.001891612               0.000000000               0.000000000               0.000000000               0.000000000              -0.001421692               0.008617782               0.000664292              -0.001610353               0.003409350               0.001798996               0.000000000               0.000000000               0.000000000               0.000000000              -0.001347784               0.008283454               0.000438895              -0.001540847               0.003274739               0.001733892               0.000000000               0.000000000               0.000000000               0.000000000              -0.001193671               0.007921131               0.000311486              -0.001437764               0.003119605               0.001681841               0.000000000               0.000000000               0.000000000               0.000000000              -0.001016267               0.007572898               0.000235236              -0.001327709               0.002966844               0.001639135               0.000000000               0.000000000               0.000000000               0.000000000              -0.000831072               0.007249003               0.000188411              -0.001217775               0.002822235               0.001604461               0.000000000               0.000000000               0.000000000               0.000000000              -0.000646672               0.006958259               0.000156413              -0.001112282               0.002690157               0.001577875               0.000000000               0.000000000               0.000000000               0.000000000              -0.000474550               0.006703662               0.000127873              -0.001015911               0.002573169               0.001557257               0.000000000               0.000000000               0.000000000               0.000000000              -0.000331271               0.006485110               0.000103525              -0.000934863               0.002473303               0.001538440               0.000000000               0.000000000               0.000000000               0.000000000              -0.000222270               0.006292547               0.000080417              -0.000869917               0.002387467               0.001517550               0.000000000               0.000000000               0.000000000               0.000000000              -0.000151567               0.006112322               0.000053989              -0.000820876               0.002311046               0.001490170               0.000000000               0.000000000               0.000000000               0.000000000              -0.000113350               0.005940285               0.000028956              -0.000785040               0.002241755               0.001456715               0.000000000               0.000000000               0.000000000               0.000000000              -0.000086336               0.005782616               0.000010107              -0.000755201               0.002179253               0.001424052               0.000000000               0.000000000               0.000000000               0.000000000              -0.000052801               0.005643085              -0.000002090              -0.000725184               0.002122738               0.001397553               0.000000000               0.000000000               0.000000000               0.000000000              -0.000046817               0.005552219              -0.000015570              -0.000711582               0.002087915               0.001376333               0.000000000               0.000000000               0.000000000               0.000000000               0.000820861               0.006030929               0.002642732              -0.000446045               0.002158970               0.001712925               0.000000000               0.000000000               0.000000000               0.000000000              -0.000544052               0.007007925               0.002090742              -0.001080009               0.002695954               0.001615945               0.000000000               0.000000000               0.000000000               0.000000000              -0.001603288               0.008110454               0.001428816              -0.001615036               0.003241803               0.001626767               0.000000000               0.000000000               0.000000000               0.000000000              -0.001669622               0.008160690               0.001036886              -0.001646190               0.003268933               0.001622742               0.000000000               0.000000000               0.000000000               0.000000000              -0.001493815               0.007943471               0.000789042              -0.001553111               0.003165501               0.001612390               0.000000000               0.000000000               0.000000000               0.000000000              -0.001268006               0.007653271               0.000623832              -0.001432158               0.003028451               0.001596293               0.000000000               0.000000000               0.000000000               0.000000000              -0.001034873               0.007356350               0.000512469              -0.001307618               0.002887965               0.001580347               0.000000000               0.000000000               0.000000000               0.000000000              -0.000802031               0.007070015               0.000429220              -0.001184510               0.002751485               0.001566974               0.000000000               0.000000000               0.000000000               0.000000000              -0.000583560               0.006805684               0.000358830              -0.001069543               0.002625053               0.001555510               0.000000000               0.000000000               0.000000000               0.000000000              -0.000392688               0.006574815               0.000293492              -0.000969108               0.002514619               0.001545511               0.000000000               0.000000000               0.000000000               0.000000000              -0.000250808               0.006357920               0.000234040              -0.000888791               0.002415549               0.001526758               0.000000000               0.000000000               0.000000000               0.000000000              -0.000164658               0.006137591               0.000180729              -0.000828944               0.002322158               0.001493214               0.000000000               0.000000000               0.000000000               0.000000000              -0.000124379               0.005919376               0.000127340              -0.000786562               0.002235293               0.001448731               0.000000000               0.000000000               0.000000000               0.000000000              -0.000121357               0.005706197               0.000075921              -0.000758782               0.002154974               0.001396192               0.000000000               0.000000000               0.000000000               0.000000000              -0.000128742               0.005510809               0.000034473              -0.000737127               0.002082627               0.001345500               0.000000000               0.000000000               0.000000000               0.000000000              -0.000133384               0.005334191               0.000007172              -0.000716791               0.002016976               0.001300185               0.000000000               0.000000000               0.000000000               0.000000000              -0.000134661               0.005235756              -0.000005502              -0.000704966               0.001980223               0.001275257               0.000000000               0.000000000               0.000000000               0.000000000               0.000039250               0.004379734               0.001971681              -0.000532749               0.001637479               0.001104730               0.000000000               0.000000000               0.000000000               0.000000000              -0.000926747               0.005703612               0.001970773              -0.001060480               0.002254678               0.001194198               0.000000000               0.000000000               0.000000000               0.000000000              -0.001789950               0.007137397               0.001777027              -0.001563403               0.002900242               0.001336840               0.000000000               0.000000000               0.000000000               0.000000000              -0.001785580               0.007481643               0.001448222              -0.001604794               0.003028787               0.001423993               0.000000000               0.000000000               0.000000000               0.000000000              -0.001571149               0.007465226               0.001175077              -0.001522331               0.002995827               0.001473496               0.000000000               0.000000000               0.000000000               0.000000000              -0.001318587               0.007322521               0.000969051              -0.001409782               0.002910743               0.001500961               0.000000000               0.000000000               0.000000000               0.000000000              -0.001069502               0.007137373               0.000817953              -0.001293232               0.002810178               0.001516946               0.000000000               0.000000000               0.000000000               0.000000000              -0.000830108               0.006930869               0.000696433              -0.001177646               0.002702815               0.001525169               0.000000000               0.000000000               0.000000000               0.000000000              -0.000604217               0.006723109               0.000589758              -0.001066968               0.002596670               0.001529702               0.000000000               0.000000000               0.000000000               0.000000000              -0.000406773               0.006523205               0.000490930              -0.000967938               0.002497026               0.001529088               0.000000000               0.000000000               0.000000000               0.000000000              -0.000259959               0.006305881               0.000396799              -0.000885718               0.002397178               0.001511461               0.000000000               0.000000000               0.000000000               0.000000000              -0.000169185               0.006075687               0.000307490              -0.000822903               0.002299510               0.001476606               0.000000000               0.000000000               0.000000000               0.000000000              -0.000130445               0.005839397               0.000220328              -0.000778840               0.002206060               0.001427220               0.000000000               0.000000000               0.000000000               0.000000000              -0.000141493               0.005605544               0.000139877              -0.000753751               0.002119746               0.001365995               0.000000000               0.000000000               0.000000000               0.000000000              -0.000182785               0.005392479               0.000073107              -0.000742602               0.002045009               0.001302407               0.000000000               0.000000000               0.000000000               0.000000000              -0.000236744               0.005191932               0.000023533              -0.000737769               0.001976550               0.001238781               0.000000000               0.000000000               0.000000000               0.000000000              -0.000266900               0.005088252               0.000002609              -0.000736117               0.001941439               0.001205322               0.000000000               0.000000000               0.000000000               0.000000000              -0.001001834               0.002873530               0.001289276              -0.000734878               0.001202793               0.000467915               0.000000000               0.000000000               0.000000000               0.000000000              -0.001362874               0.004396614               0.001785830              -0.001060653               0.001819074               0.000758421               0.000000000               0.000000000               0.000000000               0.000000000              -0.001891132               0.006020032               0.002048685              -0.001461676               0.002493882               0.001032206               0.000000000               0.000000000               0.000000000               0.000000000              -0.001825575               0.006645880               0.001838773              -0.001515323               0.002720378               0.001205056               0.000000000               0.000000000               0.000000000               0.000000000              -0.001598140               0.006861035               0.001570077              -0.001456929               0.002772631               0.001315703               0.000000000               0.000000000               0.000000000               0.000000000              -0.001337931               0.006898324               0.001336505              -0.001364012               0.002754089               0.001390077               0.000000000               0.000000000               0.000000000               0.000000000              -0.001089733               0.006851047               0.001149374              -0.001265028               0.002705335               0.001440308               0.000000000               0.000000000               0.000000000               0.000000000              -0.000855192               0.006749840               0.000995574              -0.001164424               0.002638066               0.001473641               0.000000000               0.000000000               0.000000000               0.000000000              -0.000630577               0.006623703               0.000860362              -0.001064427               0.002562688               0.001498261               0.000000000               0.000000000               0.000000000               0.000000000              -0.000426251               0.006478938               0.000734999              -0.000969709               0.002482861               0.001513152               0.000000000               0.000000000               0.000000000               0.000000000              -0.000260964               0.006291698               0.000617286              -0.000884322               0.002391985               0.001507664               0.000000000               0.000000000               0.000000000               0.000000000              -0.000146731               0.006076540               0.000502175              -0.000814590               0.002297023               0.001482433               0.000000000               0.000000000               0.000000000               0.000000000              -0.000085360               0.005849875               0.000383233              -0.000763242               0.002204353               0.001441110               0.000000000               0.000000000               0.000000000               0.000000000              -0.000078648               0.005616453               0.000265088              -0.000731548               0.002115982               0.001384434               0.000000000               0.000000000               0.000000000               0.000000000              -0.000126816               0.005393098               0.000159699              -0.000721692               0.002038245               0.001316554               0.000000000               0.000000000               0.000000000               0.000000000              -0.000217837               0.005187495               0.000070303              -0.000730124               0.001972522               0.001242398               0.000000000               0.000000000               0.000000000               0.000000000              -0.000288570               0.005078861               0.000023002              -0.000743069               0.001940626               0.001197557               0.000000000               0.000000000               0.000000000               0.000000000              -0.002231757               0.001616933               0.000643407              -0.001039024               0.000885312              -0.000153711               0.000000000               0.000000000               0.000000000               0.000000000              -0.001901838               0.003161781               0.001511299              -0.001108410               0.001423386               0.000314976               0.000000000               0.000000000               0.000000000               0.000000000              -0.001949738               0.004776147               0.002144277              -0.001328168               0.002034755               0.000706587               0.000000000               0.000000000               0.000000000               0.000000000              -0.001763844               0.005604565               0.002088272              -0.001362010               0.002322172               0.000960162               0.000000000               0.000000000               0.000000000               0.000000000              -0.001513908               0.006036115               0.001868483              -0.001322227               0.002452760               0.001130533               0.000000000               0.000000000               0.000000000               0.000000000              -0.001254459               0.006260828               0.001637026              -0.001253023               0.002504596               0.001251573               0.000000000               0.000000000               0.000000000               0.000000000              -0.001011110               0.006367092               0.001434794              -0.001175050               0.002514026               0.001338975               0.000000000               0.000000000               0.000000000               0.000000000              -0.000785802               0.006396793               0.001261494              -0.001094273               0.002497000               0.001402728               0.000000000               0.000000000               0.000000000               0.000000000              -0.000571837               0.006379520               0.001106819              -0.001011877               0.002463777               0.001451901               0.000000000               0.000000000               0.000000000               0.000000000              -0.000371211               0.006316969               0.000969357              -0.000928823               0.002415243               0.001486420               0.000000000               0.000000000               0.000000000               0.000000000              -0.000194144               0.006188333               0.000840771              -0.000846344               0.002344871               0.001498528               0.000000000               0.000000000               0.000000000               0.000000000              -0.000056075               0.006015344               0.000707348              -0.000772944               0.002262743               0.001489798               0.000000000               0.000000000               0.000000000               0.000000000               0.000030157               0.005817594               0.000566643              -0.000715889               0.002177808               0.001461919               0.000000000               0.000000000               0.000000000               0.000000000               0.000067192               0.005605576               0.000421487              -0.000675498               0.002093673               0.001418174               0.000000000               0.000000000               0.000000000               0.000000000               0.000049769               0.005392106               0.000276673              -0.000655348               0.002015800               0.001360452               0.000000000               0.000000000               0.000000000               0.000000000              -0.000034413               0.005188949               0.000134517              -0.000661522               0.001950140               0.001288618               0.000000000               0.000000000               0.000000000               0.000000000              -0.000118082               0.005078753               0.000056004              -0.000679123               0.001919275               0.001240152               0.000000000               0.000000000               0.000000000               0.000000000              -0.003559179               0.000677124               0.000114314              -0.001419331               0.000698814              -0.000720517               0.000000000               0.000000000               0.000000000               0.000000000              -0.002512458               0.002065805               0.001177267              -0.001200395               0.001088725              -0.000111670               0.000000000               0.000000000               0.000000000               0.000000000              -0.001992389               0.003507722               0.002040004              -0.001185609               0.001564431               0.000378822               0.000000000               0.000000000               0.000000000               0.000000000              -0.001625027               0.004442288               0.002127905              -0.001164670               0.001868970               0.000704301               0.000000000               0.000000000               0.000000000               0.000000000              -0.001324148               0.005043773               0.001985788              -0.001127025               0.002056915               0.000929890               0.000000000               0.000000000               0.000000000               0.000000000              -0.001059751               0.005437854               0.001788712              -0.001077137               0.002171645               0.001094508               0.000000000               0.000000000               0.000000000               0.000000000              -0.000825027               0.005699232               0.001596981              -0.001021788               0.002240321               0.001218533               0.000000000               0.000000000               0.000000000               0.000000000              -0.000613787               0.005867717               0.001423318              -0.000963633               0.002277097               0.001313464               0.000000000               0.000000000               0.000000000               0.000000000              -0.000412298               0.005973277               0.001266325              -0.000901270               0.002291495               0.001390226               0.000000000               0.000000000               0.000000000               0.000000000              -0.000217134               0.006014674               0.001130491              -0.000833258               0.002282624               0.001449366               0.000000000               0.000000000               0.000000000               0.000000000              -0.000041922               0.005970348               0.001001893              -0.000762013               0.002244100               0.001482088               0.000000000               0.000000000               0.000000000               0.000000000               0.000110718               0.005866106               0.000862338              -0.000691743               0.002185930               0.001494187               0.000000000               0.000000000               0.000000000               0.000000000               0.000231828               0.005723484               0.000714265              -0.000628499               0.002117308               0.001488810               0.000000000               0.000000000               0.000000000               0.000000000               0.000312769               0.005553943               0.000560086              -0.000576953               0.002043614               0.001466660               0.000000000               0.000000000               0.000000000               0.000000000               0.000347821               0.005368802               0.000391541              -0.000540666               0.001969805               0.001429139               0.000000000               0.000000000               0.000000000               0.000000000               0.000323567               0.005183046               0.000203290              -0.000526542               0.001903179               0.001376637               0.000000000               0.000000000               0.000000000               0.000000000               0.000276072               0.005083604               0.000098805              -0.000531922               0.001871825               0.001339903               0.000000000               0.000000000               0.000000000               0.000000000              -0.004849895               0.000052987              -0.000218978              -0.001825332               0.000626102              -0.001199230               0.000000000               0.000000000               0.000000000               0.000000000              -0.003137614               0.001175036               0.000829806              -0.001323483               0.000832834              -0.000490649               0.000000000               0.000000000               0.000000000               0.000000000              -0.002033231               0.002337688               0.001734577              -0.001054671               0.001130777               0.000076106               0.000000000               0.000000000               0.000000000               0.000000000              -0.001443623               0.003285259               0.001915941              -0.000952015               0.001412413               0.000460398               0.000000000               0.000000000               0.000000000               0.000000000              -0.001064611               0.003995060               0.001852006              -0.000898610               0.001631209               0.000732599               0.000000000               0.000000000               0.000000000               0.000000000              -0.000784252               0.004523865               0.001708938              -0.000859577               0.001794465               0.000934888               0.000000000               0.000000000               0.000000000               0.000000000              -0.000555265               0.004922956               0.001551114              -0.000823593               0.001915499               0.001091907               0.000000000               0.000000000               0.000000000               0.000000000              -0.000357983               0.005219501               0.001401092              -0.000786680               0.002002043               0.001215363               0.000000000               0.000000000               0.000000000               0.000000000              -0.000168994               0.005443234               0.001265941              -0.000743776               0.002062318               0.001318542               0.000000000               0.000000000               0.000000000               0.000000000               0.000015134               0.005592653               0.001146244              -0.000693405               0.002095334               0.001401929               0.000000000               0.000000000               0.000000000               0.000000000               0.000182633               0.005650668               0.001028027              -0.000637845               0.002096152               0.001458307               0.000000000               0.000000000               0.000000000               0.000000000               0.000342178               0.005636415               0.000900636              -0.000576234               0.002070864               0.001494630               0.000000000               0.000000000               0.000000000               0.000000000               0.000493914               0.005565294               0.000763786              -0.000510443               0.002025227               0.001514784               0.000000000               0.000000000               0.000000000               0.000000000               0.000631403               0.005455345               0.000617044              -0.000445141               0.001966811               0.001521669               0.000000000               0.000000000               0.000000000               0.000000000               0.000746937               0.005316701               0.000451436              -0.000384485               0.001900378               0.001515892               0.000000000               0.000000000               0.000000000               0.000000000               0.000831152               0.005162294               0.000247358              -0.000333604               0.001831949               0.001498345               0.000000000               0.000000000               0.000000000               0.000000000               0.000872561               0.005087610               0.000133936              -0.000308740               0.001798766               0.001490026               0.000000000               0.000000000               0.000000000               0.000000000              -0.005943429              -0.000310283              -0.000319878              -0.002189999               0.000626568              -0.001563431               0.000000000               0.000000000               0.000000000               0.000000000              -0.003689814               0.000526580               0.000512885              -0.001449501               0.000658689              -0.000790812               0.000000000               0.000000000               0.000000000               0.000000000              -0.002074886               0.001388197               0.001258157              -0.000951605               0.000779928              -0.000171677               0.000000000               0.000000000               0.000000000               0.000000000              -0.001264443               0.002288890               0.001451321              -0.000760276               0.001016380               0.000256104               0.000000000               0.000000000               0.000000000               0.000000000              -0.000798196               0.003055192               0.001439155              -0.000681222               0.001245460               0.000564239               0.000000000               0.000000000               0.000000000               0.000000000              -0.000492949               0.003676370               0.001352683              -0.000644401               0.001440244               0.000795843               0.000000000               0.000000000               0.000000000               0.000000000              -0.000263889               0.004175498               0.001244261              -0.000620895               0.001598783               0.000977888               0.000000000               0.000000000               0.000000000               0.000000000              -0.000073460               0.004572794               0.001137217              -0.000599146               0.001723965               0.001124819               0.000000000               0.000000000               0.000000000               0.000000000               0.000107024               0.004896703               0.001041169              -0.000571953               0.001822869               0.001250916               0.000000000               0.000000000               0.000000000               0.000000000               0.000277335               0.005141150               0.000951876              -0.000538642               0.001893247               0.001354604               0.000000000               0.000000000               0.000000000               0.000000000               0.000436264               0.005289420               0.000861932              -0.000497578               0.001928981               0.001431404               0.000000000               0.000000000               0.000000000               0.000000000               0.000599356               0.005361888               0.000763876              -0.000445477               0.001935770               0.001490294               0.000000000               0.000000000               0.000000000               0.000000000               0.000774374               0.005370641               0.000657266              -0.000380939               0.001917175               0.001536236               0.000000000               0.000000000               0.000000000               0.000000000               0.000966253               0.005329468               0.000542825              -0.000303838               0.001877751               0.001573913               0.000000000               0.000000000               0.000000000               0.000000000               0.001173428               0.005248277               0.000409123              -0.000215999               0.001821408               0.001605409               0.000000000               0.000000000               0.000000000               0.000000000               0.001390351               0.005133458               0.000230221              -0.000120300               0.001751236               0.001630935               0.000000000               0.000000000               0.000000000               0.000000000               0.001553023               0.005089731               0.000131833              -0.000053833               0.001714504               0.001660671               0.000000000               0.000000000               0.000000000               0.000000000              -0.006677069              -0.000490316              -0.000219128              -0.002442610               0.000650760              -0.001791850               0.000000000               0.000000000               0.000000000               0.000000000              -0.004068897               0.000132600               0.000240402              -0.001542410               0.000558333              -0.000984077               0.000000000               0.000000000               0.000000000               0.000000000              -0.002109342               0.000766169               0.000659772              -0.000886773               0.000550977              -0.000335796               0.000000000               0.000000000               0.000000000               0.000000000              -0.001140757               0.001610111               0.000781773              -0.000629047               0.000746380               0.000117333               0.000000000               0.000000000               0.000000000               0.000000000              -0.000606445               0.002398383               0.000786711              -0.000527214               0.000975191               0.000447977               0.000000000               0.000000000               0.000000000               0.000000000              -0.000272449               0.003072668               0.000747709              -0.000486251               0.001186296               0.000700045               0.000000000               0.000000000               0.000000000               0.000000000              -0.000036597               0.003628375               0.000693939              -0.000467270               0.001365203               0.000897933               0.000000000               0.000000000               0.000000000               0.000000000               0.000154244               0.004087238               0.000640209              -0.000453062               0.001513420               0.001060357               0.000000000               0.000000000               0.000000000               0.000000000               0.000327029               0.004479337               0.000590815              -0.000437280               0.001638858               0.001201577               0.000000000               0.000000000               0.000000000               0.000000000               0.000488012               0.004789667               0.000542797              -0.000415703               0.001735107               0.001319404               0.000000000               0.000000000               0.000000000               0.000000000               0.000641534               0.004997981               0.000494694              -0.000384171               0.001794034               0.001409863               0.000000000               0.000000000               0.000000000               0.000000000               0.000806901               0.005128692               0.000441407              -0.000338498               0.001822379               0.001483882               0.000000000               0.000000000               0.000000000               0.000000000               0.001000323               0.005197482               0.000382857              -0.000274564               0.001823998               0.001549434               0.000000000               0.000000000               0.000000000               0.000000000               0.001231168               0.005215790               0.000320465              -0.000190285               0.001802008               0.001611722               0.000000000               0.000000000               0.000000000               0.000000000               0.001505314               0.005186009               0.000244430              -0.000083758               0.001756572               0.001672814               0.000000000               0.000000000               0.000000000               0.000000000               0.001833685               0.005107102               0.000138400               0.000049243               0.001685936               0.001735179               0.000000000               0.000000000               0.000000000               0.000000000               0.002105137               0.005090338               0.000081998               0.000153132               0.001645718               0.001798851               0.000000000               0.000000000               0.000000000               0.000000000              -0.006935129              -0.000544012              -0.000000000              -0.002532670               0.000662882              -0.001869788               0.000000000               0.000000000               0.000000000               0.000000000              -0.004203471               0.000000162               0.000000000              -0.001576321               0.000525491              -0.001050830               0.000000000               0.000000000               0.000000000               0.000000000              -0.002123323               0.000549333              -0.000000000              -0.000864912               0.000471412              -0.000393500               0.000000000               0.000000000               0.000000000               0.000000000              -0.001099241               0.001367976               0.000000000              -0.000583211               0.000650391               0.000067180               0.000000000               0.000000000               0.000000000               0.000000000              -0.000539772               0.002161588               0.000000000              -0.000472612               0.000878059               0.000405447               0.000000000               0.000000000               0.000000000               0.000000000              -0.000191751               0.002854591              -0.000000000              -0.000428729               0.001094430               0.000665701               0.000000000               0.000000000               0.000000000               0.000000000               0.000050024               0.003427450               0.000000000              -0.000409671               0.001279029               0.000869358               0.000000000               0.000000000               0.000000000               0.000000000               0.000242533               0.003906113               0.000000000              -0.000397313               0.001434462               0.001037149               0.000000000               0.000000000               0.000000000               0.000000000               0.000410271               0.004322417              -0.000000000              -0.000386450               0.001569608               0.001183158               0.000000000               0.000000000               0.000000000               0.000000000               0.000567997               0.004657880               0.000000000              -0.000369235               0.001675689               0.001306454               0.000000000               0.000000000               0.000000000               0.000000000               0.000719649               0.004887412               0.000000000              -0.000341057               0.001742807               0.001401749               0.000000000               0.000000000               0.000000000               0.000000000               0.000886318               0.005035625              -0.000000000              -0.000297083               0.001777553               0.001480469               0.000000000               0.000000000               0.000000000               0.000000000               0.001086856               0.005125138               0.000000000              -0.000233071               0.001786053               0.001552982               0.000000000               0.000000000               0.000000000               0.000000000               0.001332253               0.005167694              -0.000000000              -0.000146367               0.001771336               0.001624970               0.000000000               0.000000000               0.000000000               0.000000000               0.001630519               0.005160106              -0.000000000              -0.000033569               0.001731208               0.001697639               0.000000000               0.000000000               0.000000000               0.000000000               0.002003185               0.005097472              -0.000000000               0.000114009               0.001661137               0.001775147               0.000000000               0.000000000               0.000000000               0.000000000               0.002317621               0.005091260              -0.000000000               0.000232698               0.001619504               0.001852202               0.000000000               0.000000000               0.000000000               0.000000000               0.001771598               0.019698027               0.000000000              -0.001797900               0.007165243               0.005367343               0.000000000               0.000000000               0.000000000               0.000000000               0.001783378               0.015608556               0.000000000              -0.001282300               0.005630233               0.004347934               0.000000000               0.000000000               0.000000000               0.000000000               0.002359066               0.012316003              -0.000000000              -0.000654849               0.004323576               0.003668727               0.000000000               0.000000000               0.000000000               0.000000000               0.002288602               0.010488208               0.000000000              -0.000452799               0.003646967               0.003194168               0.000000000               0.000000000               0.000000000               0.000000000               0.002026505               0.009358198              -0.000000000              -0.000409834               0.003255979               0.002846145               0.000000000               0.000000000               0.000000000               0.000000000               0.001727406               0.008598140              -0.000000000              -0.000426989               0.003008348               0.002581359               0.000000000               0.000000000               0.000000000               0.000000000               0.001441102               0.008046877              -0.000000000              -0.000465445               0.002837414               0.002371969               0.000000000               0.000000000               0.000000000               0.000000000               0.001182307               0.007617736               0.000000000              -0.000508851               0.002708837               0.002199986               0.000000000               0.000000000               0.000000000               0.000000000               0.000958425               0.007260845              -0.000000000              -0.000548195               0.002602989               0.002054794               0.000000000               0.000000000               0.000000000               0.000000000               0.000757788               0.006943217              -0.000000000              -0.000583730               0.002508959               0.001925229               0.000000000               0.000000000               0.000000000               0.000000000               0.000579518               0.006650848              -0.000000000              -0.000614035               0.002421605               0.001807570               0.000000000               0.000000000               0.000000000               0.000000000               0.000427140               0.006370952              -0.000000000              -0.000636190               0.002335693               0.001699503               0.000000000               0.000000000               0.000000000               0.000000000               0.000290375               0.006079255               0.000000000              -0.000651015               0.002243403               0.001592388               0.000000000               0.000000000               0.000000000               0.000000000               0.000173544               0.005764314              -0.000000000              -0.000655459               0.002139905               0.001484446               0.000000000               0.000000000               0.000000000               0.000000000               0.000085046               0.005414768              -0.000000000              -0.000644952               0.002019889               0.001374937               0.000000000               0.000000000               0.000000000               0.000000000               0.000031280               0.005014859              -0.000000000              -0.000615126               0.001876645               0.001261519               0.000000000               0.000000000               0.000000000               0.000000000              -0.000017976               0.004708230               0.000000000              -0.000595268               0.001767817               0.001172549               0.000000000               0.000000000               0.000000000               0.000000000               0.001842036               0.019302112              -0.001362896              -0.001721997               0.007007972               0.005285975               0.000000000               0.000000000               0.000000000               0.000000000               0.001760395               0.015348074              -0.000715819              -0.001258358               0.005535426               0.004277068               0.000000000               0.000000000               0.000000000               0.000000000               0.002235487               0.012198237              -0.000068850              -0.000686470               0.004294862               0.003608391               0.000000000               0.000000000               0.000000000               0.000000000               0.002122964               0.010443010               0.000203227              -0.000509263               0.003650723               0.003141459               0.000000000               0.000000000               0.000000000               0.000000000               0.001850543               0.009353181               0.000312742              -0.000475193               0.003276093               0.002800901               0.000000000               0.000000000               0.000000000               0.000000000               0.001556183               0.008615075               0.000351766              -0.000493315               0.003036101               0.002542787               0.000000000               0.000000000               0.000000000               0.000000000               0.001283669               0.008075157               0.000358037              -0.000528017               0.002867698               0.002339680               0.000000000               0.000000000               0.000000000               0.000000000               0.001044616               0.007651052               0.000349315              -0.000564649               0.002738542               0.002173892               0.000000000               0.000000000               0.000000000               0.000000000               0.000836944               0.007293568               0.000333914              -0.000597841               0.002630445               0.002032605               0.000000000               0.000000000               0.000000000               0.000000000               0.000651283               0.006976701               0.000318114              -0.000627855               0.002534829               0.001906974               0.000000000               0.000000000               0.000000000               0.000000000               0.000490535               0.006688388               0.000303018              -0.000652096               0.002446806               0.001794709               0.000000000               0.000000000               0.000000000               0.000000000               0.000355313               0.006411703               0.000281145              -0.000668219               0.002359953               0.001691734               0.000000000               0.000000000               0.000000000               0.000000000               0.000237178               0.006126643               0.000251149              -0.000676887               0.002267823               0.001590936               0.000000000               0.000000000               0.000000000               0.000000000               0.000137857               0.005823048               0.000214826              -0.000676183               0.002166391               0.001490208               0.000000000               0.000000000               0.000000000               0.000000000               0.000062514               0.005496295               0.000165297              -0.000663593               0.002053277               0.001389685               0.000000000               0.000000000               0.000000000               0.000000000               0.000019217               0.005137322               0.000093997              -0.000634957               0.001924076               0.001289119               0.000000000               0.000000000               0.000000000               0.000000000              -0.000020634               0.004869911               0.000057248              -0.000616475               0.001828779               0.001212304               0.000000000               0.000000000               0.000000000               0.000000000               0.002017385               0.018166129              -0.002543107              -0.001514244               0.006560064               0.005045819               0.000000000               0.000000000               0.000000000               0.000000000               0.001677406               0.014609992              -0.001341405              -0.001197219               0.005269021               0.004071802               0.000000000               0.000000000               0.000000000               0.000000000               0.001878567               0.011868294              -0.000151080              -0.000779072               0.004215749               0.003436677               0.000000000               0.000000000               0.000000000               0.000000000               0.001665353               0.010314584               0.000336133              -0.000664814               0.003659765               0.002994951               0.000000000               0.000000000               0.000000000               0.000000000               0.001374049               0.009330806               0.000528940              -0.000651081               0.003327265               0.002676184               0.000000000               0.000000000               0.000000000               0.000000000               0.001100896               0.008649273               0.000594891              -0.000668321               0.003105836               0.002437515               0.000000000               0.000000000               0.000000000               0.000000000               0.000867449               0.008136542               0.000602767              -0.000691773               0.002942744               0.002250972               0.000000000               0.000000000               0.000000000               0.000000000               0.000673775               0.007721818               0.000584005              -0.000712560               0.002811434               0.002098874               0.000000000               0.000000000               0.000000000               0.000000000               0.000514546               0.007370069               0.000555087              -0.000728302               0.002699432               0.001971130               0.000000000               0.000000000               0.000000000               0.000000000               0.000380126               0.007059131               0.000528461              -0.000739843               0.002599634               0.001859792               0.000000000               0.000000000               0.000000000               0.000000000               0.000269023               0.006773910               0.000501586              -0.000745854               0.002506565               0.001760712               0.000000000               0.000000000               0.000000000               0.000000000               0.000182180               0.006500869               0.000463495              -0.000744289               0.002415031               0.001670742               0.000000000               0.000000000               0.000000000               0.000000000               0.000112496               0.006231626               0.000411772              -0.000736765               0.002322776               0.001586011               0.000000000               0.000000000               0.000000000               0.000000000               0.000060542               0.005964370               0.000350111              -0.000722841               0.002229050               0.001506209               0.000000000               0.000000000               0.000000000               0.000000000               0.000027348               0.005701965               0.000269477              -0.000702488               0.002134799               0.001432310               0.000000000               0.000000000               0.000000000               0.000000000               0.000008311               0.005444204               0.000154128              -0.000677407               0.002040519               0.001363112               0.000000000               0.000000000               0.000000000               0.000000000              -0.000014179               0.005271505               0.000092438              -0.000664254               0.001978569               0.001314315               0.000000000               0.000000000               0.000000000               0.000000000               0.002216316               0.016443409              -0.003406165              -0.001224307               0.005889183               0.004664877               0.000000000               0.000000000               0.000000000               0.000000000               0.001515260               0.013506508              -0.001815296              -0.001120089               0.004875487               0.003755398               0.000000000               0.000000000               0.000000000               0.000000000               0.001333976               0.011376184              -0.000257971              -0.000921780               0.004099283               0.003177504               0.000000000               0.000000000               0.000000000               0.000000000               0.001010774               0.010112571               0.000352224              -0.000885029               0.003665833               0.002780804               0.000000000               0.000000000               0.000000000               0.000000000               0.000719868               0.009272336               0.000586288              -0.000889089               0.003387111               0.002498022               0.000000000               0.000000000               0.000000000               0.000000000               0.000489618               0.008661173               0.000663232              -0.000899038               0.003186708               0.002287670               0.000000000               0.000000000               0.000000000               0.000000000               0.000317114               0.008182188               0.000669623              -0.000903854               0.003028653               0.002124800               0.000000000               0.000000000               0.000000000               0.000000000               0.000193245               0.007783321               0.000646284              -0.000900446               0.002894563               0.001994117               0.000000000               0.000000000               0.000000000               0.000000000               0.000106278               0.007440723               0.000613670              -0.000890234               0.002776961               0.001886727               0.000000000               0.000000000               0.000000000               0.000000000               0.000044417               0.007134808               0.000581789              -0.000875193               0.002669976               0.001794784               0.000000000               0.000000000               0.000000000               0.000000000               0.000004809               0.006851948               0.000547673              -0.000854688               0.002568856               0.001714168               0.000000000               0.000000000               0.000000000               0.000000000              -0.000013651               0.006586594               0.000500935              -0.000828441               0.002471657               0.001643215               0.000000000               0.000000000               0.000000000               0.000000000              -0.000021360               0.006340658               0.000440080              -0.000800590               0.002380395               0.001579805               0.000000000               0.000000000               0.000000000               0.000000000              -0.000020933               0.006119216               0.000367770              -0.000772750               0.002297302               0.001524552               0.000000000               0.000000000               0.000000000               0.000000000              -0.000015365               0.005927032               0.000277005              -0.000746639               0.002224537               0.001477898               0.000000000               0.000000000               0.000000000               0.000000000              -0.000008781               0.005777686               0.000155348              -0.000725502               0.002167710               0.001442208               0.000000000               0.000000000               0.000000000               0.000000000              -0.000008883               0.005704132               0.000088077              -0.000716346               0.002140140               0.001423794               0.000000000               0.000000000               0.000000000               0.000000000               0.002330712               0.014347857              -0.003879399              -0.000919466               0.005089059               0.004169593               0.000000000               0.000000000               0.000000000               0.000000000               0.001254721               0.012182333              -0.002112347              -0.001052270               0.004411493               0.003359223               0.000000000               0.000000000               0.000000000               0.000000000               0.000672728               0.010778950              -0.000402194              -0.001095093               0.003957978               0.002862885               0.000000000               0.000000000               0.000000000               0.000000000               0.000272821               0.009839066               0.000236944              -0.001127573               0.003655513               0.002527941               0.000000000               0.000000000               0.000000000               0.000000000               0.000022147               0.009148725               0.000476766              -0.001135283               0.003427972               0.002292689               0.000000000               0.000000000               0.000000000               0.000000000              -0.000128634               0.008608958               0.000557114              -0.001124355               0.003244409               0.002120054               0.000000000               0.000000000               0.000000000               0.000000000              -0.000218185               0.008164095               0.000567257              -0.001102329               0.003088781               0.001986452               0.000000000               0.000000000               0.000000000               0.000000000              -0.000261263               0.007784220               0.000546846              -0.001070999               0.002951714               0.001880715               0.000000000               0.000000000               0.000000000               0.000000000              -0.000267244               0.007449282               0.000518284              -0.001031374               0.002826861               0.001795486               0.000000000               0.000000000               0.000000000               0.000000000              -0.000247136               0.007148028               0.000488033              -0.000986177               0.002711378               0.001725201               0.000000000               0.000000000               0.000000000               0.000000000              -0.000212564               0.006870442               0.000451951              -0.000938514               0.002602962               0.001664448               0.000000000               0.000000000               0.000000000               0.000000000              -0.000168634               0.006616934               0.000404304              -0.000890352               0.002502407               0.001612054               0.000000000               0.000000000               0.000000000               0.000000000              -0.000123368               0.006395014               0.000346260              -0.000845638               0.002413529               0.001567892               0.000000000               0.000000000               0.000000000               0.000000000              -0.000081289               0.006214560               0.000277155              -0.000807301               0.002340600               0.001533298               0.000000000               0.000000000               0.000000000               0.000000000              -0.000045576               0.006081045               0.000196874              -0.000777220               0.002286068               0.001508848               0.000000000               0.000000000               0.000000000               0.000000000              -0.000021126               0.006001096               0.000103671              -0.000758057               0.002253031               0.001494974               0.000000000               0.000000000               0.000000000               0.000000000              -0.000009124               0.005979874               0.000052616              -0.000750904               0.002243573               0.001492669               0.000000000               0.000000000               0.000000000               0.000000000               0.002266937               0.012090082              -0.003970994              -0.000661161               0.004250373               0.003589212               0.000000000               0.000000000               0.000000000               0.000000000               0.000890684               0.010776181              -0.002250068              -0.001013015               0.003929696               0.002916680               0.000000000               0.000000000               0.000000000               0.000000000              -0.000021766               0.010131754              -0.000593821              -0.001274628               0.003802094               0.002527465               0.000000000               0.000000000               0.000000000               0.000000000              -0.000431480               0.009499459               0.000004958              -0.001349234               0.003616199               0.002266965               0.000000000               0.000000000               0.000000000               0.000000000              -0.000601140               0.008943843               0.000233798              -0.001343404               0.003429052               0.002085648               0.000000000               0.000000000               0.000000000               0.000000000              -0.000650413               0.008466542               0.000319680              -0.001302220               0.003256226               0.001954006               0.000000000               0.000000000               0.000000000               0.000000000              -0.000641487               0.008051465               0.000342455              -0.001246988               0.003099457               0.001852470               0.000000000               0.000000000               0.000000000               0.000000000              -0.000595635               0.007689451               0.000333612              -0.001184542               0.002957972               0.001773430               0.000000000               0.000000000               0.000000000               0.000000000              -0.000524922               0.007363050               0.000314025              -0.001117224               0.002826734               0.001709509               0.000000000               0.000000000               0.000000000               0.000000000              -0.000439146               0.007066771               0.000291569              -0.001048024               0.002704908               0.001656884               0.000000000               0.000000000               0.000000000               0.000000000              -0.000341935               0.006799469               0.000262588              -0.000978157               0.002592519               0.001614362               0.000000000               0.000000000               0.000000000               0.000000000              -0.000246653               0.006565342               0.000225166              -0.000913160               0.002492812               0.001579652               0.000000000               0.000000000               0.000000000               0.000000000              -0.000166930               0.006372760               0.000182954              -0.000859191               0.002410629               0.001551438               0.000000000               0.000000000               0.000000000               0.000000000              -0.000105457               0.006227505               0.000136733              -0.000817982               0.002348475               0.001530493               0.000000000               0.000000000               0.000000000               0.000000000              -0.000061278               0.006123683               0.000085750              -0.000788438               0.002304020               0.001515582               0.000000000               0.000000000               0.000000000               0.000000000              -0.000027917               0.006056203               0.000038203              -0.000767492               0.002274545               0.001507053               0.000000000               0.000000000               0.000000000               0.000000000              -0.000016491               0.006025468               0.000019831              -0.000759366               0.002261591               0.001502225               0.000000000               0.000000000               0.000000000               0.000000000               0.001973218               0.009860038              -0.003740207              -0.000492551               0.003450829               0.002958278               0.000000000               0.000000000               0.000000000               0.000000000               0.000443684               0.009403051              -0.002263522              -0.001008999               0.003470651               0.002461652               0.000000000               0.000000000               0.000000000               0.000000000              -0.000670379               0.009463277              -0.000831005              -0.001434298               0.003632494               0.002198195               0.000000000               0.000000000               0.000000000               0.000000000              -0.001013817               0.009092426              -0.000310247              -0.001516731               0.003536355               0.002019624               0.000000000               0.000000000               0.000000000               0.000000000              -0.001068769               0.008653587              -0.000091052              -0.001482483               0.003378661               0.001896178               0.000000000               0.000000000               0.000000000               0.000000000              -0.001011375               0.008233643               0.000009230              -0.001408467               0.003214010               0.001805542               0.000000000               0.000000000               0.000000000               0.000000000              -0.000909558               0.007847984               0.000055253              -0.001322079               0.003056661               0.001734583               0.000000000               0.000000000               0.000000000               0.000000000              -0.000786472               0.007500139               0.000069562              -0.001232441               0.002910835               0.001678394               0.000000000               0.000000000               0.000000000               0.000000000              -0.000648892               0.007186802               0.000068697              -0.001141682               0.002776138               0.001634455               0.000000000               0.000000000               0.000000000               0.000000000              -0.000508678               0.006906912               0.000065586              -0.001054115               0.002653653               0.001599537               0.000000000               0.000000000               0.000000000               0.000000000              -0.000374585               0.006661681               0.000057352              -0.000973177               0.002544931               0.001571753               0.000000000               0.000000000               0.000000000               0.000000000              -0.000259709               0.006457111               0.000044667              -0.000904528               0.002453858               0.001549330               0.000000000               0.000000000               0.000000000               0.000000000              -0.000172992               0.006291909               0.000034624              -0.000851358               0.002381068               0.001529710               0.000000000               0.000000000               0.000000000               0.000000000              -0.000112398               0.006155698               0.000024770              -0.000811610               0.002322415               0.001510806               0.000000000               0.000000000               0.000000000               0.000000000              -0.000070010               0.006039640               0.000013539              -0.000781207               0.002273596               0.001492389               0.000000000               0.000000000               0.000000000               0.000000000              -0.000034873               0.005938973               0.000006695              -0.000755447               0.002231454               0.001476006               0.000000000               0.000000000               0.000000000               0.000000000              -0.000033431               0.005869437               0.000013486              -0.000746214               0.002205197               0.001458983               0.000000000               0.000000000               0.000000000               0.000000000               0.001460307               0.007793004              -0.003263929              -0.000426513               0.002739812               0.002313299               0.000000000               0.000000000               0.000000000               0.000000000              -0.000063197               0.008138953              -0.002193307              -0.001041067               0.003059979               0.002018912               0.000000000               0.000000000               0.000000000               0.000000000              -0.001212180               0.008778738              -0.001107903              -0.001551906               0.003443519               0.001891612               0.000000000               0.000000000               0.000000000               0.000000000              -0.001421692               0.008617782              -0.000664292              -0.001610353               0.003409350               0.001798996               0.000000000               0.000000000               0.000000000               0.000000000              -0.001347784               0.008283454              -0.000438895              -0.001540847               0.003274739               0.001733892               0.000000000               0.000000000               0.000000000               0.000000000              -0.001193671               0.007921131              -0.000311486              -0.001437764               0.003119605               0.001681841               0.000000000               0.000000000               0.000000000               0.000000000              -0.001016267               0.007572898              -0.000235236              -0.001327709               0.002966844               0.001639135               0.000000000               0.000000000               0.000000000               0.000000000              -0.000831072               0.007249003              -0.000188411              -0.001217775               0.002822235               0.001604461               0.000000000               0.000000000               0.000000000               0.000000000              -0.000646672               0.006958259              -0.000156413              -0.001112282               0.002690157               0.001577875               0.000000000               0.000000000               0.000000000               0.000000000              -0.000474550               0.006703662              -0.000127873              -0.001015911               0.002573169               0.001557257               0.000000000               0.000000000               0.000000000               0.000000000              -0.000331271               0.006485110              -0.000103525              -0.000934863               0.002473303               0.001538440               0.000000000               0.000000000               0.000000000               0.000000000              -0.000222270               0.006292547              -0.000080417              -0.000869917               0.002387467               0.001517550               0.000000000               0.000000000               0.000000000               0.000000000              -0.000151567               0.006112322              -0.000053989              -0.000820876               0.002311046               0.001490170               0.000000000               0.000000000               0.000000000               0.000000000              -0.000113350               0.005940285              -0.000028956              -0.000785040               0.002241755               0.001456715               0.000000000               0.000000000               0.000000000               0.000000000              -0.000086336               0.005782616              -0.000010107              -0.000755201               0.002179253               0.001424052               0.000000000               0.000000000               0.000000000               0.000000000              -0.000052801               0.005643085               0.000002090              -0.000725184               0.002122738               0.001397553               0.000000000               0.000000000               0.000000000               0.000000000              -0.000046817               0.005552219               0.000015570              -0.000711582               0.002087915               0.001376333               0.000000000               0.000000000               0.000000000               0.000000000               0.000820861               0.006030929              -0.002642732              -0.000446045               0.002158970               0.001712925               0.000000000               0.000000000               0.000000000               0.000000000              -0.000544052               0.007007925              -0.002090742              -0.001080009               0.002695954               0.001615945               0.000000000               0.000000000               0.000000000               0.000000000              -0.001603288               0.008110454              -0.001428816              -0.001615036               0.003241803               0.001626767               0.000000000               0.000000000               0.000000000               0.000000000              -0.001669622               0.008160690              -0.001036886              -0.001646190               0.003268933               0.001622742               0.000000000               0.000000000               0.000000000               0.000000000              -0.001493815               0.007943471              -0.000789042              -0.001553111               0.003165501               0.001612390               0.000000000               0.000000000               0.000000000               0.000000000              -0.001268006               0.007653271              -0.000623832              -0.001432158               0.003028451               0.001596293               0.000000000               0.000000000               0.000000000               0.000000000              -0.001034873               0.007356350              -0.000512469              -0.001307618               0.002887965               0.001580347               0.000000000               0.000000000               0.000000000               0.000000000              -0.000802031               0.007070015              -0.000429220              -0.001184510               0.002751485               0.001566974               0.000000000               0.000000000               0.000000000               0.000000000              -0.000583560               0.006805684              -0.000358830              -0.001069543               0.002625053               0.001555510               0.000000000               0.000000000               0.000000000               0.000000000              -0.000392688               0.006574815              -0.000293492              -0.000969108               0.002514619               0.001545511               0.000000000               0.000000000               0.000000000               0.000000000              -0.000250808               0.006357920              -0.000234040              -0.000888791               0.002415549               0.001526758               0.000000000               0.000000000               0.000000000               0.000000000              -0.000164658               0.006137591              -0.000180729              -0.000828944               0.002322158               0.001493214               0.000000000               0.000000000               0.000000000               0.000000000              -0.000124379               0.005919376              -0.000127340              -0.000786562               0.002235293               0.001448731               0.000000000               0.000000000               0.000000000               0.000000000              -0.000121357               0.005706197              -0.000075921              -0.000758782               0.002154974               0.001396192               0.000000000               0.000000000               0.000000000               0.000000000              -0.000128742               0.005510809              -0.000034473              -0.000737127               0.002082627               0.001345500               0.000000000               0.000000000               0.000000000               0.000000000              -0.000133384               0.005334191              -0.000007172              -0.000716791               0.002016976               0.001300185               0.000000000               0.000000000               0.000000000               0.000000000              -0.000134661               0.005235756               0.000005502              -0.000704966               0.001980223               0.001275257               0.000000000               0.000000000               0.000000000               0.000000000               0.000039250               0.004379734              -0.001971681              -0.000532749               0.001637479               0.001104730               0.000000000               0.000000000               0.000000000               0.000000000              -0.000926747               0.005703612              -0.001970773              -0.001060480               0.002254678               0.001194198               0.000000000               0.000000000               0.000000000               0.000000000              -0.001789950               0.007137397              -0.001777027              -0.001563403               0.002900242               0.001336840               0.000000000               0.000000000               0.000000000               0.000000000              -0.001785580               0.007481643              -0.001448222              -0.001604794               0.003028787               0.001423993               0.000000000               0.000000000               0.000000000               0.000000000              -0.001571149               0.007465226              -0.001175077              -0.001522331               0.002995827               0.001473496               0.000000000               0.000000000               0.000000000               0.000000000              -0.001318587               0.007322521              -0.000969051              -0.001409782               0.002910743               0.001500961               0.000000000               0.000000000               0.000000000               0.000000000              -0.001069502               0.007137373              -0.000817953              -0.001293232               0.002810178               0.001516946               0.000000000               0.000000000               0.000000000               0.000000000              -0.000830108               0.006930869              -0.000696433              -0.001177646               0.002702815               0.001525169               0.000000000               0.000000000               0.000000000               0.000000000              -0.000604217               0.006723109              -0.000589758              -0.001066968               0.002596670               0.001529702               0.000000000               0.000000000               0.000000000               0.000000000              -0.000406773               0.006523205              -0.000490930              -0.000967938               0.002497026               0.001529088               0.000000000               0.000000000               0.000000000               0.000000000              -0.000259959               0.006305881              -0.000396799              -0.000885718               0.002397178               0.001511461               0.000000000               0.000000000               0.000000000               0.000000000              -0.000169185               0.006075687              -0.000307490              -0.000822903               0.002299510               0.001476606               0.000000000               0.000000000               0.000000000               0.000000000              -0.000130445               0.005839397              -0.000220328              -0.000778840               0.002206060               0.001427220               0.000000000               0.000000000               0.000000000               0.000000000              -0.000141493               0.005605544              -0.000139877              -0.000753751               0.002119746               0.001365995               0.000000000               0.000000000               0.000000000               0.000000000              -0.000182785               0.005392479              -0.000073107              -0.000742602               0.002045009               0.001302407               0.000000000               0.000000000               0.000000000               0.000000000              -0.000236744               0.005191932              -0.000023533              -0.000737769               0.001976550               0.001238781               0.000000000               0.000000000               0.000000000               0.000000000              -0.000266900               0.005088252              -0.000002609              -0.000736117               0.001941439               0.001205322               0.000000000               0.000000000               0.000000000               0.000000000              -0.001001834               0.002873530              -0.001289276              -0.000734878               0.001202793               0.000467915               0.000000000               0.000000000               0.000000000               0.000000000              -0.001362874               0.004396614              -0.001785830              -0.001060653               0.001819074               0.000758421               0.000000000               0.000000000               0.000000000               0.000000000              -0.001891132               0.006020032              -0.002048685              -0.001461676               0.002493882               0.001032206               0.000000000               0.000000000               0.000000000               0.000000000              -0.001825575               0.006645880              -0.001838773              -0.001515323               0.002720378               0.001205056               0.000000000               0.000000000               0.000000000               0.000000000              -0.001598140               0.006861035              -0.001570077              -0.001456929               0.002772631               0.001315703               0.000000000               0.000000000               0.000000000               0.000000000              -0.001337931               0.006898324              -0.001336505              -0.001364012               0.002754089               0.001390077               0.000000000               0.000000000               0.000000000               0.000000000              -0.001089733               0.006851047              -0.001149374              -0.001265028               0.002705335               0.001440308               0.000000000               0.000000000               0.000000000               0.000000000              -0.000855192               0.006749840              -0.000995574              -0.001164424               0.002638066               0.001473641               0.000000000               0.000000000               0.000000000               0.000000000              -0.000630577               0.006623703              -0.000860362              -0.001064427               0.002562688               0.001498261               0.000000000               0.000000000               0.000000000               0.000000000              -0.000426251               0.006478938              -0.000734999              -0.000969709               0.002482861               0.001513152               0.000000000               0.000000000               0.000000000               0.000000000              -0.000260964               0.006291698              -0.000617286              -0.000884322               0.002391985               0.001507664               0.000000000               0.000000000               0.000000000               0.000000000              -0.000146731               0.006076540              -0.000502175              -0.000814590               0.002297023               0.001482433               0.000000000               0.000000000               0.000000000               0.000000000              -0.000085360               0.005849875              -0.000383233              -0.000763242               0.002204353               0.001441110               0.000000000               0.000000000               0.000000000               0.000000000              -0.000078648               0.005616453              -0.000265088              -0.000731548               0.002115982               0.001384434               0.000000000               0.000000000               0.000000000               0.000000000              -0.000126816               0.005393098              -0.000159699              -0.000721692               0.002038245               0.001316554               0.000000000               0.000000000               0.000000000               0.000000000              -0.000217837               0.005187495              -0.000070303              -0.000730124               0.001972522               0.001242398               0.000000000               0.000000000               0.000000000               0.000000000              -0.000288570               0.005078861              -0.000023002              -0.000743069               0.001940626               0.001197557               0.000000000               0.000000000               0.000000000               0.000000000              -0.002231757               0.001616933              -0.000643407              -0.001039024               0.000885312              -0.000153711               0.000000000               0.000000000               0.000000000               0.000000000              -0.001901838               0.003161781              -0.001511299              -0.001108410               0.001423386               0.000314976               0.000000000               0.000000000               0.000000000               0.000000000              -0.001949738               0.004776147              -0.002144277              -0.001328168               0.002034755               0.000706587               0.000000000               0.000000000               0.000000000               0.000000000              -0.001763844               0.005604565              -0.002088272              -0.001362010               0.002322172               0.000960162               0.000000000               0.000000000               0.000000000               0.000000000              -0.001513908               0.006036115              -0.001868483              -0.001322227               0.002452760               0.001130533               0.000000000               0.000000000               0.000000000               0.000000000              -0.001254459               0.006260828              -0.001637026              -0.001253023               0.002504596               0.001251573               0.000000000               0.000000000               0.000000000               0.000000000              -0.001011110               0.006367092              -0.001434794              -0.001175050               0.002514026               0.001338975               0.000000000               0.000000000               0.000000000               0.000000000              -0.000785802               0.006396793              -0.001261494              -0.001094273               0.002497000               0.001402728               0.000000000               0.000000000               0.000000000               0.000000000              -0.000571837               0.006379520              -0.001106819              -0.001011877               0.002463777               0.001451901               0.000000000               0.000000000               0.000000000               0.000000000              -0.000371211               0.006316969              -0.000969357              -0.000928823               0.002415243               0.001486420               0.000000000               0.000000000               0.000000000               0.000000000              -0.000194144               0.006188333              -0.000840771              -0.000846344               0.002344871               0.001498528               0.000000000               0.000000000               0.000000000               0.000000000              -0.000056075               0.006015344              -0.000707348              -0.000772944               0.002262743               0.001489798               0.000000000               0.000000000               0.000000000               0.000000000               0.000030157               0.005817594              -0.000566643              -0.000715889               0.002177808               0.001461919               0.000000000               0.000000000               0.000000000               0.000000000               0.000067192               0.005605576              -0.000421487              -0.000675498               0.002093673               0.001418174               0.000000000               0.000000000               0.000000000               0.000000000               0.000049769               0.005392106              -0.000276673              -0.000655348               0.002015800               0.001360452               0.000000000               0.000000000               0.000000000               0.000000000              -0.000034413               0.005188949              -0.000134517              -0.000661522               0.001950140               0.001288618               0.000000000               0.000000000               0.000000000               0.000000000              -0.000118082               0.005078753              -0.000056004              -0.000679123               0.001919275               0.001240152               0.000000000               0.000000000               0.000000000               0.000000000              -0.003559179               0.000677124              -0.000114314              -0.001419331               0.000698814              -0.000720517               0.000000000               0.000000000               0.000000000               0.000000000              -0.002512458               0.002065805              -0.001177267              -0.001200395               0.001088725              -0.000111670               0.000000000               0.000000000               0.000000000               0.000000000              -0.001992389               0.003507722              -0.002040004              -0.001185609               0.001564431               0.000378822               0.000000000               0.000000000               0.000000000               0.000000000              -0.001625027               0.004442288              -0.002127905              -0.001164670               0.001868970               0.000704301               0.000000000               0.000000000               0.000000000               0.000000000              -0.001324148               0.005043773              -0.001985788              -0.001127025               0.002056915               0.000929890               0.000000000               0.000000000               0.000000000               0.000000000              -0.001059751               0.005437854              -0.001788712              -0.001077137               0.002171645               0.001094508               0.000000000               0.000000000               0.000000000               0.000000000              -0.000825027               0.005699232              -0.001596981              -0.001021788               0.002240321               0.001218533               0.000000000               0.000000000               0.000000000               0.000000000              -0.000613787               0.005867717              -0.001423318              -0.000963633               0.002277097               0.001313464               0.000000000               0.000000000               0.000000000               0.000000000              -0.000412298               0.005973277              -0.001266325              -0.000901270               0.002291495               0.001390226               0.000000000               0.000000000               0.000000000               0.000000000              -0.000217134               0.006014674              -0.001130491              -0.000833258               0.002282624               0.001449366               0.000000000               0.000000000               0.000000000               0.000000000              -0.000041922               0.005970348              -0.001001893              -0.000762013               0.002244100               0.001482088               0.000000000               0.000000000               0.000000000               0.000000000               0.000110718               0.005866106              -0.000862338              -0.000691743               0.002185930               0.001494187               0.000000000               0.000000000               0.000000000               0.000000000               0.000231828               0.005723484              -0.000714265              -0.000628499               0.002117308               0.001488810               0.000000000               0.000000000               0.000000000               0.000000000               0.000312769               0.005553943              -0.000560086              -0.000576953               0.002043614               0.001466660               0.000000000               0.000000000               0.000000000               0.000000000               0.000347821               0.005368802              -0.000391541              -0.000540666               0.001969805               0.001429139               0.000000000               0.000000000               0.000000000               0.000000000               0.000323567               0.005183046              -0.000203290              -0.000526542               0.001903179               0.001376637               0.000000000               0.000000000               0.000000000               0.000000000               0.000276072               0.005083604              -0.000098805              -0.000531922               0.001871825               0.001339903               0.000000000               0.000000000               0.000000000               0.000000000              -0.004849895               0.000052987               0.000218978              -0.001825332               0.000626102              -0.001199230               0.000000000               0.000000000               0.000000000               0.000000000              -0.003137614               0.001175036              -0.000829806              -0.001323483               0.000832834              -0.000490649               0.000000000               0.000000000               0.000000000               0.000000000              -0.002033231               0.002337688              -0.001734577              -0.001054671               0.001130777               0.000076106               0.000000000               0.000000000               0.000000000               0.000000000              -0.001443623               0.003285259              -0.001915941              -0.000952015               0.001412413               0.000460398               0.000000000               0.000000000               0.000000000               0.000000000              -0.001064611               0.003995060              -0.001852006              -0.000898610               0.001631209               0.000732599               0.000000000               0.000000000               0.000000000               0.000000000              -0.000784252               0.004523865              -0.001708938              -0.000859577               0.001794465               0.000934888               0.000000000               0.000000000               0.000000000               0.000000000              -0.000555265               0.004922956              -0.001551114              -0.000823593               0.001915499               0.001091907               0.000000000               0.000000000               0.000000000               0.000000000              -0.000357983               0.005219501              -0.001401092              -0.000786680               0.002002043               0.001215363               0.000000000               0.000000000               0.000000000               0.000000000              -0.000168994               0.005443234              -0.001265941              -0.000743776               0.002062318               0.001318542               0.000000000               0.000000000               0.000000000               0.000000000               0.000015134               0.005592653              -0.001146244              -0.000693405               0.002095334               0.001401929               0.000000000               0.000000000               0.000000000               0.000000000               0.000182633               0.005650668              -0.001028027              -0.000637845               0.002096152               0.001458307               0.000000000               0.000000000               0.000000000               0.000000000               0.000342178               0.005636415              -0.000900636              -0.000576234               0.002070864               0.001494630               0.000000000               0.000000000               0.000000000               0.000000000               0.000493914               0.005565294              -0.000763786              -0.000510443               0.002025227               0.001514784               0.000000000               0.000000000               0.000000000               0.000000000               0.000631403               0.005455345              -0.000617044              -0.000445141               0.001966811               0.001521669               0.000000000               0.000000000               0.000000000               0.000000000               0.000746937               0.005316701              -0.000451436              -0.000384485               0.001900378               0.001515892               0.000000000               0.000000000               0.000000000               0.000000000               0.000831152               0.005162294              -0.000247358              -0.000333604               0.001831949               0.001498345               0.000000000               0.000000000               0.000000000               0.000000000               0.000872561               0.005087610              -0.000133936              -0.000308740               0.001798766               0.001490026               0.000000000               0.000000000               0.000000000               0.000000000              -0.005943429              -0.000310283               0.000319878              -0.002189999               0.000626568              -0.001563431               0.000000000               0.000000000               0.000000000               0.000000000              -0.003689814               0.000526580              -0.000512885              -0.001449501               0.000658689              -0.000790812               0.000000000               0.000000000               0.000000000               0.000000000              -0.002074886               0.001388197              -0.001258157              -0.000951605               0.000779928              -0.000171677               0.000000000               0.000000000               0.000000000               0.000000000              -0.001264443               0.002288890              -0.001451321              -0.000760276               0.001016380               0.000256104               0.000000000               0.000000000               0.000000000               0.000000000              -0.000798196               0.003055192              -0.001439155              -0.000681222               0.001245460               0.000564239               0.000000000               0.000000000               0.000000000               0.000000000              -0.000492949               0.003676370              -0.001352683              -0.000644401               0.001440244               0.000795843               0.000000000               0.000000000               0.000000000               0.000000000              -0.000263889               0.004175498              -0.001244261              -0.000620895               0.001598783               0.000977888               0.000000000               0.000000000               0.000000000               0.000000000              -0.000073460               0.004572794              -0.001137217              -0.000599146               0.001723965               0.001124819               0.000000000               0.000000000               0.000000000               0.000000000               0.000107024               0.004896703              -0.001041169              -0.000571953               0.001822869               0.001250916               0.000000000               0.000000000               0.000000000               0.000000000               0.000277335               0.005141150              -0.000951876              -0.000538642               0.001893247               0.001354604               0.000000000               0.000000000               0.000000000               0.000000000               0.000436264               0.005289420              -0.000861932              -0.000497578               0.001928981               0.001431404               0.000000000               0.000000000               0.000000000               0.000000000               0.000599356               0.005361888              -0.000763876              -0.000445477               0.001935770               0.001490294               0.000000000               0.000000000               0.000000000               0.000000000               0.000774374               0.005370641              -0.000657266              -0.000380939               0.001917175               0.001536236               0.000000000               0.000000000               0.000000000               0.000000000               0.000966253               0.005329468              -0.000542825              -0.000303838               0.001877751               0.001573913               0.000000000               0.000000000               0.000000000               0.000000000               0.001173428               0.005248277              -0.000409123              -0.000215999               0.001821408               0.001605409               0.000000000               0.000000000               0.000000000               0.000000000               0.001390351               0.005133458              -0.000230221              -0.000120300               0.001751236               0.001630935               0.000000000               0.000000000               0.000000000               0.000000000               0.001553023               0.005089731              -0.000131833              -0.000053833               0.001714504               0.001660671               0.000000000               0.000000000               0.000000000               0.000000000              -0.006677069              -0.000490316               0.000219128              -0.002442610               0.000650760              -0.001791850               0.000000000               0.000000000               0.000000000               0.000000000              -0.004068897               0.000132600              -0.000240402              -0.001542410               0.000558333              -0.000984077               0.000000000               0.000000000               0.000000000               0.000000000              -0.002109342               0.000766169              -0.000659772              -0.000886773               0.000550977              -0.000335796               0.000000000               0.000000000               0.000000000               0.000000000              -0.001140757               0.001610111              -0.000781773              -0.000629047               0.000746380               0.000117333               0.000000000               0.000000000               0.000000000               0.000000000              -0.000606445               0.002398383              -0.000786711              -0.000527214               0.000975191               0.000447977               0.000000000               0.000000000               0.000000000               0.000000000              -0.000272449               0.003072668              -0.000747709              -0.000486251               0.001186296               0.000700045               0.000000000               0.000000000               0.000000000               0.000000000              -0.000036597               0.003628375              -0.000693939              -0.000467270               0.001365203               0.000897933               0.000000000               0.000000000               0.000000000               0.000000000               0.000154244               0.004087238              -0.000640209              -0.000453062               0.001513420               0.001060357               0.000000000               0.000000000               0.000000000               0.000000000               0.000327029               0.004479337              -0.000590815              -0.000437280               0.001638858               0.001201577               0.000000000               0.000000000               0.000000000               0.000000000               0.000488012               0.004789667              -0.000542797              -0.000415703               0.001735107               0.001319404               0.000000000               0.000000000               0.000000000               0.000000000               0.000641534               0.004997981              -0.000494694              -0.000384171               0.001794034               0.001409863               0.000000000               0.000000000               0.000000000               0.000000000               0.000806901               0.005128692              -0.000441407              -0.000338498               0.001822379               0.001483882               0.000000000               0.000000000               0.000000000               0.000000000               0.001000323               0.005197482              -0.000382857              -0.000274564               0.001823998               0.001549434               0.000000000               0.000000000               0.000000000               0.000000000               0.001231168               0.005215790              -0.000320465              -0.000190285               0.001802008               0.001611722               0.000000000               0.000000000               0.000000000               0.000000000               0.001505314               0.005186009              -0.000244430              -0.000083758               0.001756572               0.001672814               0.000000000               0.000000000               0.000000000               0.000000000               0.001833685               0.005107102              -0.000138400               0.000049243               0.001685936               0.001735179               0.000000000               0.000000000               0.000000000               0.000000000               0.002105137               0.005090338              -0.000081998               0.000153132               0.001645718               0.001798851               0.000000000               0.000000000               0.000000000               0.000000000               0.000000000               0.000000000               0.000000000               0.000000000               0.000000000               0.000000000               0.000000000               0.000000000               0.000000000               0.000000000               0.000000000               0.000000000               0.000000000               0.000000000               0.000000000               0.000000000               0.000000000               0.000000000               0.000000000               0.000000000               0.000000000               0.000000000               0.000000000               0.000000000               0.000000000               0.000000000               0.000000000               0.000000000               0.000000000               0.000000000               0.000000000               0.000000000               0.000000000               0.000000000               0.000000000               0.000000000               0.000000000               0.000000000               0.000000000               0.000000000               0.000000000               0.000000000               0.000000000               0.000000000               0.000000000               0.000000000               0.000000000               0.000000000               0.000000000               0.000000000               0.000000000               0.000000000               0.000000000               0.000000000               0.000000000               0.000000000               0.000000000               0.000000000               0.000000000               0.000000000               0.000000000               0.000000000               0.000000000               0.000000000               0.000000000               0.000000000               0.000000000               0.000000000               0.000000000               0.000000000               0.000000000               0.000000000               0.000000000               0.000000000               0.000000000               0.000000000               0.000000000               0.000000000               0.000000000               0.000000000               0.000000000               0.000000000               0.000000000               0.000000000               0.000000000               0.000000000               0.000000000               0.000000000               0.000000000               0.000000000               0.000000000               0.000000000               0.000000000               0.000000000               0.000000000               0.000000000               0.000000000               0.000000000               0.000000000               0.000000000               0.000000000               0.000000000               0.000000000               0.000000000               0.000000000               0.000000000               0.000000000               0.000000000               0.000000000               0.000000000               0.000000000               0.000000000               0.000000000               0.000000000               0.000000000               0.000000000               0.000000000               0.000000000               0.000000000               0.000000000               0.000000000               0.000000000               0.000000000               0.000000000               0.000000000               0.000000000               0.000000000               0.000000000               0.000000000               0.000000000               0.000000000               0.000000000               0.000000000               0.000000000               0.000000000               0.000000000               0.000000000               0.000000000               0.000000000               0.000000000               0.000000000               0.000000000               0.000000000               0.000000000               0.000000000               0.000000000               0.000000000               0.000000000               0.000000000               0.000000000               0.000000000               0.000000000               0.000000000               0.000000000               0.000000000               0.000000000               0.000000000               0.000000000               0.000000000               0.000000000               0.000000000               0.000000000               0.000000000               0.000000000               0.000000000               0.000000000               0.000000000               0.000000000               0.000000000               0.000000000               0.000000000               0.000000000               0.000000000               0.000000000               0.000000000               0.000000000               0.000000000               0.000000000               0.000000000               0.000000000               0.000000000               0.000000000               0.000000000               0.000000000               0.000000000               0.000000000               0.000000000               0.000000000               0.000000000               0.000000000               0.000000000               0.000000000               0.000000000               0.000000000               0.000000000               0.000000000               0.000000000               0.000000000               0.000000000               0.000000000               0.000000000               0.000000000               0.000000000               0.000000000               0.000000000               0.000000000               0.000000000               0.000000000               0.000000000               0.000000000               0.000000000               0.000000000               0.000000000               0.000000000               0.000000000               0.000000000               0.000000000               0.000000000               0.000000000               0.000000000               0.000000000               0.000000000               0.000000000               0.000000000               0.000000000               0.000000000               0.000000000               0.000000000               0.000000000               0.000000000               0.000000000               0.000000000               0.000000000               0.000000000               0.000000000               0.000000000               0.000000000               0.000000000               0.000000000               0.000000000               0.000000000               0.000000000               0.000000000               0.000000000               0.000000000               0.000000000               0.000000000               0.000000000               0.000000000               0.000000000               0.000000000               0.000000000               0.000000000               0.000000000               0.000000000               0.000000000               0.000000000               0.000000000               0.000000000               0.000000000               0.000000000               0.000000000               0.000000000               0.000000000               0.000000000               0.000000000               0.000000000               0.000000000               0.000000000               0.000000000               0.000000000               0.000000000               0.000000000               0.000000000               0.000000000               0.000000000               0.000000000               0.000000000               0.000000000               0.000000000               0.000000000               0.000000000               0.000000000               0.000000000               0.000000000               0.000000000               0.000000000               0.000000000               0.000000000               0.000000000               0.000000000               0.000000000               0.000000000               0.000000000               0.000000000               0.000000000               0.000000000               0.000000000               0.000000000               0.000000000               0.000000000               0.000000000               0.000000000               0.000000000               0.000000000               0.000000000               0.000000000               0.000000000               0.000000000               0.000000000               0.000000000               0.000000000               0.000000000               0.000000000               0.000000000               0.000000000               0.000000000               0.000000000               0.000000000               0.000000000               0.000000000               0.000000000               0.000000000               0.000000000               0.000000000               0.000000000               0.000000000               0.000000000               0.000000000               0.000000000               0.000000000               0.000000000               0.000000000               0.000000000               0.000000000               0.000000000               0.000000000               0.000000000               0.000000000               0.000000000               0.001842036               0.019302112               0.001362896              -0.001721997               0.007007972               0.005285975               0.000000000               0.000000000               0.000000000               0.000000000               0.001760395               0.015348074               0.000715819              -0.001258358               0.005535426               0.004277068               0.000000000               0.000000000               0.000000000               0.000000000               0.002235487               0.012198237               0.000068850              -0.000686470               0.004294862               0.003608391               0.000000000               0.000000000               0.000000000               0.000000000               0.002122964               0.010443010              -0.000203227              -0.000509263               0.003650723               0.003141459               0.000000000               0.000000000               0.000000000               0.000000000               0.001850543               0.009353181              -0.000312742              -0.000475193               0.003276093               0.002800901               0.000000000               0.000000000               0.000000000               0.000000000               0.001556183               0.008615075              -0.000351766              -0.000493315               0.003036101               0.002542787               0.000000000               0.000000000               0.000000000               0.000000000               0.001283669               0.008075157              -0.000358037              -0.000528017               0.002867698               0.002339680               0.000000000               0.000000000               0.000000000               0.000000000               0.001044616               0.007651052              -0.000349315              -0.000564649               0.002738542               0.002173892               0.000000000               0.000000000               0.000000000               0.000000000               0.000836944               0.007293568              -0.000333914              -0.000597841               0.002630445               0.002032605               0.000000000               0.000000000               0.000000000               0.000000000               0.000651283               0.006976701              -0.000318114              -0.000627855               0.002534829               0.001906974               0.000000000               0.000000000               0.000000000               0.000000000               0.000490535               0.006688388              -0.000303018              -0.000652096               0.002446806               0.001794709               0.000000000               0.000000000               0.000000000               0.000000000               0.000355313               0.006411703              -0.000281145              -0.000668219               0.002359953               0.001691734               0.000000000               0.000000000               0.000000000               0.000000000               0.000237178               0.006126643              -0.000251149              -0.000676887               0.002267823               0.001590936               0.000000000               0.000000000               0.000000000               0.000000000               0.000137857               0.005823048              -0.000214826              -0.000676183               0.002166391               0.001490208               0.000000000               0.000000000               0.000000000               0.000000000               0.000062514               0.005496295              -0.000165297              -0.000663593               0.002053277               0.001389685               0.000000000               0.000000000               0.000000000               0.000000000               0.000019217               0.005137322              -0.000093997              -0.000634957               0.001924076               0.001289119               0.000000000               0.000000000               0.000000000               0.000000000              -0.000020634               0.004869911              -0.000057248              -0.000616475               0.001828779               0.001212304               0.000000000               0.000000000               0.000000000               0.000000000               0.002017385               0.018166129               0.002543107              -0.001514244               0.006560064               0.005045819               0.000000000               0.000000000               0.000000000               0.000000000               0.001677406               0.014609992               0.001341405              -0.001197219               0.005269021               0.004071802               0.000000000               0.000000000               0.000000000               0.000000000               0.001878567               0.011868294               0.000151080              -0.000779072               0.004215749               0.003436677               0.000000000               0.000000000               0.000000000               0.000000000               0.001665353               0.010314584              -0.000336133              -0.000664814               0.003659765               0.002994951               0.000000000               0.000000000               0.000000000               0.000000000               0.001374049               0.009330806              -0.000528940              -0.000651081               0.003327265               0.002676184               0.000000000               0.000000000               0.000000000               0.000000000               0.001100896               0.008649273              -0.000594891              -0.000668321               0.003105836               0.002437515               0.000000000               0.000000000               0.000000000               0.000000000               0.000867449               0.008136542              -0.000602767              -0.000691773               0.002942744               0.002250972               0.000000000               0.000000000               0.000000000               0.000000000               0.000673775               0.007721818              -0.000584005              -0.000712560               0.002811434               0.002098874               0.000000000               0.000000000               0.000000000               0.000000000               0.000514546               0.007370069              -0.000555087              -0.000728302               0.002699432               0.001971130               0.000000000               0.000000000               0.000000000               0.000000000               0.000380126               0.007059131              -0.000528461              -0.000739843               0.002599634               0.001859792               0.000000000               0.000000000               0.000000000               0.000000000               0.000269023               0.006773910              -0.000501586              -0.000745854               0.002506565               0.001760712               0.000000000               0.000000000               0.000000000               0.000000000               0.000182180               0.006500869              -0.000463495              -0.000744289               0.002415031               0.001670742               0.000000000               0.000000000               0.000000000               0.000000000               0.000112496               0.006231626              -0.000411772              -0.000736765               0.002322776               0.001586011               0.000000000               0.000000000               0.000000000               0.000000000               0.000060542               0.005964370              -0.000350111              -0.000722841               0.002229050               0.001506209               0.000000000               0.000000000               0.000000000               0.000000000               0.000027348               0.005701965              -0.000269477              -0.000702488               0.002134799               0.001432310               0.000000000               0.000000000               0.000000000               0.000000000               0.000008311               0.005444204              -0.000154128              -0.000677407               0.002040519               0.001363112               0.000000000               0.000000000               0.000000000               0.000000000              -0.000014179               0.005271505              -0.000092438              -0.000664254               0.001978569               0.001314315               0.000000000               0.000000000               0.000000000               0.000000000               0.002216316               0.016443409               0.003406165              -0.001224307               0.005889183               0.004664877               0.000000000               0.000000000               0.000000000               0.000000000               0.001515260               0.013506508               0.001815296              -0.001120089               0.004875487               0.003755398               0.000000000               0.000000000               0.000000000               0.000000000               0.001333976               0.011376184               0.000257971              -0.000921780               0.004099283               0.003177504               0.000000000               0.000000000               0.000000000               0.000000000               0.001010774               0.010112571              -0.000352224              -0.000885029               0.003665833               0.002780804               0.000000000               0.000000000               0.000000000               0.000000000               0.000719868               0.009272336              -0.000586288              -0.000889089               0.003387111               0.002498022               0.000000000               0.000000000               0.000000000               0.000000000               0.000489618               0.008661173              -0.000663232              -0.000899038               0.003186708               0.002287670               0.000000000               0.000000000               0.000000000               0.000000000               0.000317114               0.008182188              -0.000669623              -0.000903854               0.003028653               0.002124800               0.000000000               0.000000000               0.000000000               0.000000000               0.000193245               0.007783321              -0.000646284              -0.000900446               0.002894563               0.001994117               0.000000000               0.000000000               0.000000000               0.000000000               0.000106278               0.007440723              -0.000613670              -0.000890234               0.002776961               0.001886727               0.000000000               0.000000000               0.000000000               0.000000000               0.000044417               0.007134808              -0.000581789              -0.000875193               0.002669976               0.001794784               0.000000000               0.000000000               0.000000000               0.000000000               0.000004809               0.006851948              -0.000547673              -0.000854688               0.002568856               0.001714168               0.000000000               0.000000000               0.000000000               0.000000000              -0.000013651               0.006586594              -0.000500935              -0.000828441               0.002471657               0.001643215               0.000000000               0.000000000               0.000000000               0.000000000              -0.000021360               0.006340658              -0.000440080              -0.000800590               0.002380395               0.001579805               0.000000000               0.000000000               0.000000000               0.000000000              -0.000020933               0.006119216              -0.000367770              -0.000772750               0.002297302               0.001524552               0.000000000               0.000000000               0.000000000               0.000000000              -0.000015365               0.005927032              -0.000277005              -0.000746639               0.002224537               0.001477898               0.000000000               0.000000000               0.000000000               0.000000000              -0.000008781               0.005777686              -0.000155348              -0.000725502               0.002167710               0.001442208               0.000000000               0.000000000               0.000000000               0.000000000              -0.000008883               0.005704132              -0.000088077              -0.000716346               0.002140140               0.001423794               0.000000000               0.000000000               0.000000000               0.000000000               0.002330712               0.014347857               0.003879399              -0.000919466               0.005089059               0.004169593               0.000000000               0.000000000               0.000000000               0.000000000               0.001254721               0.012182333               0.002112347              -0.001052270               0.004411493               0.003359223               0.000000000               0.000000000               0.000000000               0.000000000               0.000672728               0.010778950               0.000402194              -0.001095093               0.003957978               0.002862885               0.000000000               0.000000000               0.000000000               0.000000000               0.000272821               0.009839066              -0.000236944              -0.001127573               0.003655513               0.002527941               0.000000000               0.000000000               0.000000000               0.000000000               0.000022147               0.009148725              -0.000476766              -0.001135283               0.003427972               0.002292689               0.000000000               0.000000000               0.000000000               0.000000000              -0.000128634               0.008608958              -0.000557114              -0.001124355               0.003244409               0.002120054               0.000000000               0.000000000               0.000000000               0.000000000              -0.000218185               0.008164095              -0.000567257              -0.001102329               0.003088781               0.001986452               0.000000000               0.000000000               0.000000000               0.000000000              -0.000261263               0.007784220              -0.000546846              -0.001070999               0.002951714               0.001880715               0.000000000               0.000000000               0.000000000               0.000000000              -0.000267244               0.007449282              -0.000518284              -0.001031374               0.002826861               0.001795486               0.000000000               0.000000000               0.000000000               0.000000000              -0.000247136               0.007148028              -0.000488033              -0.000986177               0.002711378               0.001725201               0.000000000               0.000000000               0.000000000               0.000000000              -0.000212564               0.006870442              -0.000451951              -0.000938514               0.002602962               0.001664448               0.000000000               0.000000000               0.000000000               0.000000000              -0.000168634               0.006616934              -0.000404304              -0.000890352               0.002502407               0.001612054               0.000000000               0.000000000               0.000000000               0.000000000              -0.000123368               0.006395014              -0.000346260              -0.000845638               0.002413529               0.001567892               0.000000000               0.000000000               0.000000000               0.000000000              -0.000081289               0.006214560              -0.000277155              -0.000807301               0.002340600               0.001533298               0.000000000               0.000000000               0.000000000               0.000000000              -0.000045576               0.006081045              -0.000196874              -0.000777220               0.002286068               0.001508848               0.000000000               0.000000000               0.000000000               0.000000000              -0.000021126               0.006001096              -0.000103671              -0.000758057               0.002253031               0.001494974               0.000000000               0.000000000               0.000000000               0.000000000              -0.000009124               0.005979874              -0.000052616              -0.000750904               0.002243573               0.001492669               0.000000000               0.000000000               0.000000000               0.000000000               0.002266937               0.012090082               0.003970994              -0.000661161               0.004250373               0.003589212               0.000000000               0.000000000               0.000000000               0.000000000               0.000890684               0.010776181               0.002250068              -0.001013015               0.003929696               0.002916680               0.000000000               0.000000000               0.000000000               0.000000000              -0.000021766               0.010131754               0.000593821              -0.001274628               0.003802094               0.002527465               0.000000000               0.000000000               0.000000000               0.000000000              -0.000431480               0.009499459              -0.000004958              -0.001349234               0.003616199               0.002266965               0.000000000               0.000000000               0.000000000               0.000000000              -0.000601140               0.008943843              -0.000233798              -0.001343404               0.003429052               0.002085648               0.000000000               0.000000000               0.000000000               0.000000000              -0.000650413               0.008466542              -0.000319680              -0.001302220               0.003256226               0.001954006               0.000000000               0.000000000               0.000000000               0.000000000              -0.000641487               0.008051465              -0.000342455              -0.001246988               0.003099457               0.001852470               0.000000000               0.000000000               0.000000000               0.000000000              -0.000595635               0.007689451              -0.000333612              -0.001184542               0.002957972               0.001773430               0.000000000               0.000000000               0.000000000               0.000000000              -0.000524922               0.007363050              -0.000314025              -0.001117224               0.002826734               0.001709509               0.000000000               0.000000000               0.000000000               0.000000000              -0.000439146               0.007066771              -0.000291569              -0.001048024               0.002704908               0.001656884               0.000000000               0.000000000               0.000000000               0.000000000              -0.000341935               0.006799469              -0.000262588              -0.000978157               0.002592519               0.001614362               0.000000000               0.000000000               0.000000000               0.000000000              -0.000246653               0.006565342              -0.000225166              -0.000913160               0.002492812               0.001579652               0.000000000               0.000000000               0.000000000               0.000000000              -0.000166930               0.006372760              -0.000182954              -0.000859191               0.002410629               0.001551438               0.000000000               0.000000000               0.000000000               0.000000000              -0.000105457               0.006227505              -0.000136733              -0.000817982               0.002348475               0.001530493               0.000000000               0.000000000               0.000000000               0.000000000              -0.000061278               0.006123683              -0.000085750              -0.000788438               0.002304020               0.001515582               0.000000000               0.000000000               0.000000000               0.000000000              -0.000027917               0.006056203              -0.000038203              -0.000767492               0.002274545               0.001507053               0.000000000               0.000000000               0.000000000               0.000000000              -0.000016491               0.006025468              -0.000019831              -0.000759366               0.002261591               0.001502225               0.000000000               0.000000000               0.000000000               0.000000000               0.001973218               0.009860038               0.003740207              -0.000492551               0.003450829               0.002958278               0.000000000               0.000000000               0.000000000               0.000000000               0.000443684               0.009403051               0.002263522              -0.001008999               0.003470651               0.002461652               0.000000000               0.000000000               0.000000000               0.000000000              -0.000670379               0.009463277               0.000831005              -0.001434298               0.003632494               0.002198195               0.000000000               0.000000000               0.000000000               0.000000000              -0.001013817               0.009092426               0.000310247              -0.001516731               0.003536355               0.002019624               0.000000000               0.000000000               0.000000000               0.000000000              -0.001068769               0.008653587               0.000091052              -0.001482483               0.003378661               0.001896178               0.000000000               0.000000000               0.000000000               0.000000000              -0.001011375               0.008233643              -0.000009230              -0.001408467               0.003214010               0.001805542               0.000000000               0.000000000               0.000000000               0.000000000              -0.000909558               0.007847984              -0.000055253              -0.001322079               0.003056661               0.001734583               0.000000000               0.000000000               0.000000000               0.000000000              -0.000786472               0.007500139              -0.000069562              -0.001232441               0.002910835               0.001678394               0.000000000               0.000000000               0.000000000               0.000000000              -0.000648892               0.007186802              -0.000068697              -0.001141682               0.002776138               0.001634455               0.000000000               0.000000000               0.000000000               0.000000000              -0.000508678               0.006906912              -0.000065586              -0.001054115               0.002653653               0.001599537               0.000000000               0.000000000               0.000000000               0.000000000              -0.000374585               0.006661681              -0.000057352              -0.000973177               0.002544931               0.001571753               0.000000000               0.000000000               0.000000000               0.000000000              -0.000259709               0.006457111              -0.000044667              -0.000904528               0.002453858               0.001549330               0.000000000               0.000000000               0.000000000               0.000000000              -0.000172992               0.006291909              -0.000034624              -0.000851358               0.002381068               0.001529710               0.000000000               0.000000000               0.000000000               0.000000000              -0.000112398               0.006155698              -0.000024770              -0.000811610               0.002322415               0.001510806               0.000000000               0.000000000               0.000000000               0.000000000              -0.000070010               0.006039640              -0.000013539              -0.000781207               0.002273596               0.001492389               0.000000000               0.000000000               0.000000000               0.000000000              -0.000034873               0.005938973              -0.000006695              -0.000755447               0.002231454               0.001476006               0.000000000               0.000000000               0.000000000               0.000000000              -0.000033431               0.005869437              -0.000013486              -0.000746214               0.002205197               0.001458983               0.000000000               0.000000000               0.000000000               0.000000000               0.001460307               0.007793004               0.003263929              -0.000426513               0.002739812               0.002313299               0.000000000               0.000000000               0.000000000               0.000000000              -0.000063197               0.008138953               0.002193307              -0.001041067               0.003059979               0.002018912               0.000000000               0.000000000               0.000000000               0.000000000              -0.001212180               0.008778738               0.001107903              -0.001551906               0.003443519               0.001891612               0.000000000               0.000000000               0.000000000               0.000000000              -0.001421692               0.008617782               0.000664292              -0.001610353               0.003409350               0.001798996               0.000000000               0.000000000               0.000000000               0.000000000              -0.001347784               0.008283454               0.000438895              -0.001540847               0.003274739               0.001733892               0.000000000               0.000000000               0.000000000               0.000000000              -0.001193671               0.007921131               0.000311486              -0.001437764               0.003119605               0.001681841               0.000000000               0.000000000               0.000000000               0.000000000              -0.001016267               0.007572898               0.000235236              -0.001327709               0.002966844               0.001639135               0.000000000               0.000000000               0.000000000               0.000000000              -0.000831072               0.007249003               0.000188411              -0.001217775               0.002822235               0.001604461               0.000000000               0.000000000               0.000000000               0.000000000              -0.000646672               0.006958259               0.000156413              -0.001112282               0.002690157               0.001577875               0.000000000               0.000000000               0.000000000               0.000000000              -0.000474550               0.006703662               0.000127873              -0.001015911               0.002573169               0.001557257               0.000000000               0.000000000               0.000000000               0.000000000              -0.000331271               0.006485110               0.000103525              -0.000934863               0.002473303               0.001538440               0.000000000               0.000000000               0.000000000               0.000000000              -0.000222270               0.006292547               0.000080417              -0.000869917               0.002387467               0.001517550               0.000000000               0.000000000               0.000000000               0.000000000              -0.000151567               0.006112322               0.000053989              -0.000820876               0.002311046               0.001490170               0.000000000               0.000000000               0.000000000               0.000000000              -0.000113350               0.005940285               0.000028956              -0.000785040               0.002241755               0.001456715               0.000000000               0.000000000               0.000000000               0.000000000              -0.000086336               0.005782616               0.000010107              -0.000755201               0.002179253               0.001424052               0.000000000               0.000000000               0.000000000               0.000000000              -0.000052801               0.005643085              -0.000002090              -0.000725184               0.002122738               0.001397553               0.000000000               0.000000000               0.000000000               0.000000000              -0.000046817               0.005552219              -0.000015570              -0.000711582               0.002087915               0.001376333               0.000000000               0.000000000               0.000000000               0.000000000               0.000820861               0.006030929               0.002642732              -0.000446045               0.002158970               0.001712925               0.000000000               0.000000000               0.000000000               0.000000000              -0.000544052               0.007007925               0.002090742              -0.001080009               0.002695954               0.001615945               0.000000000               0.000000000               0.000000000               0.000000000              -0.001603288               0.008110454               0.001428816              -0.001615036               0.003241803               0.001626767               0.000000000               0.000000000               0.000000000               0.000000000              -0.001669622               0.008160690               0.001036886              -0.001646190               0.003268933               0.001622742               0.000000000               0.000000000               0.000000000               0.000000000              -0.001493815               0.007943471               0.000789042              -0.001553111               0.003165501               0.001612390               0.000000000               0.000000000               0.000000000               0.000000000              -0.001268006               0.007653271               0.000623832              -0.001432158               0.003028451               0.001596293               0.000000000               0.000000000               0.000000000               0.000000000              -0.001034873               0.007356350               0.000512469              -0.001307618               0.002887965               0.001580347               0.000000000               0.000000000               0.000000000               0.000000000              -0.000802031               0.007070015               0.000429220              -0.001184510               0.002751485               0.001566974               0.000000000               0.000000000               0.000000000               0.000000000              -0.000583560               0.006805684               0.000358830              -0.001069543               0.002625053               0.001555510               0.000000000               0.000000000               0.000000000               0.000000000              -0.000392688               0.006574815               0.000293492              -0.000969108               0.002514619               0.001545511               0.000000000               0.000000000               0.000000000               0.000000000              -0.000250808               0.006357920               0.000234040              -0.000888791               0.002415549               0.001526758               0.000000000               0.000000000               0.000000000               0.000000000              -0.000164658               0.006137591               0.000180729              -0.000828944               0.002322158               0.001493214               0.000000000               0.000000000               0.000000000               0.000000000              -0.000124379               0.005919376               0.000127340              -0.000786562               0.002235293               0.001448731               0.000000000               0.000000000               0.000000000               0.000000000              -0.000121357               0.005706197               0.000075921              -0.000758782               0.002154974               0.001396192               0.000000000               0.000000000               0.000000000               0.000000000              -0.000128742               0.005510809               0.000034473              -0.000737127               0.002082627               0.001345500               0.000000000               0.000000000               0.000000000               0.000000000              -0.000133384               0.005334191               0.000007172              -0.000716791               0.002016976               0.001300185               0.000000000               0.000000000               0.000000000               0.000000000              -0.000134661               0.005235756              -0.000005502              -0.000704966               0.001980223               0.001275257               0.000000000               0.000000000               0.000000000               0.000000000               0.000039250               0.004379734               0.001971681              -0.000532749               0.001637479               0.001104730               0.000000000               0.000000000               0.000000000               0.000000000              -0.000926747               0.005703612               0.001970773              -0.001060480               0.002254678               0.001194198               0.000000000               0.000000000               0.000000000               0.000000000              -0.001789950               0.007137397               0.001777027              -0.001563403               0.002900242               0.001336840               0.000000000               0.000000000               0.000000000               0.000000000              -0.001785580               0.007481643               0.001448222              -0.001604794               0.003028787               0.001423993               0.000000000               0.000000000               0.000000000               0.000000000              -0.001571149               0.007465226               0.001175077              -0.001522331               0.002995827               0.001473496               0.000000000               0.000000000               0.000000000               0.000000000              -0.001318587               0.007322521               0.000969051              -0.001409782               0.002910743               0.001500961               0.000000000               0.000000000               0.000000000               0.000000000              -0.001069502               0.007137373               0.000817953              -0.001293232               0.002810178               0.001516946               0.000000000               0.000000000               0.000000000               0.000000000              -0.000830108               0.006930869               0.000696433              -0.001177646               0.002702815               0.001525169               0.000000000               0.000000000               0.000000000               0.000000000              -0.000604217               0.006723109               0.000589758              -0.001066968               0.002596670               0.001529702               0.000000000               0.000000000               0.000000000               0.000000000              -0.000406773               0.006523205               0.000490930              -0.000967938               0.002497026               0.001529088               0.000000000               0.000000000               0.000000000               0.000000000              -0.000259959               0.006305881               0.000396799              -0.000885718               0.002397178               0.001511461               0.000000000               0.000000000               0.000000000               0.000000000              -0.000169185               0.006075687               0.000307490              -0.000822903               0.002299510               0.001476606               0.000000000               0.000000000               0.000000000               0.000000000              -0.000130445               0.005839397               0.000220328              -0.000778840               0.002206060               0.001427220               0.000000000               0.000000000               0.000000000               0.000000000              -0.000141493               0.005605544               0.000139877              -0.000753751               0.002119746               0.001365995               0.000000000               0.000000000               0.000000000               0.000000000              -0.000182785               0.005392479               0.000073107              -0.000742602               0.002045009               0.001302407               0.000000000               0.000000000               0.000000000               0.000000000              -0.000236744               0.005191932               0.000023533              -0.000737769               0.001976550               0.001238781               0.000000000               0.000000000               0.000000000               0.000000000              -0.000266900               0.005088252               0.000002609              -0.000736117               0.001941439               0.001205322               0.000000000               0.000000000               0.000000000               0.000000000              -0.001001834               0.002873530               0.001289276              -0.000734878               0.001202793               0.000467915               0.000000000               0.000000000               0.000000000               0.000000000              -0.001362874               0.004396614               0.001785830              -0.001060653               0.001819074               0.000758421               0.000000000               0.000000000               0.000000000               0.000000000              -0.001891132               0.006020032               0.002048685              -0.001461676               0.002493882               0.001032206               0.000000000               0.000000000               0.000000000               0.000000000              -0.001825575               0.006645880               0.001838773              -0.001515323               0.002720378               0.001205056               0.000000000               0.000000000               0.000000000               0.000000000              -0.001598140               0.006861035               0.001570077              -0.001456929               0.002772631               0.001315703               0.000000000               0.000000000               0.000000000               0.000000000              -0.001337931               0.006898324               0.001336505              -0.001364012               0.002754089               0.001390077               0.000000000               0.000000000               0.000000000               0.000000000              -0.001089733               0.006851047               0.001149374              -0.001265028               0.002705335               0.001440308               0.000000000               0.000000000               0.000000000               0.000000000              -0.000855192               0.006749840               0.000995574              -0.001164424               0.002638066               0.001473641               0.000000000               0.000000000               0.000000000               0.000000000              -0.000630577               0.006623703               0.000860362              -0.001064427               0.002562688               0.001498261               0.000000000               0.000000000               0.000000000               0.000000000              -0.000426251               0.006478938               0.000734999              -0.000969709               0.002482861               0.001513152               0.000000000               0.000000000               0.000000000               0.000000000              -0.000260964               0.006291698               0.000617286              -0.000884322               0.002391985               0.001507664               0.000000000               0.000000000               0.000000000               0.000000000              -0.000146731               0.006076540               0.000502175              -0.000814590               0.002297023               0.001482433               0.000000000               0.000000000               0.000000000               0.000000000              -0.000085360               0.005849875               0.000383233              -0.000763242               0.002204353               0.001441110               0.000000000               0.000000000               0.000000000               0.000000000              -0.000078648               0.005616453               0.000265088              -0.000731548               0.002115982               0.001384434               0.000000000               0.000000000               0.000000000               0.000000000              -0.000126816               0.005393098               0.000159699              -0.000721692               0.002038245               0.001316554               0.000000000               0.000000000               0.000000000               0.000000000              -0.000217837               0.005187495               0.000070303              -0.000730124               0.001972522               0.001242398               0.000000000               0.000000000               0.000000000               0.000000000              -0.000288570               0.005078861               0.000023002              -0.000743069               0.001940626               0.001197557               0.000000000               0.000000000               0.000000000               0.000000000              -0.002231757               0.001616933               0.000643407              -0.001039024               0.000885312              -0.000153711               0.000000000               0.000000000               0.000000000               0.000000000              -0.001901838               0.003161781               0.001511299              -0.001108410               0.001423386               0.000314976               0.000000000               0.000000000               0.000000000               0.000000000              -0.001949738               0.004776147               0.002144277              -0.001328168               0.002034755               0.000706587               0.000000000               0.000000000               0.000000000               0.000000000              -0.001763844               0.005604565               0.002088272              -0.001362010               0.002322172               0.000960162               0.000000000               0.000000000               0.000000000               0.000000000              -0.001513908               0.006036115               0.001868483              -0.001322227               0.002452760               0.001130533               0.000000000               0.000000000               0.000000000               0.000000000              -0.001254459               0.006260828               0.001637026              -0.001253023               0.002504596               0.001251573               0.000000000               0.000000000               0.000000000               0.000000000              -0.001011110               0.006367092               0.001434794              -0.001175050               0.002514026               0.001338975               0.000000000               0.000000000               0.000000000               0.000000000              -0.000785802               0.006396793               0.001261494              -0.001094273               0.002497000               0.001402728               0.000000000               0.000000000               0.000000000               0.000000000              -0.000571837               0.006379520               0.001106819              -0.001011877               0.002463777               0.001451901               0.000000000               0.000000000               0.000000000               0.000000000              -0.000371211               0.006316969               0.000969357              -0.000928823               0.002415243               0.001486420               0.000000000               0.000000000               0.000000000               0.000000000              -0.000194144               0.006188333               0.000840771              -0.000846344               0.002344871               0.001498528               0.000000000               0.000000000               0.000000000               0.000000000              -0.000056075               0.006015344               0.000707348              -0.000772944               0.002262743               0.001489798               0.000000000               0.000000000               0.000000000               0.000000000               0.000030157               0.005817594               0.000566643              -0.000715889               0.002177808               0.001461919               0.000000000               0.000000000               0.000000000               0.000000000               0.000067192               0.005605576               0.000421487              -0.000675498               0.002093673               0.001418174               0.000000000               0.000000000               0.000000000               0.000000000               0.000049769               0.005392106               0.000276673              -0.000655348               0.002015800               0.001360452               0.000000000               0.000000000               0.000000000               0.000000000              -0.000034413               0.005188949               0.000134517              -0.000661522               0.001950140               0.001288618               0.000000000               0.000000000               0.000000000               0.000000000              -0.000118082               0.005078753               0.000056004              -0.000679123               0.001919275               0.001240152               0.000000000               0.000000000               0.000000000               0.000000000              -0.003559179               0.000677124               0.000114314              -0.001419331               0.000698814              -0.000720517               0.000000000               0.000000000               0.000000000               0.000000000              -0.002512458               0.002065805               0.001177267              -0.001200395               0.001088725              -0.000111670               0.000000000               0.000000000               0.000000000               0.000000000              -0.001992389               0.003507722               0.002040004              -0.001185609               0.001564431               0.000378822               0.000000000               0.000000000               0.000000000               0.000000000              -0.001625027               0.004442288               0.002127905              -0.001164670               0.001868970               0.000704301               0.000000000               0.000000000               0.000000000               0.000000000              -0.001324148               0.005043773               0.001985788              -0.001127025               0.002056915               0.000929890               0.000000000               0.000000000               0.000000000               0.000000000              -0.001059751               0.005437854               0.001788712              -0.001077137               0.002171645               0.001094508               0.000000000               0.000000000               0.000000000               0.000000000              -0.000825027               0.005699232               0.001596981              -0.001021788               0.002240321               0.001218533               0.000000000               0.000000000               0.000000000               0.000000000              -0.000613787               0.005867717               0.001423318              -0.000963633               0.002277097               0.001313464               0.000000000               0.000000000               0.000000000               0.000000000              -0.000412298               0.005973277               0.001266325              -0.000901270               0.002291495               0.001390226               0.000000000               0.000000000               0.000000000               0.000000000              -0.000217134               0.006014674               0.001130491              -0.000833258               0.002282624               0.001449366               0.000000000               0.000000000               0.000000000               0.000000000              -0.000041922               0.005970348               0.001001893              -0.000762013               0.002244100               0.001482088               0.000000000               0.000000000               0.000000000               0.000000000               0.000110718               0.005866106               0.000862338              -0.000691743               0.002185930               0.001494187               0.000000000               0.000000000               0.000000000               0.000000000               0.000231828               0.005723484               0.000714265              -0.000628499               0.002117308               0.001488810               0.000000000               0.000000000               0.000000000               0.000000000               0.000312769               0.005553943               0.000560086              -0.000576953               0.002043614               0.001466660               0.000000000               0.000000000               0.000000000               0.000000000               0.000347821               0.005368802               0.000391541              -0.000540666               0.001969805               0.001429139               0.000000000               0.000000000               0.000000000               0.000000000               0.000323567               0.005183046               0.000203290              -0.000526542               0.001903179               0.001376637               0.000000000               0.000000000               0.000000000               0.000000000               0.000276072               0.005083604               0.000098805              -0.000531922               0.001871825               0.001339903               0.000000000               0.000000000               0.000000000               0.000000000              -0.004849895               0.000052987              -0.000218978              -0.001825332               0.000626102              -0.001199230               0.000000000               0.000000000               0.000000000               0.000000000              -0.003137614               0.001175036               0.000829806              -0.001323483               0.000832834              -0.000490649               0.000000000               0.000000000               0.000000000               0.000000000              -0.002033231               0.002337688               0.001734577              -0.001054671               0.001130777               0.000076106               0.000000000               0.000000000               0.000000000               0.000000000              -0.001443623               0.003285259               0.001915941              -0.000952015               0.001412413               0.000460398               0.000000000               0.000000000               0.000000000               0.000000000              -0.001064611               0.003995060               0.001852006              -0.000898610               0.001631209               0.000732599               0.000000000               0.000000000               0.000000000               0.000000000              -0.000784252               0.004523865               0.001708938              -0.000859577               0.001794465               0.000934888               0.000000000               0.000000000               0.000000000               0.000000000              -0.000555265               0.004922956               0.001551114              -0.000823593               0.001915499               0.001091907               0.000000000               0.000000000               0.000000000               0.000000000              -0.000357983               0.005219501               0.001401092              -0.000786680               0.002002043               0.001215363               0.000000000               0.000000000               0.000000000               0.000000000              -0.000168994               0.005443234               0.001265941              -0.000743776               0.002062318               0.001318542               0.000000000               0.000000000               0.000000000               0.000000000               0.000015134               0.005592653               0.001146244              -0.000693405               0.002095334               0.001401929               0.000000000               0.000000000               0.000000000               0.000000000               0.000182633               0.005650668               0.001028027              -0.000637845               0.002096152               0.001458307               0.000000000               0.000000000               0.000000000               0.000000000               0.000342178               0.005636415               0.000900636              -0.000576234               0.002070864               0.001494630               0.000000000               0.000000000               0.000000000               0.000000000               0.000493914               0.005565294               0.000763786              -0.000510443               0.002025227               0.001514784               0.000000000               0.000000000               0.000000000               0.000000000               0.000631403               0.005455345               0.000617044              -0.000445141               0.001966811               0.001521669               0.000000000               0.000000000               0.000000000               0.000000000               0.000746937               0.005316701               0.000451436              -0.000384485               0.001900378               0.001515892               0.000000000               0.000000000               0.000000000               0.000000000               0.000831152               0.005162294               0.000247358              -0.000333604               0.001831949               0.001498345               0.000000000               0.000000000               0.000000000               0.000000000               0.000872561               0.005087610               0.000133936              -0.000308740               0.001798766               0.001490026               0.000000000               0.000000000               0.000000000               0.000000000              -0.005943429              -0.000310283              -0.000319878              -0.002189999               0.000626568              -0.001563431               0.000000000               0.000000000               0.000000000               0.000000000              -0.003689814               0.000526580               0.000512885              -0.001449501               0.000658689              -0.000790812               0.000000000               0.000000000               0.000000000               0.000000000              -0.002074886               0.001388197               0.001258157              -0.000951605               0.000779928              -0.000171677               0.000000000               0.000000000               0.000000000               0.000000000              -0.001264443               0.002288890               0.001451321              -0.000760276               0.001016380               0.000256104               0.000000000               0.000000000               0.000000000               0.000000000              -0.000798196               0.003055192               0.001439155              -0.000681222               0.001245460               0.000564239               0.000000000               0.000000000               0.000000000               0.000000000              -0.000492949               0.003676370               0.001352683              -0.000644401               0.001440244               0.000795843               0.000000000               0.000000000               0.000000000               0.000000000              -0.000263889               0.004175498               0.001244261              -0.000620895               0.001598783               0.000977888               0.000000000               0.000000000               0.000000000               0.000000000              -0.000073460               0.004572794               0.001137217              -0.000599146               0.001723965               0.001124819               0.000000000               0.000000000               0.000000000               0.000000000               0.000107024               0.004896703               0.001041169              -0.000571953               0.001822869               0.001250916               0.000000000               0.000000000               0.000000000               0.000000000               0.000277335               0.005141150               0.000951876              -0.000538642               0.001893247               0.001354604               0.000000000               0.000000000               0.000000000               0.000000000               0.000436264               0.005289420               0.000861932              -0.000497578               0.001928981               0.001431404               0.000000000               0.000000000               0.000000000               0.000000000               0.000599356               0.005361888               0.000763876              -0.000445477               0.001935770               0.001490294               0.000000000               0.000000000               0.000000000               0.000000000               0.000774374               0.005370641               0.000657266              -0.000380939               0.001917175               0.001536236               0.000000000               0.000000000               0.000000000               0.000000000               0.000966253               0.005329468               0.000542825              -0.000303838               0.001877751               0.001573913               0.000000000               0.000000000               0.000000000               0.000000000               0.001173428               0.005248277               0.000409123              -0.000215999               0.001821408               0.001605409               0.000000000               0.000000000               0.000000000               0.000000000               0.001390351               0.005133458               0.000230221              -0.000120300               0.001751236               0.001630935               0.000000000               0.000000000               0.000000000               0.000000000               0.001553023               0.005089731               0.000131833              -0.000053833               0.001714504               0.001660671               0.000000000               0.000000000               0.000000000               0.000000000              -0.006677069              -0.000490316              -0.000219128              -0.002442610               0.000650760              -0.001791850               0.000000000               0.000000000               0.000000000               0.000000000              -0.004068897               0.000132600               0.000240402              -0.001542410               0.000558333              -0.000984077               0.000000000               0.000000000               0.000000000               0.000000000              -0.002109342               0.000766169               0.000659772              -0.000886773               0.000550977              -0.000335796               0.000000000               0.000000000               0.000000000               0.000000000              -0.001140757               0.001610111               0.000781773              -0.000629047               0.000746380               0.000117333               0.000000000               0.000000000               0.000000000               0.000000000              -0.000606445               0.002398383               0.000786711              -0.000527214               0.000975191               0.000447977               0.000000000               0.000000000               0.000000000               0.000000000              -0.000272449               0.003072668               0.000747709              -0.000486251               0.001186296               0.000700045               0.000000000               0.000000000               0.000000000               0.000000000              -0.000036597               0.003628375               0.000693939              -0.000467270               0.001365203               0.000897933               0.000000000               0.000000000               0.000000000               0.000000000               0.000154244               0.004087238               0.000640209              -0.000453062               0.001513420               0.001060357               0.000000000               0.000000000               0.000000000               0.000000000               0.000327029               0.004479337               0.000590815              -0.000437280               0.001638858               0.001201577               0.000000000               0.000000000               0.000000000               0.000000000               0.000488012               0.004789667               0.000542797              -0.000415703               0.001735107               0.001319404               0.000000000               0.000000000               0.000000000               0.000000000               0.000641534               0.004997981               0.000494694              -0.000384171               0.001794034               0.001409863               0.000000000               0.000000000               0.000000000               0.000000000               0.000806901               0.005128692               0.000441407              -0.000338498               0.001822379               0.001483882               0.000000000               0.000000000               0.000000000               0.000000000               0.001000323               0.005197482               0.000382857              -0.000274564               0.001823998               0.001549434               0.000000000               0.000000000               0.000000000               0.000000000               0.001231168               0.005215790               0.000320465              -0.000190285               0.001802008               0.001611722               0.000000000               0.000000000               0.000000000               0.000000000               0.001505314               0.005186009               0.000244430              -0.000083758               0.001756572               0.001672814               0.000000000               0.000000000               0.000000000               0.000000000               0.001833685               0.005107102               0.000138400               0.000049243               0.001685936               0.001735179               0.000000000               0.000000000               0.000000000               0.000000000               0.002105137               0.005090338               0.000081998               0.000153132               0.001645718               0.001798851               0.000000000               0.000000000               0.000000000               0.000000000               0.000000000               0.000000000               0.000000000               0.000000000               0.000000000               0.000000000               0.000000000               0.000000000               0.000000000               0.000000000               0.000000000               0.000000000               0.000000000               0.000000000               0.000000000               0.000000000               0.000000000               0.000000000               0.000000000               0.000000000               0.000000000               0.000000000               0.000000000               0.000000000               0.000000000               0.000000000               0.000000000               0.000000000               0.000000000               0.000000000               0.000000000               0.000000000               0.000000000               0.000000000               0.000000000               0.000000000               0.000000000               0.000000000               0.000000000               0.000000000               0.000000000               0.000000000               0.000000000               0.000000000               0.000000000               0.000000000               0.000000000               0.000000000               0.000000000               0.000000000               0.000000000               0.000000000               0.000000000               0.000000000               0.000000000               0.000000000               0.000000000               0.000000000               0.000000000               0.000000000               0.000000000               0.000000000               0.000000000               0.000000000               0.000000000               0.000000000               0.000000000               0.000000000               0.000000000               0.000000000               0.000000000               0.000000000               0.000000000               0.000000000               0.000000000               0.000000000               0.000000000               0.000000000               0.000000000               0.000000000               0.000000000               0.000000000               0.000000000               0.000000000               0.000000000               0.000000000               0.000000000               0.000000000               0.000000000               0.000000000               0.000000000               0.000000000               0.000000000               0.000000000               0.000000000               0.000000000               0.000000000               0.000000000               0.000000000               0.000000000               0.000000000               0.000000000               0.000000000               0.000000000               0.000000000               0.000000000               0.000000000               0.000000000               0.000000000               0.000000000               0.000000000               0.000000000               0.000000000               0.000000000               0.000000000               0.000000000               0.000000000               0.000000000               0.000000000               0.000000000               0.000000000               0.000000000               0.000000000               0.000000000               0.000000000               0.000000000               0.000000000               0.000000000               0.000000000               0.000000000               0.000000000               0.000000000               0.000000000               0.000000000               0.000000000               0.000000000               0.000000000               0.000000000               0.000000000               0.000000000               0.000000000               0.000000000               0.000000000               0.000000000               0.000000000               0.000000000               0.000000000               0.000000000               0.000000000               0.000000000               0.000000000               0.000000000               0.000000000               0.000000000               0.000000000               0.000000000               0.000000000               0.000000000               0.000000000               0.000000000               0.000000000               0.000000000               0.000000000               0.000000000               0.000000000               0.000000000               0.000000000               0.000000000               0.000000000               0.000000000 </DataArray>
</PointData>
</Piece>
</UnstructuredGrid> </VTKFile>
