<?xml version="1.0"?>
<VTKFile type="UnstructuredGrid" version="0.1">
<UnstructuredGrid>
<Piece NumberOfPoints="      1156" NumberOfCells="      1024">
<Points>
<DataArray type="Float64"                                    Name="coordinates"                                                      NumberOfComponents=" 3" format="ascii">
              0.133000000               0.000000000               0.000000000               0.155937500               0.000000000               0.000000000               0.178875000               0.000000000               0.000000000               0.201812500               0.000000000               0.000000000               0.224750000               0.000000000               0.000000000               0.247687500               0.000000000               0.000000000               0.270625000               0.000000000               0.000000000               0.293562500               0.000000000               0.000000000               0.316500000               0.000000000               0.000000000               0.339437500               0.000000000               0.000000000               0.362375000               0.000000000               0.000000000               0.385312500               0.000000000               0.000000000               0.408250000               0.000000000               0.000000000               0.431187500               0.000000000               0.000000000               0.454125000               0.000000000               0.000000000               0.477062500               0.000000000               0.000000000               0.500000000               0.000000000               0.000000000               0.132359569               0.013036280               0.000000000               0.155337096               0.016127762               0.000000000               0.178314623               0.019219245               0.000000000               0.201292150               0.022310727               0.000000000               0.224269676               0.025402210               0.000000000               0.247247203               0.028493692               0.000000000               0.270224730               0.031585175               0.000000000               0.293202257               0.034676657               0.000000000               0.316179784               0.037768140               0.000000000               0.339157311               0.040859622               0.000000000               0.362134838               0.043951105               0.000000000               0.385112365               0.047042587               0.000000000               0.408089892               0.050134070               0.000000000               0.431067419               0.053225552               0.000000000               0.454044946               0.056317035               0.000000000               0.477022473               0.059408517               0.000000000               0.500000000               0.062500000               0.000000000               0.130444442               0.025947013               0.000000000               0.153541665               0.032137825               0.000000000               0.176638887               0.038328636               0.000000000               0.199736109               0.044519448               0.000000000               0.222833332               0.050710260               0.000000000               0.245930554               0.056901071               0.000000000               0.269027776               0.063091883               0.000000000               0.292124999               0.069282695               0.000000000               0.315222221               0.075473506               0.000000000               0.338319444               0.081664318               0.000000000               0.361416666               0.087855130               0.000000000               0.384513888               0.094045942               0.000000000               0.407611111               0.100236753               0.000000000               0.430708333               0.106427565               0.000000000               0.453805555               0.112618377               0.000000000               0.476902778               0.118809188               0.000000000               0.500000000               0.125000000               0.000000000               0.127273065               0.038607862               0.000000000               0.150568498               0.047913621               0.000000000               0.173863932               0.057219379               0.000000000               0.197159365               0.066525138               0.000000000               0.220454798               0.075830897               0.000000000               0.243750232               0.085136655               0.000000000               0.267045665               0.094442414               0.000000000               0.290341099               0.103748172               0.000000000               0.313636532               0.113053931               0.000000000               0.336931966               0.122359690               0.000000000               0.360227399               0.131665448               0.000000000               0.383522833               0.140971207               0.000000000               0.406818266               0.150276966               0.000000000               0.430113700               0.159582724               0.000000000               0.453409133               0.168888483               0.000000000               0.476704567               0.178194241               0.000000000               0.500000000               0.187500000               0.000000000               0.122875978               0.050896897               0.000000000               0.146446229               0.063340840               0.000000000               0.170016481               0.075784784               0.000000000               0.193586732               0.088228728               0.000000000               0.217156983               0.100672672               0.000000000               0.240727235               0.113116616               0.000000000               0.264297486               0.125560560               0.000000000               0.287867738               0.138004504               0.000000000               0.311437989               0.150448448               0.000000000               0.335008240               0.162892392               0.000000000               0.358578492               0.175336336               0.000000000               0.382148743               0.187780280               0.000000000               0.405718994               0.200224224               0.000000000               0.429289246               0.212668168               0.000000000               0.452859497               0.225112112               0.000000000               0.476429749               0.237556056               0.000000000               0.500000000               0.250000000               0.000000000               0.117295528               0.062695766               0.000000000               0.141214558               0.078308531               0.000000000               0.165133587               0.093921295               0.000000000               0.189052617               0.109534060               0.000000000               0.212971646               0.125146824               0.000000000               0.236890676               0.140759589               0.000000000               0.260809705               0.156372354               0.000000000               0.284728735               0.171985118               0.000000000               0.308647764               0.187597883               0.000000000               0.332566794               0.203210648               0.000000000               0.356485823               0.218823412               0.000000000               0.380404853               0.234436177               0.000000000               0.404323882               0.250048941               0.000000000               0.428242912               0.265661706               0.000000000               0.452161941               0.281274471               0.000000000               0.476080971               0.296887235               0.000000000               0.500000000               0.312500000               0.000000000               0.110585458               0.073890841               0.000000000               0.134923867               0.092710163               0.000000000               0.159262276               0.111529486               0.000000000               0.183600685               0.130348808               0.000000000               0.207939094               0.149168131               0.000000000               0.232277503               0.167987453               0.000000000               0.256615912               0.186806776               0.000000000               0.280954320               0.205626098               0.000000000               0.305292729               0.224445420               0.000000000               0.329631138               0.243264743               0.000000000               0.353969547               0.262084065               0.000000000               0.378307956               0.280903388               0.000000000               0.402646365               0.299722710               0.000000000               0.426984773               0.318542033               0.000000000               0.451323182               0.337361355               0.000000000               0.475661591               0.356180678               0.000000000               0.500000000               0.375000000               0.000000000               0.102810390               0.084374307               0.000000000               0.127634741               0.106444663               0.000000000               0.152459092               0.128515018               0.000000000               0.177283442               0.150585374               0.000000000               0.202107793               0.172655730               0.000000000               0.226932143               0.194726086               0.000000000               0.251756494               0.216796442               0.000000000               0.276580845               0.238866798               0.000000000               0.301405195               0.260937153               0.000000000               0.326229546               0.283007509               0.000000000               0.351053896               0.305077865               0.000000000               0.375878247               0.327148221               0.000000000               0.400702598               0.349218577               0.000000000               0.425526948               0.371288933               0.000000000               0.450351299               0.393359288               0.000000000               0.475175649               0.415429644               0.000000000               0.500000000               0.437500000               0.000000000               0.094045202               0.094045202               0.000000000               0.119417377               0.119417377               0.000000000               0.144789552               0.144789552               0.000000000               0.170161727               0.170161727               0.000000000               0.195533901               0.195533901               0.000000000               0.220906076               0.220906076               0.000000000               0.246278251               0.246278251               0.000000000               0.271650426               0.271650426               0.000000000               0.297022601               0.297022601               0.000000000               0.322394776               0.322394776               0.000000000               0.347766951               0.347766951               0.000000000               0.373139126               0.373139126               0.000000000               0.398511300               0.398511300               0.000000000               0.423883475               0.423883475               0.000000000               0.449255650               0.449255650               0.000000000               0.474627825               0.474627825               0.000000000               0.500000000               0.500000000               0.000000000               0.084374307               0.102810390               0.000000000               0.106444663               0.127634741               0.000000000               0.128515018               0.152459092               0.000000000               0.150585374               0.177283442               0.000000000               0.172655730               0.202107793               0.000000000               0.194726086               0.226932143               0.000000000               0.216796442               0.251756494               0.000000000               0.238866798               0.276580845               0.000000000               0.260937153               0.301405195               0.000000000               0.283007509               0.326229546               0.000000000               0.305077865               0.351053896               0.000000000               0.327148221               0.375878247               0.000000000               0.349218577               0.400702598               0.000000000               0.371288933               0.425526948               0.000000000               0.393359288               0.450351299               0.000000000               0.415429644               0.475175649               0.000000000               0.437500000               0.500000000               0.000000000               0.073890841               0.110585458               0.000000000               0.092710163               0.134923867               0.000000000               0.111529486               0.159262276               0.000000000               0.130348808               0.183600685               0.000000000               0.149168131               0.207939094               0.000000000               0.167987453               0.232277503               0.000000000               0.186806776               0.256615912               0.000000000               0.205626098               0.280954320               0.000000000               0.224445420               0.305292729               0.000000000               0.243264743               0.329631138               0.000000000               0.262084065               0.353969547               0.000000000               0.280903388               0.378307956               0.000000000               0.299722710               0.402646365               0.000000000               0.318542033               0.426984773               0.000000000               0.337361355               0.451323182               0.000000000               0.356180678               0.475661591               0.000000000               0.375000000               0.500000000               0.000000000               0.062695766               0.117295528               0.000000000               0.078308531               0.141214558               0.000000000               0.093921295               0.165133587               0.000000000               0.109534060               0.189052617               0.000000000               0.125146824               0.212971646               0.000000000               0.140759589               0.236890676               0.000000000               0.156372354               0.260809705               0.000000000               0.171985118               0.284728735               0.000000000               0.187597883               0.308647764               0.000000000               0.203210648               0.332566794               0.000000000               0.218823412               0.356485823               0.000000000               0.234436177               0.380404853               0.000000000               0.250048941               0.404323882               0.000000000               0.265661706               0.428242912               0.000000000               0.281274471               0.452161941               0.000000000               0.296887235               0.476080971               0.000000000               0.312500000               0.500000000               0.000000000               0.050896897               0.122875978               0.000000000               0.063340840               0.146446229               0.000000000               0.075784784               0.170016481               0.000000000               0.088228728               0.193586732               0.000000000               0.100672672               0.217156983               0.000000000               0.113116616               0.240727235               0.000000000               0.125560560               0.264297486               0.000000000               0.138004504               0.287867738               0.000000000               0.150448448               0.311437989               0.000000000               0.162892392               0.335008240               0.000000000               0.175336336               0.358578492               0.000000000               0.187780280               0.382148743               0.000000000               0.200224224               0.405718994               0.000000000               0.212668168               0.429289246               0.000000000               0.225112112               0.452859497               0.000000000               0.237556056               0.476429749               0.000000000               0.250000000               0.500000000               0.000000000               0.038607862               0.127273065               0.000000000               0.047913621               0.150568498               0.000000000               0.057219379               0.173863932               0.000000000               0.066525138               0.197159365               0.000000000               0.075830897               0.220454798               0.000000000               0.085136655               0.243750232               0.000000000               0.094442414               0.267045665               0.000000000               0.103748172               0.290341099               0.000000000               0.113053931               0.313636532               0.000000000               0.122359690               0.336931966               0.000000000               0.131665448               0.360227399               0.000000000               0.140971207               0.383522833               0.000000000               0.150276966               0.406818266               0.000000000               0.159582724               0.430113700               0.000000000               0.168888483               0.453409133               0.000000000               0.178194241               0.476704567               0.000000000               0.187500000               0.500000000               0.000000000               0.025947013               0.130444442               0.000000000               0.032137825               0.153541665               0.000000000               0.038328636               0.176638887               0.000000000               0.044519448               0.199736109               0.000000000               0.050710260               0.222833332               0.000000000               0.056901071               0.245930554               0.000000000               0.063091883               0.269027776               0.000000000               0.069282695               0.292124999               0.000000000               0.075473506               0.315222221               0.000000000               0.081664318               0.338319444               0.000000000               0.087855130               0.361416666               0.000000000               0.094045942               0.384513888               0.000000000               0.100236753               0.407611111               0.000000000               0.106427565               0.430708333               0.000000000               0.112618377               0.453805555               0.000000000               0.118809188               0.476902778               0.000000000               0.125000000               0.500000000               0.000000000               0.013036280               0.132359569               0.000000000               0.016127762               0.155337096               0.000000000               0.019219245               0.178314623               0.000000000               0.022310727               0.201292150               0.000000000               0.025402210               0.224269676               0.000000000               0.028493692               0.247247203               0.000000000               0.031585175               0.270224730               0.000000000               0.034676657               0.293202257               0.000000000               0.037768140               0.316179784               0.000000000               0.040859622               0.339157311               0.000000000               0.043951105               0.362134838               0.000000000               0.047042587               0.385112365               0.000000000               0.050134070               0.408089892               0.000000000               0.053225552               0.431067419               0.000000000               0.056317035               0.454044946               0.000000000               0.059408517               0.477022473               0.000000000               0.062500000               0.500000000               0.000000000               0.000000000               0.133000000               0.000000000               0.000000000               0.155937500               0.000000000               0.000000000               0.178875000               0.000000000               0.000000000               0.201812500               0.000000000               0.000000000               0.224750000               0.000000000               0.000000000               0.247687500               0.000000000               0.000000000               0.270625000               0.000000000               0.000000000               0.293562500               0.000000000               0.000000000               0.316500000               0.000000000               0.000000000               0.339437500               0.000000000               0.000000000               0.362375000               0.000000000               0.000000000               0.385312500               0.000000000               0.000000000               0.408250000               0.000000000               0.000000000               0.431187500               0.000000000               0.000000000               0.454125000               0.000000000               0.000000000               0.477062500               0.000000000               0.000000000               0.500000000               0.000000000               0.133000000               0.000000000               0.000000000               0.155937500               0.000000000               0.000000000               0.178875000               0.000000000               0.000000000               0.201812500               0.000000000               0.000000000               0.224750000               0.000000000               0.000000000               0.247687500               0.000000000               0.000000000               0.270625000               0.000000000               0.000000000               0.293562500               0.000000000               0.000000000               0.316500000               0.000000000               0.000000000               0.339437500               0.000000000               0.000000000               0.362375000               0.000000000               0.000000000               0.385312500               0.000000000               0.000000000               0.408250000               0.000000000               0.000000000               0.431187500               0.000000000               0.000000000               0.454125000               0.000000000               0.000000000               0.477062500               0.000000000               0.000000000               0.500000000               0.000000000               0.000000000               0.132359569              -0.013036280               0.000000000               0.155337096              -0.016127762               0.000000000               0.178314623              -0.019219245               0.000000000               0.201292150              -0.022310727               0.000000000               0.224269676              -0.025402210               0.000000000               0.247247203              -0.028493692               0.000000000               0.270224730              -0.031585175               0.000000000               0.293202257              -0.034676657               0.000000000               0.316179784              -0.037768140               0.000000000               0.339157311              -0.040859622               0.000000000               0.362134838              -0.043951105               0.000000000               0.385112365              -0.047042587               0.000000000               0.408089892              -0.050134070               0.000000000               0.431067419              -0.053225552               0.000000000               0.454044946              -0.056317035               0.000000000               0.477022473              -0.059408517               0.000000000               0.500000000              -0.062500000               0.000000000               0.130444442              -0.025947013               0.000000000               0.153541665              -0.032137825               0.000000000               0.176638887              -0.038328636               0.000000000               0.199736109              -0.044519448               0.000000000               0.222833332              -0.050710260               0.000000000               0.245930554              -0.056901071               0.000000000               0.269027776              -0.063091883               0.000000000               0.292124999              -0.069282695               0.000000000               0.315222221              -0.075473506               0.000000000               0.338319444              -0.081664318               0.000000000               0.361416666              -0.087855130               0.000000000               0.384513888              -0.094045942               0.000000000               0.407611111              -0.100236753               0.000000000               0.430708333              -0.106427565               0.000000000               0.453805555              -0.112618377               0.000000000               0.476902778              -0.118809188               0.000000000               0.500000000              -0.125000000               0.000000000               0.127273065              -0.038607862               0.000000000               0.150568498              -0.047913621               0.000000000               0.173863932              -0.057219379               0.000000000               0.197159365              -0.066525138               0.000000000               0.220454798              -0.075830897               0.000000000               0.243750232              -0.085136655               0.000000000               0.267045665              -0.094442414               0.000000000               0.290341099              -0.103748172               0.000000000               0.313636532              -0.113053931               0.000000000               0.336931966              -0.122359690               0.000000000               0.360227399              -0.131665448               0.000000000               0.383522833              -0.140971207               0.000000000               0.406818266              -0.150276966               0.000000000               0.430113700              -0.159582724               0.000000000               0.453409133              -0.168888483               0.000000000               0.476704567              -0.178194241               0.000000000               0.500000000              -0.187500000               0.000000000               0.122875978              -0.050896897               0.000000000               0.146446229              -0.063340840               0.000000000               0.170016481              -0.075784784               0.000000000               0.193586732              -0.088228728               0.000000000               0.217156983              -0.100672672               0.000000000               0.240727235              -0.113116616               0.000000000               0.264297486              -0.125560560               0.000000000               0.287867738              -0.138004504               0.000000000               0.311437989              -0.150448448               0.000000000               0.335008240              -0.162892392               0.000000000               0.358578492              -0.175336336               0.000000000               0.382148743              -0.187780280               0.000000000               0.405718994              -0.200224224               0.000000000               0.429289246              -0.212668168               0.000000000               0.452859497              -0.225112112               0.000000000               0.476429749              -0.237556056               0.000000000               0.500000000              -0.250000000               0.000000000               0.117295528              -0.062695766               0.000000000               0.141214558              -0.078308531               0.000000000               0.165133587              -0.093921295               0.000000000               0.189052617              -0.109534060               0.000000000               0.212971646              -0.125146824               0.000000000               0.236890676              -0.140759589               0.000000000               0.260809705              -0.156372354               0.000000000               0.284728735              -0.171985118               0.000000000               0.308647764              -0.187597883               0.000000000               0.332566794              -0.203210648               0.000000000               0.356485823              -0.218823412               0.000000000               0.380404853              -0.234436177               0.000000000               0.404323882              -0.250048941               0.000000000               0.428242912              -0.265661706               0.000000000               0.452161941              -0.281274471               0.000000000               0.476080971              -0.296887235               0.000000000               0.500000000              -0.312500000               0.000000000               0.110585458              -0.073890841               0.000000000               0.134923867              -0.092710163               0.000000000               0.159262276              -0.111529486               0.000000000               0.183600685              -0.130348808               0.000000000               0.207939094              -0.149168131               0.000000000               0.232277503              -0.167987453               0.000000000               0.256615912              -0.186806776               0.000000000               0.280954320              -0.205626098               0.000000000               0.305292729              -0.224445420               0.000000000               0.329631138              -0.243264743               0.000000000               0.353969547              -0.262084065               0.000000000               0.378307956              -0.280903388               0.000000000               0.402646365              -0.299722710               0.000000000               0.426984773              -0.318542033               0.000000000               0.451323182              -0.337361355               0.000000000               0.475661591              -0.356180678               0.000000000               0.500000000              -0.375000000               0.000000000               0.102810390              -0.084374307               0.000000000               0.127634741              -0.106444663               0.000000000               0.152459092              -0.128515018               0.000000000               0.177283442              -0.150585374               0.000000000               0.202107793              -0.172655730               0.000000000               0.226932143              -0.194726086               0.000000000               0.251756494              -0.216796442               0.000000000               0.276580845              -0.238866798               0.000000000               0.301405195              -0.260937153               0.000000000               0.326229546              -0.283007509               0.000000000               0.351053896              -0.305077865               0.000000000               0.375878247              -0.327148221               0.000000000               0.400702598              -0.349218577               0.000000000               0.425526948              -0.371288933               0.000000000               0.450351299              -0.393359288               0.000000000               0.475175649              -0.415429644               0.000000000               0.500000000              -0.437500000               0.000000000               0.094045202              -0.094045202               0.000000000               0.119417377              -0.119417377               0.000000000               0.144789552              -0.144789552               0.000000000               0.170161727              -0.170161727               0.000000000               0.195533901              -0.195533901               0.000000000               0.220906076              -0.220906076               0.000000000               0.246278251              -0.246278251               0.000000000               0.271650426              -0.271650426               0.000000000               0.297022601              -0.297022601               0.000000000               0.322394776              -0.322394776               0.000000000               0.347766951              -0.347766951               0.000000000               0.373139126              -0.373139126               0.000000000               0.398511300              -0.398511300               0.000000000               0.423883475              -0.423883475               0.000000000               0.449255650              -0.449255650               0.000000000               0.474627825              -0.474627825               0.000000000               0.500000000              -0.500000000               0.000000000               0.084374307              -0.102810390               0.000000000               0.106444663              -0.127634741               0.000000000               0.128515018              -0.152459092               0.000000000               0.150585374              -0.177283442               0.000000000               0.172655730              -0.202107793               0.000000000               0.194726086              -0.226932143               0.000000000               0.216796442              -0.251756494               0.000000000               0.238866798              -0.276580845               0.000000000               0.260937153              -0.301405195               0.000000000               0.283007509              -0.326229546               0.000000000               0.305077865              -0.351053896               0.000000000               0.327148221              -0.375878247               0.000000000               0.349218577              -0.400702598               0.000000000               0.371288933              -0.425526948               0.000000000               0.393359288              -0.450351299               0.000000000               0.415429644              -0.475175649               0.000000000               0.437500000              -0.500000000               0.000000000               0.073890841              -0.110585458               0.000000000               0.092710163              -0.134923867               0.000000000               0.111529486              -0.159262276               0.000000000               0.130348808              -0.183600685               0.000000000               0.149168131              -0.207939094               0.000000000               0.167987453              -0.232277503               0.000000000               0.186806776              -0.256615912               0.000000000               0.205626098              -0.280954320               0.000000000               0.224445420              -0.305292729               0.000000000               0.243264743              -0.329631138               0.000000000               0.262084065              -0.353969547               0.000000000               0.280903388              -0.378307956               0.000000000               0.299722710              -0.402646365               0.000000000               0.318542033              -0.426984773               0.000000000               0.337361355              -0.451323182               0.000000000               0.356180678              -0.475661591               0.000000000               0.375000000              -0.500000000               0.000000000               0.062695766              -0.117295528               0.000000000               0.078308531              -0.141214558               0.000000000               0.093921295              -0.165133587               0.000000000               0.109534060              -0.189052617               0.000000000               0.125146824              -0.212971646               0.000000000               0.140759589              -0.236890676               0.000000000               0.156372354              -0.260809705               0.000000000               0.171985118              -0.284728735               0.000000000               0.187597883              -0.308647764               0.000000000               0.203210648              -0.332566794               0.000000000               0.218823412              -0.356485823               0.000000000               0.234436177              -0.380404853               0.000000000               0.250048941              -0.404323882               0.000000000               0.265661706              -0.428242912               0.000000000               0.281274471              -0.452161941               0.000000000               0.296887235              -0.476080971               0.000000000               0.312500000              -0.500000000               0.000000000               0.050896897              -0.122875978               0.000000000               0.063340840              -0.146446229               0.000000000               0.075784784              -0.170016481               0.000000000               0.088228728              -0.193586732               0.000000000               0.100672672              -0.217156983               0.000000000               0.113116616              -0.240727235               0.000000000               0.125560560              -0.264297486               0.000000000               0.138004504              -0.287867738               0.000000000               0.150448448              -0.311437989               0.000000000               0.162892392              -0.335008240               0.000000000               0.175336336              -0.358578492               0.000000000               0.187780280              -0.382148743               0.000000000               0.200224224              -0.405718994               0.000000000               0.212668168              -0.429289246               0.000000000               0.225112112              -0.452859497               0.000000000               0.237556056              -0.476429749               0.000000000               0.250000000              -0.500000000               0.000000000               0.038607862              -0.127273065               0.000000000               0.047913621              -0.150568498               0.000000000               0.057219379              -0.173863932               0.000000000               0.066525138              -0.197159365               0.000000000               0.075830897              -0.220454798               0.000000000               0.085136655              -0.243750232               0.000000000               0.094442414              -0.267045665               0.000000000               0.103748172              -0.290341099               0.000000000               0.113053931              -0.313636532               0.000000000               0.122359690              -0.336931966               0.000000000               0.131665448              -0.360227399               0.000000000               0.140971207              -0.383522833               0.000000000               0.150276966              -0.406818266               0.000000000               0.159582724              -0.430113700               0.000000000               0.168888483              -0.453409133               0.000000000               0.178194241              -0.476704567               0.000000000               0.187500000              -0.500000000               0.000000000               0.025947013              -0.130444442               0.000000000               0.032137825              -0.153541665               0.000000000               0.038328636              -0.176638887               0.000000000               0.044519448              -0.199736109               0.000000000               0.050710260              -0.222833332               0.000000000               0.056901071              -0.245930554               0.000000000               0.063091883              -0.269027776               0.000000000               0.069282695              -0.292124999               0.000000000               0.075473506              -0.315222221               0.000000000               0.081664318              -0.338319444               0.000000000               0.087855130              -0.361416666               0.000000000               0.094045942              -0.384513888               0.000000000               0.100236753              -0.407611111               0.000000000               0.106427565              -0.430708333               0.000000000               0.112618377              -0.453805555               0.000000000               0.118809188              -0.476902778               0.000000000               0.125000000              -0.500000000               0.000000000               0.013036280              -0.132359569               0.000000000               0.016127762              -0.155337096               0.000000000               0.019219245              -0.178314623               0.000000000               0.022310727              -0.201292150               0.000000000               0.025402210              -0.224269676               0.000000000               0.028493692              -0.247247203               0.000000000               0.031585175              -0.270224730               0.000000000               0.034676657              -0.293202257               0.000000000               0.037768140              -0.316179784               0.000000000               0.040859622              -0.339157311               0.000000000               0.043951105              -0.362134838               0.000000000               0.047042587              -0.385112365               0.000000000               0.050134070              -0.408089892               0.000000000               0.053225552              -0.431067419               0.000000000               0.056317035              -0.454044946               0.000000000               0.059408517              -0.477022473               0.000000000               0.062500000              -0.500000000               0.000000000               0.000000000              -0.133000000               0.000000000               0.000000000              -0.155937500               0.000000000               0.000000000              -0.178875000               0.000000000               0.000000000              -0.201812500               0.000000000               0.000000000              -0.224750000               0.000000000               0.000000000              -0.247687500               0.000000000               0.000000000              -0.270625000               0.000000000               0.000000000              -0.293562500               0.000000000               0.000000000              -0.316500000               0.000000000               0.000000000              -0.339437500               0.000000000               0.000000000              -0.362375000               0.000000000               0.000000000              -0.385312500               0.000000000               0.000000000              -0.408250000               0.000000000               0.000000000              -0.431187500               0.000000000               0.000000000              -0.454125000               0.000000000               0.000000000              -0.477062500               0.000000000               0.000000000              -0.500000000               0.000000000              -0.133000000               0.000000000               0.000000000              -0.155937500               0.000000000               0.000000000              -0.178875000               0.000000000               0.000000000              -0.201812500               0.000000000               0.000000000              -0.224750000               0.000000000               0.000000000              -0.247687500               0.000000000               0.000000000              -0.270625000               0.000000000               0.000000000              -0.293562500               0.000000000               0.000000000              -0.316500000               0.000000000               0.000000000              -0.339437500               0.000000000               0.000000000              -0.362375000               0.000000000               0.000000000              -0.385312500               0.000000000               0.000000000              -0.408250000               0.000000000               0.000000000              -0.431187500               0.000000000               0.000000000              -0.454125000               0.000000000               0.000000000              -0.477062500               0.000000000               0.000000000              -0.500000000               0.000000000               0.000000000              -0.132359569              -0.013036280               0.000000000              -0.155337096              -0.016127762               0.000000000              -0.178314623              -0.019219245               0.000000000              -0.201292150              -0.022310727               0.000000000              -0.224269676              -0.025402210               0.000000000              -0.247247203              -0.028493692               0.000000000              -0.270224730              -0.031585175               0.000000000              -0.293202257              -0.034676657               0.000000000              -0.316179784              -0.037768140               0.000000000              -0.339157311              -0.040859622               0.000000000              -0.362134838              -0.043951105               0.000000000              -0.385112365              -0.047042587               0.000000000              -0.408089892              -0.050134070               0.000000000              -0.431067419              -0.053225552               0.000000000              -0.454044946              -0.056317035               0.000000000              -0.477022473              -0.059408517               0.000000000              -0.500000000              -0.062500000               0.000000000              -0.130444442              -0.025947013               0.000000000              -0.153541665              -0.032137825               0.000000000              -0.176638887              -0.038328636               0.000000000              -0.199736109              -0.044519448               0.000000000              -0.222833332              -0.050710260               0.000000000              -0.245930554              -0.056901071               0.000000000              -0.269027776              -0.063091883               0.000000000              -0.292124999              -0.069282695               0.000000000              -0.315222221              -0.075473506               0.000000000              -0.338319444              -0.081664318               0.000000000              -0.361416666              -0.087855130               0.000000000              -0.384513888              -0.094045942               0.000000000              -0.407611111              -0.100236753               0.000000000              -0.430708333              -0.106427565               0.000000000              -0.453805555              -0.112618377               0.000000000              -0.476902778              -0.118809188               0.000000000              -0.500000000              -0.125000000               0.000000000              -0.127273065              -0.038607862               0.000000000              -0.150568498              -0.047913621               0.000000000              -0.173863932              -0.057219379               0.000000000              -0.197159365              -0.066525138               0.000000000              -0.220454798              -0.075830897               0.000000000              -0.243750232              -0.085136655               0.000000000              -0.267045665              -0.094442414               0.000000000              -0.290341099              -0.103748172               0.000000000              -0.313636532              -0.113053931               0.000000000              -0.336931966              -0.122359690               0.000000000              -0.360227399              -0.131665448               0.000000000              -0.383522833              -0.140971207               0.000000000              -0.406818266              -0.150276966               0.000000000              -0.430113700              -0.159582724               0.000000000              -0.453409133              -0.168888483               0.000000000              -0.476704567              -0.178194241               0.000000000              -0.500000000              -0.187500000               0.000000000              -0.122875978              -0.050896897               0.000000000              -0.146446229              -0.063340840               0.000000000              -0.170016481              -0.075784784               0.000000000              -0.193586732              -0.088228728               0.000000000              -0.217156983              -0.100672672               0.000000000              -0.240727235              -0.113116616               0.000000000              -0.264297486              -0.125560560               0.000000000              -0.287867738              -0.138004504               0.000000000              -0.311437989              -0.150448448               0.000000000              -0.335008240              -0.162892392               0.000000000              -0.358578492              -0.175336336               0.000000000              -0.382148743              -0.187780280               0.000000000              -0.405718994              -0.200224224               0.000000000              -0.429289246              -0.212668168               0.000000000              -0.452859497              -0.225112112               0.000000000              -0.476429749              -0.237556056               0.000000000              -0.500000000              -0.250000000               0.000000000              -0.117295528              -0.062695766               0.000000000              -0.141214558              -0.078308531               0.000000000              -0.165133587              -0.093921295               0.000000000              -0.189052617              -0.109534060               0.000000000              -0.212971646              -0.125146824               0.000000000              -0.236890676              -0.140759589               0.000000000              -0.260809705              -0.156372354               0.000000000              -0.284728735              -0.171985118               0.000000000              -0.308647764              -0.187597883               0.000000000              -0.332566794              -0.203210648               0.000000000              -0.356485823              -0.218823412               0.000000000              -0.380404853              -0.234436177               0.000000000              -0.404323882              -0.250048941               0.000000000              -0.428242912              -0.265661706               0.000000000              -0.452161941              -0.281274471               0.000000000              -0.476080971              -0.296887235               0.000000000              -0.500000000              -0.312500000               0.000000000              -0.110585458              -0.073890841               0.000000000              -0.134923867              -0.092710163               0.000000000              -0.159262276              -0.111529486               0.000000000              -0.183600685              -0.130348808               0.000000000              -0.207939094              -0.149168131               0.000000000              -0.232277503              -0.167987453               0.000000000              -0.256615912              -0.186806776               0.000000000              -0.280954320              -0.205626098               0.000000000              -0.305292729              -0.224445420               0.000000000              -0.329631138              -0.243264743               0.000000000              -0.353969547              -0.262084065               0.000000000              -0.378307956              -0.280903388               0.000000000              -0.402646365              -0.299722710               0.000000000              -0.426984773              -0.318542033               0.000000000              -0.451323182              -0.337361355               0.000000000              -0.475661591              -0.356180678               0.000000000              -0.500000000              -0.375000000               0.000000000              -0.102810390              -0.084374307               0.000000000              -0.127634741              -0.106444663               0.000000000              -0.152459092              -0.128515018               0.000000000              -0.177283442              -0.150585374               0.000000000              -0.202107793              -0.172655730               0.000000000              -0.226932143              -0.194726086               0.000000000              -0.251756494              -0.216796442               0.000000000              -0.276580845              -0.238866798               0.000000000              -0.301405195              -0.260937153               0.000000000              -0.326229546              -0.283007509               0.000000000              -0.351053896              -0.305077865               0.000000000              -0.375878247              -0.327148221               0.000000000              -0.400702598              -0.349218577               0.000000000              -0.425526948              -0.371288933               0.000000000              -0.450351299              -0.393359288               0.000000000              -0.475175649              -0.415429644               0.000000000              -0.500000000              -0.437500000               0.000000000              -0.094045202              -0.094045202               0.000000000              -0.119417377              -0.119417377               0.000000000              -0.144789552              -0.144789552               0.000000000              -0.170161727              -0.170161727               0.000000000              -0.195533901              -0.195533901               0.000000000              -0.220906076              -0.220906076               0.000000000              -0.246278251              -0.246278251               0.000000000              -0.271650426              -0.271650426               0.000000000              -0.297022601              -0.297022601               0.000000000              -0.322394776              -0.322394776               0.000000000              -0.347766951              -0.347766951               0.000000000              -0.373139126              -0.373139126               0.000000000              -0.398511300              -0.398511300               0.000000000              -0.423883475              -0.423883475               0.000000000              -0.449255650              -0.449255650               0.000000000              -0.474627825              -0.474627825               0.000000000              -0.500000000              -0.500000000               0.000000000              -0.084374307              -0.102810390               0.000000000              -0.106444663              -0.127634741               0.000000000              -0.128515018              -0.152459092               0.000000000              -0.150585374              -0.177283442               0.000000000              -0.172655730              -0.202107793               0.000000000              -0.194726086              -0.226932143               0.000000000              -0.216796442              -0.251756494               0.000000000              -0.238866798              -0.276580845               0.000000000              -0.260937153              -0.301405195               0.000000000              -0.283007509              -0.326229546               0.000000000              -0.305077865              -0.351053896               0.000000000              -0.327148221              -0.375878247               0.000000000              -0.349218577              -0.400702598               0.000000000              -0.371288933              -0.425526948               0.000000000              -0.393359288              -0.450351299               0.000000000              -0.415429644              -0.475175649               0.000000000              -0.437500000              -0.500000000               0.000000000              -0.073890841              -0.110585458               0.000000000              -0.092710163              -0.134923867               0.000000000              -0.111529486              -0.159262276               0.000000000              -0.130348808              -0.183600685               0.000000000              -0.149168131              -0.207939094               0.000000000              -0.167987453              -0.232277503               0.000000000              -0.186806776              -0.256615912               0.000000000              -0.205626098              -0.280954320               0.000000000              -0.224445420              -0.305292729               0.000000000              -0.243264743              -0.329631138               0.000000000              -0.262084065              -0.353969547               0.000000000              -0.280903388              -0.378307956               0.000000000              -0.299722710              -0.402646365               0.000000000              -0.318542033              -0.426984773               0.000000000              -0.337361355              -0.451323182               0.000000000              -0.356180678              -0.475661591               0.000000000              -0.375000000              -0.500000000               0.000000000              -0.062695766              -0.117295528               0.000000000              -0.078308531              -0.141214558               0.000000000              -0.093921295              -0.165133587               0.000000000              -0.109534060              -0.189052617               0.000000000              -0.125146824              -0.212971646               0.000000000              -0.140759589              -0.236890676               0.000000000              -0.156372354              -0.260809705               0.000000000              -0.171985118              -0.284728735               0.000000000              -0.187597883              -0.308647764               0.000000000              -0.203210648              -0.332566794               0.000000000              -0.218823412              -0.356485823               0.000000000              -0.234436177              -0.380404853               0.000000000              -0.250048941              -0.404323882               0.000000000              -0.265661706              -0.428242912               0.000000000              -0.281274471              -0.452161941               0.000000000              -0.296887235              -0.476080971               0.000000000              -0.312500000              -0.500000000               0.000000000              -0.050896897              -0.122875978               0.000000000              -0.063340840              -0.146446229               0.000000000              -0.075784784              -0.170016481               0.000000000              -0.088228728              -0.193586732               0.000000000              -0.100672672              -0.217156983               0.000000000              -0.113116616              -0.240727235               0.000000000              -0.125560560              -0.264297486               0.000000000              -0.138004504              -0.287867738               0.000000000              -0.150448448              -0.311437989               0.000000000              -0.162892392              -0.335008240               0.000000000              -0.175336336              -0.358578492               0.000000000              -0.187780280              -0.382148743               0.000000000              -0.200224224              -0.405718994               0.000000000              -0.212668168              -0.429289246               0.000000000              -0.225112112              -0.452859497               0.000000000              -0.237556056              -0.476429749               0.000000000              -0.250000000              -0.500000000               0.000000000              -0.038607862              -0.127273065               0.000000000              -0.047913621              -0.150568498               0.000000000              -0.057219379              -0.173863932               0.000000000              -0.066525138              -0.197159365               0.000000000              -0.075830897              -0.220454798               0.000000000              -0.085136655              -0.243750232               0.000000000              -0.094442414              -0.267045665               0.000000000              -0.103748172              -0.290341099               0.000000000              -0.113053931              -0.313636532               0.000000000              -0.122359690              -0.336931966               0.000000000              -0.131665448              -0.360227399               0.000000000              -0.140971207              -0.383522833               0.000000000              -0.150276966              -0.406818266               0.000000000              -0.159582724              -0.430113700               0.000000000              -0.168888483              -0.453409133               0.000000000              -0.178194241              -0.476704567               0.000000000              -0.187500000              -0.500000000               0.000000000              -0.025947013              -0.130444442               0.000000000              -0.032137825              -0.153541665               0.000000000              -0.038328636              -0.176638887               0.000000000              -0.044519448              -0.199736109               0.000000000              -0.050710260              -0.222833332               0.000000000              -0.056901071              -0.245930554               0.000000000              -0.063091883              -0.269027776               0.000000000              -0.069282695              -0.292124999               0.000000000              -0.075473506              -0.315222221               0.000000000              -0.081664318              -0.338319444               0.000000000              -0.087855130              -0.361416666               0.000000000              -0.094045942              -0.384513888               0.000000000              -0.100236753              -0.407611111               0.000000000              -0.106427565              -0.430708333               0.000000000              -0.112618377              -0.453805555               0.000000000              -0.118809188              -0.476902778               0.000000000              -0.125000000              -0.500000000               0.000000000              -0.013036280              -0.132359569               0.000000000              -0.016127762              -0.155337096               0.000000000              -0.019219245              -0.178314623               0.000000000              -0.022310727              -0.201292150               0.000000000              -0.025402210              -0.224269676               0.000000000              -0.028493692              -0.247247203               0.000000000              -0.031585175              -0.270224730               0.000000000              -0.034676657              -0.293202257               0.000000000              -0.037768140              -0.316179784               0.000000000              -0.040859622              -0.339157311               0.000000000              -0.043951105              -0.362134838               0.000000000              -0.047042587              -0.385112365               0.000000000              -0.050134070              -0.408089892               0.000000000              -0.053225552              -0.431067419               0.000000000              -0.056317035              -0.454044946               0.000000000              -0.059408517              -0.477022473               0.000000000              -0.062500000              -0.500000000               0.000000000               0.000000000              -0.133000000               0.000000000               0.000000000              -0.155937500               0.000000000               0.000000000              -0.178875000               0.000000000               0.000000000              -0.201812500               0.000000000               0.000000000              -0.224750000               0.000000000               0.000000000              -0.247687500               0.000000000               0.000000000              -0.270625000               0.000000000               0.000000000              -0.293562500               0.000000000               0.000000000              -0.316500000               0.000000000               0.000000000              -0.339437500               0.000000000               0.000000000              -0.362375000               0.000000000               0.000000000              -0.385312500               0.000000000               0.000000000              -0.408250000               0.000000000               0.000000000              -0.431187500               0.000000000               0.000000000              -0.454125000               0.000000000               0.000000000              -0.477062500               0.000000000               0.000000000              -0.500000000               0.000000000              -0.133000000               0.000000000               0.000000000              -0.155937500               0.000000000               0.000000000              -0.178875000               0.000000000               0.000000000              -0.201812500               0.000000000               0.000000000              -0.224750000               0.000000000               0.000000000              -0.247687500               0.000000000               0.000000000              -0.270625000               0.000000000               0.000000000              -0.293562500               0.000000000               0.000000000              -0.316500000               0.000000000               0.000000000              -0.339437500               0.000000000               0.000000000              -0.362375000               0.000000000               0.000000000              -0.385312500               0.000000000               0.000000000              -0.408250000               0.000000000               0.000000000              -0.431187500               0.000000000               0.000000000              -0.454125000               0.000000000               0.000000000              -0.477062500               0.000000000               0.000000000              -0.500000000               0.000000000               0.000000000              -0.132359569               0.013036280               0.000000000              -0.155337096               0.016127762               0.000000000              -0.178314623               0.019219245               0.000000000              -0.201292150               0.022310727               0.000000000              -0.224269676               0.025402210               0.000000000              -0.247247203               0.028493692               0.000000000              -0.270224730               0.031585175               0.000000000              -0.293202257               0.034676657               0.000000000              -0.316179784               0.037768140               0.000000000              -0.339157311               0.040859622               0.000000000              -0.362134838               0.043951105               0.000000000              -0.385112365               0.047042587               0.000000000              -0.408089892               0.050134070               0.000000000              -0.431067419               0.053225552               0.000000000              -0.454044946               0.056317035               0.000000000              -0.477022473               0.059408517               0.000000000              -0.500000000               0.062500000               0.000000000              -0.130444442               0.025947013               0.000000000              -0.153541665               0.032137825               0.000000000              -0.176638887               0.038328636               0.000000000              -0.199736109               0.044519448               0.000000000              -0.222833332               0.050710260               0.000000000              -0.245930554               0.056901071               0.000000000              -0.269027776               0.063091883               0.000000000              -0.292124999               0.069282695               0.000000000              -0.315222221               0.075473506               0.000000000              -0.338319444               0.081664318               0.000000000              -0.361416666               0.087855130               0.000000000              -0.384513888               0.094045942               0.000000000              -0.407611111               0.100236753               0.000000000              -0.430708333               0.106427565               0.000000000              -0.453805555               0.112618377               0.000000000              -0.476902778               0.118809188               0.000000000              -0.500000000               0.125000000               0.000000000              -0.127273065               0.038607862               0.000000000              -0.150568498               0.047913621               0.000000000              -0.173863932               0.057219379               0.000000000              -0.197159365               0.066525138               0.000000000              -0.220454798               0.075830897               0.000000000              -0.243750232               0.085136655               0.000000000              -0.267045665               0.094442414               0.000000000              -0.290341099               0.103748172               0.000000000              -0.313636532               0.113053931               0.000000000              -0.336931966               0.122359690               0.000000000              -0.360227399               0.131665448               0.000000000              -0.383522833               0.140971207               0.000000000              -0.406818266               0.150276966               0.000000000              -0.430113700               0.159582724               0.000000000              -0.453409133               0.168888483               0.000000000              -0.476704567               0.178194241               0.000000000              -0.500000000               0.187500000               0.000000000              -0.122875978               0.050896897               0.000000000              -0.146446229               0.063340840               0.000000000              -0.170016481               0.075784784               0.000000000              -0.193586732               0.088228728               0.000000000              -0.217156983               0.100672672               0.000000000              -0.240727235               0.113116616               0.000000000              -0.264297486               0.125560560               0.000000000              -0.287867738               0.138004504               0.000000000              -0.311437989               0.150448448               0.000000000              -0.335008240               0.162892392               0.000000000              -0.358578492               0.175336336               0.000000000              -0.382148743               0.187780280               0.000000000              -0.405718994               0.200224224               0.000000000              -0.429289246               0.212668168               0.000000000              -0.452859497               0.225112112               0.000000000              -0.476429749               0.237556056               0.000000000              -0.500000000               0.250000000               0.000000000              -0.117295528               0.062695766               0.000000000              -0.141214558               0.078308531               0.000000000              -0.165133587               0.093921295               0.000000000              -0.189052617               0.109534060               0.000000000              -0.212971646               0.125146824               0.000000000              -0.236890676               0.140759589               0.000000000              -0.260809705               0.156372354               0.000000000              -0.284728735               0.171985118               0.000000000              -0.308647764               0.187597883               0.000000000              -0.332566794               0.203210648               0.000000000              -0.356485823               0.218823412               0.000000000              -0.380404853               0.234436177               0.000000000              -0.404323882               0.250048941               0.000000000              -0.428242912               0.265661706               0.000000000              -0.452161941               0.281274471               0.000000000              -0.476080971               0.296887235               0.000000000              -0.500000000               0.312500000               0.000000000              -0.110585458               0.073890841               0.000000000              -0.134923867               0.092710163               0.000000000              -0.159262276               0.111529486               0.000000000              -0.183600685               0.130348808               0.000000000              -0.207939094               0.149168131               0.000000000              -0.232277503               0.167987453               0.000000000              -0.256615912               0.186806776               0.000000000              -0.280954320               0.205626098               0.000000000              -0.305292729               0.224445420               0.000000000              -0.329631138               0.243264743               0.000000000              -0.353969547               0.262084065               0.000000000              -0.378307956               0.280903388               0.000000000              -0.402646365               0.299722710               0.000000000              -0.426984773               0.318542033               0.000000000              -0.451323182               0.337361355               0.000000000              -0.475661591               0.356180678               0.000000000              -0.500000000               0.375000000               0.000000000              -0.102810390               0.084374307               0.000000000              -0.127634741               0.106444663               0.000000000              -0.152459092               0.128515018               0.000000000              -0.177283442               0.150585374               0.000000000              -0.202107793               0.172655730               0.000000000              -0.226932143               0.194726086               0.000000000              -0.251756494               0.216796442               0.000000000              -0.276580845               0.238866798               0.000000000              -0.301405195               0.260937153               0.000000000              -0.326229546               0.283007509               0.000000000              -0.351053896               0.305077865               0.000000000              -0.375878247               0.327148221               0.000000000              -0.400702598               0.349218577               0.000000000              -0.425526948               0.371288933               0.000000000              -0.450351299               0.393359288               0.000000000              -0.475175649               0.415429644               0.000000000              -0.500000000               0.437500000               0.000000000              -0.094045202               0.094045202               0.000000000              -0.119417377               0.119417377               0.000000000              -0.144789552               0.144789552               0.000000000              -0.170161727               0.170161727               0.000000000              -0.195533901               0.195533901               0.000000000              -0.220906076               0.220906076               0.000000000              -0.246278251               0.246278251               0.000000000              -0.271650426               0.271650426               0.000000000              -0.297022601               0.297022601               0.000000000              -0.322394776               0.322394776               0.000000000              -0.347766951               0.347766951               0.000000000              -0.373139126               0.373139126               0.000000000              -0.398511300               0.398511300               0.000000000              -0.423883475               0.423883475               0.000000000              -0.449255650               0.449255650               0.000000000              -0.474627825               0.474627825               0.000000000              -0.500000000               0.500000000               0.000000000              -0.084374307               0.102810390               0.000000000              -0.106444663               0.127634741               0.000000000              -0.128515018               0.152459092               0.000000000              -0.150585374               0.177283442               0.000000000              -0.172655730               0.202107793               0.000000000              -0.194726086               0.226932143               0.000000000              -0.216796442               0.251756494               0.000000000              -0.238866798               0.276580845               0.000000000              -0.260937153               0.301405195               0.000000000              -0.283007509               0.326229546               0.000000000              -0.305077865               0.351053896               0.000000000              -0.327148221               0.375878247               0.000000000              -0.349218577               0.400702598               0.000000000              -0.371288933               0.425526948               0.000000000              -0.393359288               0.450351299               0.000000000              -0.415429644               0.475175649               0.000000000              -0.437500000               0.500000000               0.000000000              -0.073890841               0.110585458               0.000000000              -0.092710163               0.134923867               0.000000000              -0.111529486               0.159262276               0.000000000              -0.130348808               0.183600685               0.000000000              -0.149168131               0.207939094               0.000000000              -0.167987453               0.232277503               0.000000000              -0.186806776               0.256615912               0.000000000              -0.205626098               0.280954320               0.000000000              -0.224445420               0.305292729               0.000000000              -0.243264743               0.329631138               0.000000000              -0.262084065               0.353969547               0.000000000              -0.280903388               0.378307956               0.000000000              -0.299722710               0.402646365               0.000000000              -0.318542033               0.426984773               0.000000000              -0.337361355               0.451323182               0.000000000              -0.356180678               0.475661591               0.000000000              -0.375000000               0.500000000               0.000000000              -0.062695766               0.117295528               0.000000000              -0.078308531               0.141214558               0.000000000              -0.093921295               0.165133587               0.000000000              -0.109534060               0.189052617               0.000000000              -0.125146824               0.212971646               0.000000000              -0.140759589               0.236890676               0.000000000              -0.156372354               0.260809705               0.000000000              -0.171985118               0.284728735               0.000000000              -0.187597883               0.308647764               0.000000000              -0.203210648               0.332566794               0.000000000              -0.218823412               0.356485823               0.000000000              -0.234436177               0.380404853               0.000000000              -0.250048941               0.404323882               0.000000000              -0.265661706               0.428242912               0.000000000              -0.281274471               0.452161941               0.000000000              -0.296887235               0.476080971               0.000000000              -0.312500000               0.500000000               0.000000000              -0.050896897               0.122875978               0.000000000              -0.063340840               0.146446229               0.000000000              -0.075784784               0.170016481               0.000000000              -0.088228728               0.193586732               0.000000000              -0.100672672               0.217156983               0.000000000              -0.113116616               0.240727235               0.000000000              -0.125560560               0.264297486               0.000000000              -0.138004504               0.287867738               0.000000000              -0.150448448               0.311437989               0.000000000              -0.162892392               0.335008240               0.000000000              -0.175336336               0.358578492               0.000000000              -0.187780280               0.382148743               0.000000000              -0.200224224               0.405718994               0.000000000              -0.212668168               0.429289246               0.000000000              -0.225112112               0.452859497               0.000000000              -0.237556056               0.476429749               0.000000000              -0.250000000               0.500000000               0.000000000              -0.038607862               0.127273065               0.000000000              -0.047913621               0.150568498               0.000000000              -0.057219379               0.173863932               0.000000000              -0.066525138               0.197159365               0.000000000              -0.075830897               0.220454798               0.000000000              -0.085136655               0.243750232               0.000000000              -0.094442414               0.267045665               0.000000000              -0.103748172               0.290341099               0.000000000              -0.113053931               0.313636532               0.000000000              -0.122359690               0.336931966               0.000000000              -0.131665448               0.360227399               0.000000000              -0.140971207               0.383522833               0.000000000              -0.150276966               0.406818266               0.000000000              -0.159582724               0.430113700               0.000000000              -0.168888483               0.453409133               0.000000000              -0.178194241               0.476704567               0.000000000              -0.187500000               0.500000000               0.000000000              -0.025947013               0.130444442               0.000000000              -0.032137825               0.153541665               0.000000000              -0.038328636               0.176638887               0.000000000              -0.044519448               0.199736109               0.000000000              -0.050710260               0.222833332               0.000000000              -0.056901071               0.245930554               0.000000000              -0.063091883               0.269027776               0.000000000              -0.069282695               0.292124999               0.000000000              -0.075473506               0.315222221               0.000000000              -0.081664318               0.338319444               0.000000000              -0.087855130               0.361416666               0.000000000              -0.094045942               0.384513888               0.000000000              -0.100236753               0.407611111               0.000000000              -0.106427565               0.430708333               0.000000000              -0.112618377               0.453805555               0.000000000              -0.118809188               0.476902778               0.000000000              -0.125000000               0.500000000               0.000000000              -0.013036280               0.132359569               0.000000000              -0.016127762               0.155337096               0.000000000              -0.019219245               0.178314623               0.000000000              -0.022310727               0.201292150               0.000000000              -0.025402210               0.224269676               0.000000000              -0.028493692               0.247247203               0.000000000              -0.031585175               0.270224730               0.000000000              -0.034676657               0.293202257               0.000000000              -0.037768140               0.316179784               0.000000000              -0.040859622               0.339157311               0.000000000              -0.043951105               0.362134838               0.000000000              -0.047042587               0.385112365               0.000000000              -0.050134070               0.408089892               0.000000000              -0.053225552               0.431067419               0.000000000              -0.056317035               0.454044946               0.000000000              -0.059408517               0.477022473               0.000000000              -0.062500000               0.500000000               0.000000000               0.000000000               0.133000000               0.000000000               0.000000000               0.155937500               0.000000000               0.000000000               0.178875000               0.000000000               0.000000000               0.201812500               0.000000000               0.000000000               0.224750000               0.000000000               0.000000000               0.247687500               0.000000000               0.000000000               0.270625000               0.000000000               0.000000000               0.293562500               0.000000000               0.000000000               0.316500000               0.000000000               0.000000000               0.339437500               0.000000000               0.000000000               0.362375000               0.000000000               0.000000000               0.385312500               0.000000000               0.000000000               0.408250000               0.000000000               0.000000000               0.431187500               0.000000000               0.000000000               0.454125000               0.000000000               0.000000000               0.477062500               0.000000000               0.000000000               0.500000000               0.000000000 </DataArray>
</Points>
<Cells>
<DataArray type="Int32"                                    Name="connectivity"                                                      NumberOfComponents=" 1" format="ascii">
         0          1         18         17          1          2         19         18          2          3         20         19          3          4         21         20          4          5         22         21          5          6         23         22          6          7         24         23          7          8         25         24          8          9         26         25          9         10         27         26         10         11         28         27         11         12         29         28         12         13         30         29         13         14         31         30         14         15         32         31         15         16         33         32         17         18         35         34         18         19         36         35         19         20         37         36         20         21         38         37         21         22         39         38         22         23         40         39         23         24         41         40         24         25         42         41         25         26         43         42         26         27         44         43         27         28         45         44         28         29         46         45         29         30         47         46         30         31         48         47         31         32         49         48         32         33         50         49         34         35         52         51         35         36         53         52         36         37         54         53         37         38         55         54         38         39         56         55         39         40         57         56         40         41         58         57         41         42         59         58         42         43         60         59         43         44         61         60         44         45         62         61         45         46         63         62         46         47         64         63         47         48         65         64         48         49         66         65         49         50         67         66         51         52         69         68         52         53         70         69         53         54         71         70         54         55         72         71         55         56         73         72         56         57         74         73         57         58         75         74         58         59         76         75         59         60         77         76         60         61         78         77         61         62         79         78         62         63         80         79         63         64         81         80         64         65         82         81         65         66         83         82         66         67         84         83         68         69         86         85         69         70         87         86         70         71         88         87         71         72         89         88         72         73         90         89         73         74         91         90         74         75         92         91         75         76         93         92         76         77         94         93         77         78         95         94         78         79         96         95         79         80         97         96         80         81         98         97         81         82         99         98         82         83        100         99         83         84        101        100         85         86        103        102         86         87        104        103         87         88        105        104         88         89        106        105         89         90        107        106         90         91        108        107         91         92        109        108         92         93        110        109         93         94        111        110         94         95        112        111         95         96        113        112         96         97        114        113         97         98        115        114         98         99        116        115         99        100        117        116        100        101        118        117        102        103        120        119        103        104        121        120        104        105        122        121        105        106        123        122        106        107        124        123        107        108        125        124        108        109        126        125        109        110        127        126        110        111        128        127        111        112        129        128        112        113        130        129        113        114        131        130        114        115        132        131        115        116        133        132        116        117        134        133        117        118        135        134        119        120        137        136        120        121        138        137        121        122        139        138        122        123        140        139        123        124        141        140        124        125        142        141        125        126        143        142        126        127        144        143        127        128        145        144        128        129        146        145        129        130        147        146        130        131        148        147        131        132        149        148        132        133        150        149        133        134        151        150        134        135        152        151        136        137        154        153        137        138        155        154        138        139        156        155        139        140        157        156        140        141        158        157        141        142        159        158        142        143        160        159        143        144        161        160        144        145        162        161        145        146        163        162        146        147        164        163        147        148        165        164        148        149        166        165        149        150        167        166        150        151        168        167        151        152        169        168        153        154        171        170        154        155        172        171        155        156        173        172        156        157        174        173        157        158        175        174        158        159        176        175        159        160        177        176        160        161        178        177        161        162        179        178        162        163        180        179        163        164        181        180        164        165        182        181        165        166        183        182        166        167        184        183        167        168        185        184        168        169        186        185        170        171        188        187        171        172        189        188        172        173        190        189        173        174        191        190        174        175        192        191        175        176        193        192        176        177        194        193        177        178        195        194        178        179        196        195        179        180        197        196        180        181        198        197        181        182        199        198        182        183        200        199        183        184        201        200        184        185        202        201        185        186        203        202        187        188        205        204        188        189        206        205        189        190        207        206        190        191        208        207        191        192        209        208        192        193        210        209        193        194        211        210        194        195        212        211        195        196        213        212        196        197        214        213        197        198        215        214        198        199        216        215        199        200        217        216        200        201        218        217        201        202        219        218        202        203        220        219        204        205        222        221        205        206        223        222        206        207        224        223        207        208        225        224        208        209        226        225        209        210        227        226        210        211        228        227        211        212        229        228        212        213        230        229        213        214        231        230        214        215        232        231        215        216        233        232        216        217        234        233        217        218        235        234        218        219        236        235        219        220        237        236        221        222        239        238        222        223        240        239        223        224        241        240        224        225        242        241        225        226        243        242        226        227        244        243        227        228        245        244        228        229        246        245        229        230        247        246        230        231        248        247        231        232        249        248        232        233        250        249        233        234        251        250        234        235        252        251        235        236        253        252        236        237        254        253        238        239        256        255        239        240        257        256        240        241        258        257        241        242        259        258        242        243        260        259        243        244        261        260        244        245        262        261        245        246        263        262        246        247        264        263        247        248        265        264        248        249        266        265        249        250        267        266        250        251        268        267        251        252        269        268        252        253        270        269        253        254        271        270        255        256        273        272        256        257        274        273        257        258        275        274        258        259        276        275        259        260        277        276        260        261        278        277        261        262        279        278        262        263        280        279        263        264        281        280        264        265        282        281        265        266        283        282        266        267        284        283        267        268        285        284        268        269        286        285        269        270        287        286        270        271        288        287        306        307          1          0        307        308          2          1        308        309          3          2        309        310          4          3        310        311          5          4        311        312          6          5        312        313          7          6        313        314          8          7        314        315          9          8        315        316         10          9        316        317         11         10        317        318         12         11        318        319         13         12        319        320         14         13        320        321         15         14        321        322         16         15        323        324        307        306        324        325        308        307        325        326        309        308        326        327        310        309        327        328        311        310        328        329        312        311        329        330        313        312        330        331        314        313        331        332        315        314        332        333        316        315        333        334        317        316        334        335        318        317        335        336        319        318        336        337        320        319        337        338        321        320        338        339        322        321        340        341        324        323        341        342        325        324        342        343        326        325        343        344        327        326        344        345        328        327        345        346        329        328        346        347        330        329        347        348        331        330        348        349        332        331        349        350        333        332        350        351        334        333        351        352        335        334        352        353        336        335        353        354        337        336        354        355        338        337        355        356        339        338        357        358        341        340        358        359        342        341        359        360        343        342        360        361        344        343        361        362        345        344        362        363        346        345        363        364        347        346        364        365        348        347        365        366        349        348        366        367        350        349        367        368        351        350        368        369        352        351        369        370        353        352        370        371        354        353        371        372        355        354        372        373        356        355        374        375        358        357        375        376        359        358        376        377        360        359        377        378        361        360        378        379        362        361        379        380        363        362        380        381        364        363        381        382        365        364        382        383        366        365        383        384        367        366        384        385        368        367        385        386        369        368        386        387        370        369        387        388        371        370        388        389        372        371        389        390        373        372        391        392        375        374        392        393        376        375        393        394        377        376        394        395        378        377        395        396        379        378        396        397        380        379        397        398        381        380        398        399        382        381        399        400        383        382        400        401        384        383        401        402        385        384        402        403        386        385        403        404        387        386        404        405        388        387        405        406        389        388        406        407        390        389        408        409        392        391        409        410        393        392        410        411        394        393        411        412        395        394        412        413        396        395        413        414        397        396        414        415        398        397        415        416        399        398        416        417        400        399        417        418        401        400        418        419        402        401        419        420        403        402        420        421        404        403        421        422        405        404        422        423        406        405        423        424        407        406        425        426        409        408        426        427        410        409        427        428        411        410        428        429        412        411        429        430        413        412        430        431        414        413        431        432        415        414        432        433        416        415        433        434        417        416        434        435        418        417        435        436        419        418        436        437        420        419        437        438        421        420        438        439        422        421        439        440        423        422        440        441        424        423        442        443        426        425        443        444        427        426        444        445        428        427        445        446        429        428        446        447        430        429        447        448        431        430        448        449        432        431        449        450        433        432        450        451        434        433        451        452        435        434        452        453        436        435        453        454        437        436        454        455        438        437        455        456        439        438        456        457        440        439        457        458        441        440        459        460        443        442        460        461        444        443        461        462        445        444        462        463        446        445        463        464        447        446        464        465        448        447        465        466        449        448        466        467        450        449        467        468        451        450        468        469        452        451        469        470        453        452        470        471        454        453        471        472        455        454        472        473        456        455        473        474        457        456        474        475        458        457        476        477        460        459        477        478        461        460        478        479        462        461        479        480        463        462        480        481        464        463        481        482        465        464        482        483        466        465        483        484        467        466        484        485        468        467        485        486        469        468        486        487        470        469        487        488        471        470        488        489        472        471        489        490        473        472        490        491        474        473        491        492        475        474        493        494        477        476        494        495        478        477        495        496        479        478        496        497        480        479        497        498        481        480        498        499        482        481        499        500        483        482        500        501        484        483        501        502        485        484        502        503        486        485        503        504        487        486        504        505        488        487        505        506        489        488        506        507        490        489        507        508        491        490        508        509        492        491        510        511        494        493        511        512        495        494        512        513        496        495        513        514        497        496        514        515        498        497        515        516        499        498        516        517        500        499        517        518        501        500        518        519        502        501        519        520        503        502        520        521        504        503        521        522        505        504        522        523        506        505        523        524        507        506        524        525        508        507        525        526        509        508        527        528        511        510        528        529        512        511        529        530        513        512        530        531        514        513        531        532        515        514        532        533        516        515        533        534        517        516        534        535        518        517        535        536        519        518        536        537        520        519        537        538        521        520        538        539        522        521        539        540        523        522        540        541        524        523        541        542        525        524        542        543        526        525        544        545        528        527        545        546        529        528        546        547        530        529        547        548        531        530        548        549        532        531        549        550        533        532        550        551        534        533        551        552        535        534        552        553        536        535        553        554        537        536        554        555        538        537        555        556        539        538        556        557        540        539        557        558        541        540        558        559        542        541        559        560        543        542        561        562        545        544        562        563        546        545        563        564        547        546        564        565        548        547        565        566        549        548        566        567        550        549        567        568        551        550        568        569        552        551        569        570        553        552        570        571        554        553        571        572        555        554        572        573        556        555        573        574        557        556        574        575        558        557        575        576        559        558        576        577        560        559        578        579        596        595        579        580        597        596        580        581        598        597        581        582        599        598        582        583        600        599        583        584        601        600        584        585        602        601        585        586        603        602        586        587        604        603        587        588        605        604        588        589        606        605        589        590        607        606        590        591        608        607        591        592        609        608        592        593        610        609        593        594        611        610        595        596        613        612        596        597        614        613        597        598        615        614        598        599        616        615        599        600        617        616        600        601        618        617        601        602        619        618        602        603        620        619        603        604        621        620        604        605        622        621        605        606        623        622        606        607        624        623        607        608        625        624        608        609        626        625        609        610        627        626        610        611        628        627        612        613        630        629        613        614        631        630        614        615        632        631        615        616        633        632        616        617        634        633        617        618        635        634        618        619        636        635        619        620        637        636        620        621        638        637        621        622        639        638        622        623        640        639        623        624        641        640        624        625        642        641        625        626        643        642        626        627        644        643        627        628        645        644        629        630        647        646        630        631        648        647        631        632        649        648        632        633        650        649        633        634        651        650        634        635        652        651        635        636        653        652        636        637        654        653        637        638        655        654        638        639        656        655        639        640        657        656        640        641        658        657        641        642        659        658        642        643        660        659        643        644        661        660        644        645        662        661        646        647        664        663        647        648        665        664        648        649        666        665        649        650        667        666        650        651        668        667        651        652        669        668        652        653        670        669        653        654        671        670        654        655        672        671        655        656        673        672        656        657        674        673        657        658        675        674        658        659        676        675        659        660        677        676        660        661        678        677        661        662        679        678        663        664        681        680        664        665        682        681        665        666        683        682        666        667        684        683        667        668        685        684        668        669        686        685        669        670        687        686        670        671        688        687        671        672        689        688        672        673        690        689        673        674        691        690        674        675        692        691        675        676        693        692        676        677        694        693        677        678        695        694        678        679        696        695        680        681        698        697        681        682        699        698        682        683        700        699        683        684        701        700        684        685        702        701        685        686        703        702        686        687        704        703        687        688        705        704        688        689        706        705        689        690        707        706        690        691        708        707        691        692        709        708        692        693        710        709        693        694        711        710        694        695        712        711        695        696        713        712        697        698        715        714        698        699        716        715        699        700        717        716        700        701        718        717        701        702        719        718        702        703        720        719        703        704        721        720        704        705        722        721        705        706        723        722        706        707        724        723        707        708        725        724        708        709        726        725        709        710        727        726        710        711        728        727        711        712        729        728        712        713        730        729        714        715        732        731        715        716        733        732        716        717        734        733        717        718        735        734        718        719        736        735        719        720        737        736        720        721        738        737        721        722        739        738        722        723        740        739        723        724        741        740        724        725        742        741        725        726        743        742        726        727        744        743        727        728        745        744        728        729        746        745        729        730        747        746        731        732        749        748        732        733        750        749        733        734        751        750        734        735        752        751        735        736        753        752        736        737        754        753        737        738        755        754        738        739        756        755        739        740        757        756        740        741        758        757        741        742        759        758        742        743        760        759        743        744        761        760        744        745        762        761        745        746        763        762        746        747        764        763        748        749        766        765        749        750        767        766        750        751        768        767        751        752        769        768        752        753        770        769        753        754        771        770        754        755        772        771        755        756        773        772        756        757        774        773        757        758        775        774        758        759        776        775        759        760        777        776        760        761        778        777        761        762        779        778        762        763        780        779        763        764        781        780        765        766        783        782        766        767        784        783        767        768        785        784        768        769        786        785        769        770        787        786        770        771        788        787        771        772        789        788        772        773        790        789        773        774        791        790        774        775        792        791        775        776        793        792        776        777        794        793        777        778        795        794        778        779        796        795        779        780        797        796        780        781        798        797        782        783        800        799        783        784        801        800        784        785        802        801        785        786        803        802        786        787        804        803        787        788        805        804        788        789        806        805        789        790        807        806        790        791        808        807        791        792        809        808        792        793        810        809        793        794        811        810        794        795        812        811        795        796        813        812        796        797        814        813        797        798        815        814        799        800        817        816        800        801        818        817        801        802        819        818        802        803        820        819        803        804        821        820        804        805        822        821        805        806        823        822        806        807        824        823        807        808        825        824        808        809        826        825        809        810        827        826        810        811        828        827        811        812        829        828        812        813        830        829        813        814        831        830        814        815        832        831        816        817        834        833        817        818        835        834        818        819        836        835        819        820        837        836        820        821        838        837        821        822        839        838        822        823        840        839        823        824        841        840        824        825        842        841        825        826        843        842        826        827        844        843        827        828        845        844        828        829        846        845        829        830        847        846        830        831        848        847        831        832        849        848        833        834        562        561        834        835        563        562        835        836        564        563        836        837        565        564        837        838        566        565        838        839        567        566        839        840        568        567        840        841        569        568        841        842        570        569        842        843        571        570        843        844        572        571        844        845        573        572        845        846        574        573        846        847        575        574        847        848        576        575        848        849        577        576        884        885        579        578        885        886        580        579        886        887        581        580        887        888        582        581        888        889        583        582        889        890        584        583        890        891        585        584        891        892        586        585        892        893        587        586        893        894        588        587        894        895        589        588        895        896        590        589        896        897        591        590        897        898        592        591        898        899        593        592        899        900        594        593        901        902        885        884        902        903        886        885        903        904        887        886        904        905        888        887        905        906        889        888        906        907        890        889        907        908        891        890        908        909        892        891        909        910        893        892        910        911        894        893        911        912        895        894        912        913        896        895        913        914        897        896        914        915        898        897        915        916        899        898        916        917        900        899        918        919        902        901        919        920        903        902        920        921        904        903        921        922        905        904        922        923        906        905        923        924        907        906        924        925        908        907        925        926        909        908        926        927        910        909        927        928        911        910        928        929        912        911        929        930        913        912        930        931        914        913        931        932        915        914        932        933        916        915        933        934        917        916        935        936        919        918        936        937        920        919        937        938        921        920        938        939        922        921        939        940        923        922        940        941        924        923        941        942        925        924        942        943        926        925        943        944        927        926        944        945        928        927        945        946        929        928        946        947        930        929        947        948        931        930        948        949        932        931        949        950        933        932        950        951        934        933        952        953        936        935        953        954        937        936        954        955        938        937        955        956        939        938        956        957        940        939        957        958        941        940        958        959        942        941        959        960        943        942        960        961        944        943        961        962        945        944        962        963        946        945        963        964        947        946        964        965        948        947        965        966        949        948        966        967        950        949        967        968        951        950        969        970        953        952        970        971        954        953        971        972        955        954        972        973        956        955        973        974        957        956        974        975        958        957        975        976        959        958        976        977        960        959        977        978        961        960        978        979        962        961        979        980        963        962        980        981        964        963        981        982        965        964        982        983        966        965        983        984        967        966        984        985        968        967        986        987        970        969        987        988        971        970        988        989        972        971        989        990        973        972        990        991        974        973        991        992        975        974        992        993        976        975        993        994        977        976        994        995        978        977        995        996        979        978        996        997        980        979        997        998        981        980        998        999        982        981        999       1000        983        982       1000       1001        984        983       1001       1002        985        984       1003       1004        987        986       1004       1005        988        987       1005       1006        989        988       1006       1007        990        989       1007       1008        991        990       1008       1009        992        991       1009       1010        993        992       1010       1011        994        993       1011       1012        995        994       1012       1013        996        995       1013       1014        997        996       1014       1015        998        997       1015       1016        999        998       1016       1017       1000        999       1017       1018       1001       1000       1018       1019       1002       1001       1020       1021       1004       1003       1021       1022       1005       1004       1022       1023       1006       1005       1023       1024       1007       1006       1024       1025       1008       1007       1025       1026       1009       1008       1026       1027       1010       1009       1027       1028       1011       1010       1028       1029       1012       1011       1029       1030       1013       1012       1030       1031       1014       1013       1031       1032       1015       1014       1032       1033       1016       1015       1033       1034       1017       1016       1034       1035       1018       1017       1035       1036       1019       1018       1037       1038       1021       1020       1038       1039       1022       1021       1039       1040       1023       1022       1040       1041       1024       1023       1041       1042       1025       1024       1042       1043       1026       1025       1043       1044       1027       1026       1044       1045       1028       1027       1045       1046       1029       1028       1046       1047       1030       1029       1047       1048       1031       1030       1048       1049       1032       1031       1049       1050       1033       1032       1050       1051       1034       1033       1051       1052       1035       1034       1052       1053       1036       1035       1054       1055       1038       1037       1055       1056       1039       1038       1056       1057       1040       1039       1057       1058       1041       1040       1058       1059       1042       1041       1059       1060       1043       1042       1060       1061       1044       1043       1061       1062       1045       1044       1062       1063       1046       1045       1063       1064       1047       1046       1064       1065       1048       1047       1065       1066       1049       1048       1066       1067       1050       1049       1067       1068       1051       1050       1068       1069       1052       1051       1069       1070       1053       1052       1071       1072       1055       1054       1072       1073       1056       1055       1073       1074       1057       1056       1074       1075       1058       1057       1075       1076       1059       1058       1076       1077       1060       1059       1077       1078       1061       1060       1078       1079       1062       1061       1079       1080       1063       1062       1080       1081       1064       1063       1081       1082       1065       1064       1082       1083       1066       1065       1083       1084       1067       1066       1084       1085       1068       1067       1085       1086       1069       1068       1086       1087       1070       1069       1088       1089       1072       1071       1089       1090       1073       1072       1090       1091       1074       1073       1091       1092       1075       1074       1092       1093       1076       1075       1093       1094       1077       1076       1094       1095       1078       1077       1095       1096       1079       1078       1096       1097       1080       1079       1097       1098       1081       1080       1098       1099       1082       1081       1099       1100       1083       1082       1100       1101       1084       1083       1101       1102       1085       1084       1102       1103       1086       1085       1103       1104       1087       1086       1105       1106       1089       1088       1106       1107       1090       1089       1107       1108       1091       1090       1108       1109       1092       1091       1109       1110       1093       1092       1110       1111       1094       1093       1111       1112       1095       1094       1112       1113       1096       1095       1113       1114       1097       1096       1114       1115       1098       1097       1115       1116       1099       1098       1116       1117       1100       1099       1117       1118       1101       1100       1118       1119       1102       1101       1119       1120       1103       1102       1120       1121       1104       1103       1122       1123       1106       1105       1123       1124       1107       1106       1124       1125       1108       1107       1125       1126       1109       1108       1126       1127       1110       1109       1127       1128       1111       1110       1128       1129       1112       1111       1129       1130       1113       1112       1130       1131       1114       1113       1131       1132       1115       1114       1132       1133       1116       1115       1133       1134       1117       1116       1134       1135       1118       1117       1135       1136       1119       1118       1136       1137       1120       1119       1137       1138       1121       1120        272        273       1123       1122        273        274       1124       1123        274        275       1125       1124        275        276       1126       1125        276        277       1127       1126        277        278       1128       1127        278        279       1129       1128        279        280       1130       1129        280        281       1131       1130        281        282       1132       1131        282        283       1133       1132        283        284       1134       1133        284        285       1135       1134        285        286       1136       1135        286        287       1137       1136        287        288       1138       1137 </DataArray>
<DataArray type="Int32"                                    Name="offsets"                                                      NumberOfComponents=" 1" format="ascii">
         4          8         12         16         20         24         28         32         36         40         44         48         52         56         60         64         68         72         76         80         84         88         92         96        100        104        108        112        116        120        124        128        132        136        140        144        148        152        156        160        164        168        172        176        180        184        188        192        196        200        204        208        212        216        220        224        228        232        236        240        244        248        252        256        260        264        268        272        276        280        284        288        292        296        300        304        308        312        316        320        324        328        332        336        340        344        348        352        356        360        364        368        372        376        380        384        388        392        396        400        404        408        412        416        420        424        428        432        436        440        444        448        452        456        460        464        468        472        476        480        484        488        492        496        500        504        508        512        516        520        524        528        532        536        540        544        548        552        556        560        564        568        572        576        580        584        588        592        596        600        604        608        612        616        620        624        628        632        636        640        644        648        652        656        660        664        668        672        676        680        684        688        692        696        700        704        708        712        716        720        724        728        732        736        740        744        748        752        756        760        764        768        772        776        780        784        788        792        796        800        804        808        812        816        820        824        828        832        836        840        844        848        852        856        860        864        868        872        876        880        884        888        892        896        900        904        908        912        916        920        924        928        932        936        940        944        948        952        956        960        964        968        972        976        980        984        988        992        996       1000       1004       1008       1012       1016       1020       1024       1028       1032       1036       1040       1044       1048       1052       1056       1060       1064       1068       1072       1076       1080       1084       1088       1092       1096       1100       1104       1108       1112       1116       1120       1124       1128       1132       1136       1140       1144       1148       1152       1156       1160       1164       1168       1172       1176       1180       1184       1188       1192       1196       1200       1204       1208       1212       1216       1220       1224       1228       1232       1236       1240       1244       1248       1252       1256       1260       1264       1268       1272       1276       1280       1284       1288       1292       1296       1300       1304       1308       1312       1316       1320       1324       1328       1332       1336       1340       1344       1348       1352       1356       1360       1364       1368       1372       1376       1380       1384       1388       1392       1396       1400       1404       1408       1412       1416       1420       1424       1428       1432       1436       1440       1444       1448       1452       1456       1460       1464       1468       1472       1476       1480       1484       1488       1492       1496       1500       1504       1508       1512       1516       1520       1524       1528       1532       1536       1540       1544       1548       1552       1556       1560       1564       1568       1572       1576       1580       1584       1588       1592       1596       1600       1604       1608       1612       1616       1620       1624       1628       1632       1636       1640       1644       1648       1652       1656       1660       1664       1668       1672       1676       1680       1684       1688       1692       1696       1700       1704       1708       1712       1716       1720       1724       1728       1732       1736       1740       1744       1748       1752       1756       1760       1764       1768       1772       1776       1780       1784       1788       1792       1796       1800       1804       1808       1812       1816       1820       1824       1828       1832       1836       1840       1844       1848       1852       1856       1860       1864       1868       1872       1876       1880       1884       1888       1892       1896       1900       1904       1908       1912       1916       1920       1924       1928       1932       1936       1940       1944       1948       1952       1956       1960       1964       1968       1972       1976       1980       1984       1988       1992       1996       2000       2004       2008       2012       2016       2020       2024       2028       2032       2036       2040       2044       2048       2052       2056       2060       2064       2068       2072       2076       2080       2084       2088       2092       2096       2100       2104       2108       2112       2116       2120       2124       2128       2132       2136       2140       2144       2148       2152       2156       2160       2164       2168       2172       2176       2180       2184       2188       2192       2196       2200       2204       2208       2212       2216       2220       2224       2228       2232       2236       2240       2244       2248       2252       2256       2260       2264       2268       2272       2276       2280       2284       2288       2292       2296       2300       2304       2308       2312       2316       2320       2324       2328       2332       2336       2340       2344       2348       2352       2356       2360       2364       2368       2372       2376       2380       2384       2388       2392       2396       2400       2404       2408       2412       2416       2420       2424       2428       2432       2436       2440       2444       2448       2452       2456       2460       2464       2468       2472       2476       2480       2484       2488       2492       2496       2500       2504       2508       2512       2516       2520       2524       2528       2532       2536       2540       2544       2548       2552       2556       2560       2564       2568       2572       2576       2580       2584       2588       2592       2596       2600       2604       2608       2612       2616       2620       2624       2628       2632       2636       2640       2644       2648       2652       2656       2660       2664       2668       2672       2676       2680       2684       2688       2692       2696       2700       2704       2708       2712       2716       2720       2724       2728       2732       2736       2740       2744       2748       2752       2756       2760       2764       2768       2772       2776       2780       2784       2788       2792       2796       2800       2804       2808       2812       2816       2820       2824       2828       2832       2836       2840       2844       2848       2852       2856       2860       2864       2868       2872       2876       2880       2884       2888       2892       2896       2900       2904       2908       2912       2916       2920       2924       2928       2932       2936       2940       2944       2948       2952       2956       2960       2964       2968       2972       2976       2980       2984       2988       2992       2996       3000       3004       3008       3012       3016       3020       3024       3028       3032       3036       3040       3044       3048       3052       3056       3060       3064       3068       3072       3076       3080       3084       3088       3092       3096       3100       3104       3108       3112       3116       3120       3124       3128       3132       3136       3140       3144       3148       3152       3156       3160       3164       3168       3172       3176       3180       3184       3188       3192       3196       3200       3204       3208       3212       3216       3220       3224       3228       3232       3236       3240       3244       3248       3252       3256       3260       3264       3268       3272       3276       3280       3284       3288       3292       3296       3300       3304       3308       3312       3316       3320       3324       3328       3332       3336       3340       3344       3348       3352       3356       3360       3364       3368       3372       3376       3380       3384       3388       3392       3396       3400       3404       3408       3412       3416       3420       3424       3428       3432       3436       3440       3444       3448       3452       3456       3460       3464       3468       3472       3476       3480       3484       3488       3492       3496       3500       3504       3508       3512       3516       3520       3524       3528       3532       3536       3540       3544       3548       3552       3556       3560       3564       3568       3572       3576       3580       3584       3588       3592       3596       3600       3604       3608       3612       3616       3620       3624       3628       3632       3636       3640       3644       3648       3652       3656       3660       3664       3668       3672       3676       3680       3684       3688       3692       3696       3700       3704       3708       3712       3716       3720       3724       3728       3732       3736       3740       3744       3748       3752       3756       3760       3764       3768       3772       3776       3780       3784       3788       3792       3796       3800       3804       3808       3812       3816       3820       3824       3828       3832       3836       3840       3844       3848       3852       3856       3860       3864       3868       3872       3876       3880       3884       3888       3892       3896       3900       3904       3908       3912       3916       3920       3924       3928       3932       3936       3940       3944       3948       3952       3956       3960       3964       3968       3972       3976       3980       3984       3988       3992       3996       4000       4004       4008       4012       4016       4020       4024       4028       4032       4036       4040       4044       4048       4052       4056       4060       4064       4068       4072       4076       4080       4084       4088       4092       4096 </DataArray>
<DataArray type="UInt8"                                    Name="types"                                                      NumberOfComponents=" 1" format="ascii">
         9          9          9          9          9          9          9          9          9          9          9          9          9          9          9          9          9          9          9          9          9          9          9          9          9          9          9          9          9          9          9          9          9          9          9          9          9          9          9          9          9          9          9          9          9          9          9          9          9          9          9          9          9          9          9          9          9          9          9          9          9          9          9          9          9          9          9          9          9          9          9          9          9          9          9          9          9          9          9          9          9          9          9          9          9          9          9          9          9          9          9          9          9          9          9          9          9          9          9          9          9          9          9          9          9          9          9          9          9          9          9          9          9          9          9          9          9          9          9          9          9          9          9          9          9          9          9          9          9          9          9          9          9          9          9          9          9          9          9          9          9          9          9          9          9          9          9          9          9          9          9          9          9          9          9          9          9          9          9          9          9          9          9          9          9          9          9          9          9          9          9          9          9          9          9          9          9          9          9          9          9          9          9          9          9          9          9          9          9          9          9          9          9          9          9          9          9          9          9          9          9          9          9          9          9          9          9          9          9          9          9          9          9          9          9          9          9          9          9          9          9          9          9          9          9          9          9          9          9          9          9          9          9          9          9          9          9          9          9          9          9          9          9          9          9          9          9          9          9          9          9          9          9          9          9          9          9          9          9          9          9          9          9          9          9          9          9          9          9          9          9          9          9          9          9          9          9          9          9          9          9          9          9          9          9          9          9          9          9          9          9          9          9          9          9          9          9          9          9          9          9          9          9          9          9          9          9          9          9          9          9          9          9          9          9          9          9          9          9          9          9          9          9          9          9          9          9          9          9          9          9          9          9          9          9          9          9          9          9          9          9          9          9          9          9          9          9          9          9          9          9          9          9          9          9          9          9          9          9          9          9          9          9          9          9          9          9          9          9          9          9          9          9          9          9          9          9          9          9          9          9          9          9          9          9          9          9          9          9          9          9          9          9          9          9          9          9          9          9          9          9          9          9          9          9          9          9          9          9          9          9          9          9          9          9          9          9          9          9          9          9          9          9          9          9          9          9          9          9          9          9          9          9          9          9          9          9          9          9          9          9          9          9          9          9          9          9          9          9          9          9          9          9          9          9          9          9          9          9          9          9          9          9          9          9          9          9          9          9          9          9          9          9          9          9          9          9          9          9          9          9          9          9          9          9          9          9          9          9          9          9          9          9          9          9          9          9          9          9          9          9          9          9          9          9          9          9          9          9          9          9          9          9          9          9          9          9          9          9          9          9          9          9          9          9          9          9          9          9          9          9          9          9          9          9          9          9          9          9          9          9          9          9          9          9          9          9          9          9          9          9          9          9          9          9          9          9          9          9          9          9          9          9          9          9          9          9          9          9          9          9          9          9          9          9          9          9          9          9          9          9          9          9          9          9          9          9          9          9          9          9          9          9          9          9          9          9          9          9          9          9          9          9          9          9          9          9          9          9          9          9          9          9          9          9          9          9          9          9          9          9          9          9          9          9          9          9          9          9          9          9          9          9          9          9          9          9          9          9          9          9          9          9          9          9          9          9          9          9          9          9          9          9          9          9          9          9          9          9          9          9          9          9          9          9          9          9          9          9          9          9          9          9          9          9          9          9          9          9          9          9          9          9          9          9          9          9          9          9          9          9          9          9          9          9          9          9          9          9          9          9          9          9          9          9          9          9          9          9          9          9          9          9          9          9          9          9          9          9          9          9          9          9          9          9          9          9          9          9          9          9          9          9          9          9          9          9          9          9          9          9          9          9          9          9          9          9          9          9          9          9          9          9          9          9          9          9          9          9          9          9          9          9          9          9          9          9          9          9          9          9          9          9          9          9          9          9          9          9          9          9          9          9          9          9          9          9          9          9          9          9          9          9          9          9          9          9          9          9          9          9          9          9          9          9          9          9          9          9          9          9          9          9          9          9          9          9          9          9          9          9          9          9          9          9          9          9          9          9          9          9          9          9          9          9          9          9          9          9          9          9          9          9          9          9          9          9          9          9          9          9          9          9          9          9          9          9          9          9          9          9          9          9          9          9          9          9          9          9          9          9          9          9          9          9          9          9          9          9          9          9          9          9          9          9          9          9          9          9          9          9          9          9          9          9          9          9          9          9          9          9          9          9          9          9          9          9          9          9          9          9          9          9          9          9          9          9          9          9          9          9          9          9          9          9          9          9          9          9          9          9          9          9          9          9          9          9          9          9          9          9          9          9          9          9          9          9          9          9          9          9          9          9          9          9          9          9          9          9          9          9          9          9          9          9          9          9          9          9          9          9          9          9          9          9          9          9          9          9          9          9          9          9          9          9          9          9          9          9          9          9          9          9          9          9          9          9          9          9          9          9          9          9          9          9          9          9          9          9          9          9          9          9          9          9          9          9          9          9          9          9          9          9          9 </DataArray>
</Cells>
<CellData>
<DataArray type="Int32"                                    Name="material"                                                      NumberOfComponents=" 1" format="ascii">
         1          1          1          1          1          1          1          1          1          1          1          1          1          1          1          1          1          1          1          1          1          1          1          1          1          1          1          1          1          1          1          1          1          1          1          1          1          1          1          1          1          1          1          1          1          1          1          1          1          1          1          1          1          1          1          1          1          1          1          1          1          1          1          1          1          1          1          1          1          1          1          1          1          1          1          1          1          1          1          1          1          1          1          1          1          1          1          1          1          1          1          1          1          1          1          1          1          1          1          1          1          1          1          1          1          1          1          1          1          1          1          1          1          1          1          1          1          1          1          1          1          1          1          1          1          1          1          1          1          1          1          1          1          1          1          1          1          1          1          1          1          1          1          1          1          1          1          1          1          1          1          1          1          1          1          1          1          1          1          1          1          1          1          1          1          1          1          1          1          1          1          1          1          1          1          1          1          1          1          1          1          1          1          1          1          1          1          1          1          1          1          1          1          1          1          1          1          1          1          1          1          1          1          1          1          1          1          1          1          1          1          1          1          1          1          1          1          1          1          1          1          1          1          1          1          1          1          1          1          1          1          1          1          1          1          1          1          1          1          1          1          1          1          1          1          1          1          1          1          1          1          1          1          1          1          1          1          1          1          1          1          1          1          1          1          1          1          1          1          1          1          1          1          1          1          1          1          1          1          1          1          1          1          1          1          1          1          1          1          1          1          1          1          1          1          1          1          1          1          1          1          1          1          1          1          1          1          1          1          1          1          1          1          1          1          1          1          1          1          1          1          1          1          1          1          1          1          1          1          1          1          1          1          1          1          1          1          1          1          1          1          1          1          1          1          1          1          1          1          1          1          1          1          1          1          1          1          1          1          1          1          1          1          1          1          1          1          1          1          1          1          1          1          1          1          1          1          1          1          1          1          1          1          1          1          1          1          1          1          1          1          1          1          1          1          1          1          1          1          1          1          1          1          1          1          1          1          1          1          1          1          1          1          1          1          1          1          1          1          1          1          1          1          1          1          1          1          1          1          1          1          1          1          1          1          1          1          1          1          1          1          1          1          1          1          1          1          1          1          1          1          1          1          1          1          1          1          1          1          1          1          1          1          1          1          1          1          1          1          1          1          1          1          1          1          1          1          1          1          1          1          1          1          1          1          1          1          1          1          1          1          1          1          1          1          1          1          1          1          1          1          1          1          1          1          1          1          1          1          1          1          1          1          1          1          1          1          1          1          1          1          1          1          1          1          1          1          1          1          1          1          1          1          1          1          1          1          1          1          1          1          1          1          1          1          1          1          1          1          1          1          1          1          1          1          1          1          1          1          1          1          1          1          1          1          1          1          1          1          1          1          1          1          1          1          1          1          1          1          1          1          1          1          1          1          1          1          1          1          1          1          1          1          1          1          1          1          1          1          1          1          1          1          1          1          1          1          1          1          1          1          1          1          1          1          1          1          1          1          1          1          1          1          1          1          1          1          1          1          1          1          1          1          1          1          1          1          1          1          1          1          1          1          1          1          1          1          1          1          1          1          1          1          1          1          1          1          1          1          1          1          1          1          1          1          1          1          1          1          1          1          1          1          1          1          1          1          1          1          1          1          1          1          1          1          1          1          1          1          1          1          1          1          1          1          1          1          1          1          1          1          1          1          1          1          1          1          1          1          1          1          1          1          1          1          1          1          1          1          1          1          1          1          1          1          1          1          1          1          1          1          1          1          1          1          1          1          1          1          1          1          1          1          1          1          1          1          1          1          1          1          1          1          1          1          1          1          1          1          1          1          1          1          1          1          1          1          1          1          1          1          1          1          1          1          1          1          1          1          1          1          1          1          1          1          1          1          1          1          1          1          1          1          1          1          1          1          1          1          1          1          1          1          1          1          1          1          1          1          1          1          1          1          1          1          1          1          1          1          1          1          1          1          1          1          1          1          1          1          1          1          1          1          1          1          1          1          1          1          1          1          1          1          1          1          1          1          1          1          1          1          1          1          1          1          1          1          1          1          1          1          1          1          1          1          1          1          1          1          1          1          1          1          1          1          1          1          1          1          1          1          1          1          1          1          1          1          1          1          1          1          1          1          1          1          1          1          1          1          1          1          1          1          1          1          1          1          1          1          1          1          1          1          1          1          1          1          1          1          1          1          1          1          1          1          1          1          1          1          1          1          1          1          1          1          1          1          1          1          1          1          1          1          1          1          1          1          1          1          1          1          1          1          1          1          1          1          1          1          1          1          1          1          1          1          1          1          1          1          1          1          1          1          1          1          1          1          1          1          1          1          1          1          1          1          1          1          1          1          1          1          1          1          1          1          1          1          1          1          1          1          1          1          1          1          1          1          1          1          1          1          1          1          1          1          1          1          1          1          1          1          1          1          1 </DataArray>
</CellData>
<PointData>
<DataArray type="Float64"                                    Name="u"                                                      NumberOfComponents=" 3" format="ascii">
              0.000007951               0.000000000               0.999999999               0.000003229               0.000000000               0.999999999               0.000000983              -0.000000000               0.999999999              -0.000000142               0.000000000               0.999999999              -0.000000723               0.000000000               0.999999999              -0.000001015               0.000000000               0.999999999              -0.000001148               0.000000000               0.999999999              -0.000001325               0.000000000               0.999999999              -0.000001652               0.000000000               0.999999999              -0.000002251               0.000000000               0.999999999              -0.000003235              -0.000000000               0.999999999              -0.000004576              -0.000000000               0.999999999              -0.000006290              -0.000000000               0.999999999              -0.000008408              -0.000000000               0.999999999              -0.000010984              -0.000000000               0.999999999              -0.000014154              -0.000000000               0.999999999              -0.000017921              -0.000000000               0.999999999               0.000007878               0.000011680               0.999999999               0.000003286               0.000010610               0.999999999               0.000001124               0.000010423               0.999999999               0.000000023               0.000010632               0.999999999              -0.000000591               0.000011154               0.999999999              -0.000000948               0.000011796               0.999999999              -0.000001234               0.000012676               0.999999999              -0.000001564               0.000013776               0.999999999              -0.000002083               0.000015182               0.999999999              -0.000002937               0.000016879               0.999999999              -0.000004133               0.000018729               0.999999999              -0.000005658               0.000020607               0.999999999              -0.000007579               0.000022647               0.999999999              -0.000009951               0.000024944               0.999999999              -0.000012775               0.000027384               0.999999999              -0.000016103               0.000030046               0.999999999              -0.000019997               0.000033023               0.999999999               0.000007664               0.000023221               0.999999999               0.000003515               0.000021114               0.999999999               0.000001556               0.000020732               0.999999999               0.000000486               0.000021271               0.999999999              -0.000000214               0.000022341               0.999999999              -0.000000801               0.000023776               0.999999999              -0.000001454               0.000025575               0.999999999              -0.000002238               0.000027839               0.999999999              -0.000003345               0.000030742               0.999999999              -0.000004811               0.000034056               0.999999999              -0.000006615               0.000037674               0.999999999              -0.000008780               0.000041312               0.999999999              -0.000011292               0.000045343               0.999999999              -0.000014205               0.000049800               0.999999999              -0.000017564               0.000054487               0.999999999              -0.000021419               0.000059567               0.999999999              -0.000025751               0.000065050               0.999999999               0.000007317               0.000034515               0.999999999               0.000003865               0.000031373               0.999999999               0.000002194               0.000030910               0.999999999               0.000001161               0.000031891               0.999999999               0.000000273               0.000033636               0.999999999              -0.000000697               0.000035952               0.999999999              -0.000001826               0.000038866               0.999999999              -0.000003337               0.000042445               0.999999999              -0.000005244               0.000046855               0.999999999              -0.000007541               0.000051803               0.999999999              -0.000010158               0.000057012               0.999999999              -0.000013068               0.000062375               0.999999999              -0.000016377               0.000068284               0.999999999              -0.000020063               0.000074690               0.999999999              -0.000024112               0.000081407               0.999999999              -0.000028532               0.000088604               0.999999999              -0.000033375               0.000096164               0.999999999               0.000006864               0.000045478               0.999999999               0.000004300               0.000041268               0.999999999               0.000002973               0.000040881               0.999999999               0.000001884               0.000042420               0.999999999               0.000000714               0.000044992               0.999999999              -0.000000663               0.000048413               0.999999999              -0.000002468               0.000052532               0.999999999              -0.000004736               0.000057682               0.999999999              -0.000007519               0.000063626               0.999999999              -0.000010711               0.000070198               0.999999999              -0.000014172               0.000076942               0.999999999              -0.000017952               0.000083960               0.999999999              -0.000022068               0.000091708               0.999999999              -0.000026515               0.000099979               0.999999999              -0.000031281               0.000108702               0.999999999              -0.000036484               0.000117965               0.999999999              -0.000042204               0.000127748               0.999999999               0.000006284               0.000055952               0.999999999               0.000004811               0.000050762               0.999999999               0.000003729               0.000050566               0.999999999               0.000002485               0.000052793               0.999999999               0.000000983               0.000056336               0.999999999              -0.000000938               0.000060942               0.999999999              -0.000003388               0.000066567               0.999999999              -0.000006459               0.000073336               0.999999999              -0.000010058               0.000081044               0.999999999              -0.000014061               0.000089189               0.999999999              -0.000018352               0.000097544               0.999999999              -0.000022934               0.000106422               0.999999999              -0.000027894               0.000116108               0.999999999              -0.000033297               0.000126402               0.999999999              -0.000039118               0.000137349               0.999999999              -0.000045417               0.000148960               0.999999999              -0.000052194               0.000161208               0.999999999               0.000005613               0.000065814               0.999999999               0.000005346               0.000059835               0.999999999               0.000004380               0.000059956               0.999999999               0.000002884               0.000062925               0.999999999               0.000000931               0.000067530               0.999999999              -0.000001546               0.000073484               0.999999999              -0.000004686               0.000080716               0.999999999              -0.000008526               0.000089344               0.999999999              -0.000012889               0.000098719               0.999999999              -0.000017597               0.000108667               0.999999999              -0.000022592               0.000118969               0.999999999              -0.000027957               0.000130056               0.999999999              -0.000033765               0.000142175               0.999999999              -0.000040057               0.000155095               0.999999999              -0.000046846               0.000168733               0.999999999              -0.000054159               0.000183167               0.999999999              -0.000061963               0.000198408               0.999999999               0.000004920               0.000075022               0.999999999               0.000005831               0.000068439               0.999999999               0.000004871               0.000068975               0.999999999               0.000003023               0.000072759               0.999999999               0.000000603               0.000078537               0.999999999              -0.000002462               0.000085913               0.999999999              -0.000006347               0.000094952               0.999999999              -0.000010956               0.000105357               0.999999999              -0.000015994               0.000116667               0.999999999              -0.000021282               0.000128664               0.999999999              -0.000026823               0.000141448               0.999999999              -0.000032757               0.000155411               0.999999999              -0.000039216               0.000170673               0.999999999              -0.000046292               0.000186802               0.999999999              -0.000054045               0.000203798               0.999999999              -0.000062348               0.000221791               0.999999999              -0.000071150               0.000240592               0.999999999               0.000004131               0.000083386               0.999999999               0.000006259               0.000076563               0.999999999               0.000005132               0.000077581               0.999999999               0.000002923               0.000082248               0.999999999               0.000000063               0.000089278               0.999999999              -0.000003635               0.000098266               0.999999999              -0.000008253               0.000109202               0.999999999              -0.000013538               0.000121556               0.999999999              -0.000019039               0.000135062               0.999999999              -0.000024659               0.000149660               0.999999999              -0.000030525               0.000165688               0.999999999              -0.000037054               0.000183157               0.999999999              -0.000044309               0.000201977               0.999999999              -0.000052200               0.000221865               0.999999999              -0.000060699               0.000242858               0.999999999              -0.000069738               0.000264858               0.999999999              -0.000079161               0.000287566               0.999999999               0.000003192               0.000091143               0.999999999               0.000006369               0.000084809               0.999999999               0.000005688               0.000085098               0.999999999               0.000003841               0.000088957               0.999999999               0.000001355               0.000095102               0.999999999              -0.000001713               0.000103163               0.999999999              -0.000005681               0.000112925               0.999999999              -0.000010231               0.000124252               0.999999999              -0.000015005               0.000136823               0.999999999              -0.000019833               0.000150597               0.999999999              -0.000024711               0.000165568               0.999999999              -0.000029938               0.000181772               0.999999999              -0.000035759               0.000199257               0.999999999              -0.000042012               0.000218043               0.999999999              -0.000048689               0.000237775               0.999999999              -0.000056092               0.000258563               0.999999999              -0.000063883               0.000280215               0.999999999               0.000002376               0.000098097               0.999999999               0.000006119               0.000092635               0.999999999               0.000005954               0.000092580               0.999999999               0.000004527               0.000095777               0.999999999               0.000002516               0.000101213               0.999999999              -0.000000034               0.000108418               0.999999999              -0.000003252               0.000117262               0.999999999              -0.000006976               0.000127547               0.999999999              -0.000011048               0.000139212               0.999999999              -0.000015321               0.000152122               0.999999999              -0.000019445               0.000166190               0.999999999              -0.000023558               0.000181372               0.999999999              -0.000028071               0.000197715               0.999999999              -0.000032951               0.000215189               0.999999999              -0.000038083               0.000233748               0.999999999              -0.000043663               0.000253263               0.999999999              -0.000049822               0.000273623               0.999999999               0.000001634               0.000104083               0.999999999               0.000005553               0.000099816               0.999999999               0.000005841               0.000099736               0.999999999               0.000004873               0.000102508               0.999999999               0.000003321               0.000107372               0.999999999               0.000001353               0.000113902               0.999999999              -0.000001176               0.000121954               0.999999999              -0.000004136               0.000131357               0.999999999              -0.000007554               0.000142174               0.999999999              -0.000011149               0.000154264               0.999999999              -0.000014620               0.000167529               0.999999999              -0.000017971               0.000181885               0.999999999              -0.000021362               0.000197317               0.999999999              -0.000025022               0.000213702               0.999999999              -0.000028791               0.000231074               0.999999999              -0.000032705               0.000249376               0.999999999              -0.000037091               0.000268544               0.999999999               0.000001037               0.000109098               0.999999999               0.000004759               0.000106154               0.999999999               0.000005291               0.000106278               0.999999999               0.000004764               0.000108826               0.999999999               0.000003707               0.000113314               0.999999999               0.000002235               0.000119335               0.999999999               0.000000345               0.000126726               0.999999999              -0.000001992               0.000135475               0.999999999              -0.000004623               0.000145585               0.999999999              -0.000007444               0.000157000               0.999999999              -0.000010309               0.000169634               0.999999999              -0.000012988               0.000183334               0.999999999              -0.000015566               0.000197901               0.999999999              -0.000018185               0.000213408               0.999999999              -0.000020812               0.000229783               0.999999999              -0.000023384               0.000246997               0.999999999              -0.000026129               0.000265040               0.999999999               0.000000604               0.000113059               0.999999999               0.000003721               0.000111359               0.999999999               0.000004365               0.000111878               0.999999999               0.000004165               0.000114395               0.999999999               0.000003515               0.000118619               0.999999999               0.000002511               0.000124314               0.999999999               0.000001142               0.000131281               0.999999999              -0.000000484               0.000139593               0.999999999              -0.000002359               0.000149245               0.999999999              -0.000004466               0.000160109               0.999999999              -0.000006669               0.000172154               0.999999999              -0.000008751               0.000185232               0.999999999              -0.000010670               0.000199142               0.999999999              -0.000012397               0.000213915               0.999999999              -0.000014054               0.000229550               0.999999999              -0.000015712               0.000246053               0.999999999              -0.000017275               0.000263313               0.999999999               0.000000311               0.000115901               0.999999999               0.000002530               0.000115251               0.999999999               0.000003139               0.000116178               0.999999999               0.000003073               0.000118758               0.999999999               0.000002741               0.000122900               0.999999999               0.000002148               0.000128355               0.999999999               0.000001282               0.000135167               0.999999999               0.000000297               0.000143258               0.999999999              -0.000000957               0.000152496               0.999999999              -0.000002396               0.000162955               0.999999999              -0.000003838               0.000174567               0.999999999              -0.000005227               0.000187138               0.999999999              -0.000006492               0.000200602               0.999999999              -0.000007565               0.000214936               0.999999999              -0.000008549               0.000230125               0.999999999              -0.000009499               0.000246109               0.999999999              -0.000010264               0.000262868               0.999999999               0.000000128               0.000117623               0.999999999               0.000001277               0.000117656               0.999999999               0.000001644               0.000118879               0.999999999               0.000001628               0.000121571               0.999999999               0.000001518               0.000125692               0.999999999               0.000001208               0.000131054               0.999999999               0.000000875               0.000137783               0.999999999               0.000000307               0.000145744               0.999999999              -0.000000317               0.000154807               0.999999999              -0.000000969               0.000165010               0.999999999              -0.000001673               0.000176302               0.999999999              -0.000002363               0.000188592               0.999999999              -0.000003030               0.000201860               0.999999999              -0.000003580               0.000216013               0.999999999              -0.000004034               0.000230917               0.999999999              -0.000004420               0.000246580               0.999999999              -0.000004659               0.000263098               0.999999999              -0.000000000               0.000118211               0.999999999               0.000000000               0.000118467               0.999999999               0.000000000               0.000119803               0.999999999              -0.000000000               0.000122567               0.999999999              -0.000000000               0.000126636               0.999999999              -0.000000000               0.000131994               0.999999999               0.000000000               0.000138708               0.999999999              -0.000000000               0.000146617               0.999999999              -0.000000000               0.000155710               0.999999999               0.000000000               0.000165789               0.999999999              -0.000000000               0.000176895               0.999999999               0.000000000               0.000189186               0.999999999               0.000000000               0.000202424               0.999999999               0.000000000               0.000216431               0.999999999              -0.000000000               0.000231234               0.999999999              -0.000000000               0.000246853               0.999999999              -0.000000000               0.000263323               0.999999999               0.000007951               0.000000000               0.999999999               0.000003229               0.000000000               0.999999999               0.000000983              -0.000000000               0.999999999              -0.000000142               0.000000000               0.999999999              -0.000000723               0.000000000               0.999999999              -0.000001015               0.000000000               0.999999999              -0.000001148               0.000000000               0.999999999              -0.000001325               0.000000000               0.999999999              -0.000001652               0.000000000               0.999999999              -0.000002251               0.000000000               0.999999999              -0.000003235              -0.000000000               0.999999999              -0.000004576              -0.000000000               0.999999999              -0.000006290              -0.000000000               0.999999999              -0.000008408              -0.000000000               0.999999999              -0.000010984              -0.000000000               0.999999999              -0.000014154              -0.000000000               0.999999999              -0.000017921              -0.000000000               0.999999999               0.000007878              -0.000011680               0.999999999               0.000003286              -0.000010610               0.999999999               0.000001124              -0.000010423               0.999999999               0.000000023              -0.000010632               0.999999999              -0.000000591              -0.000011154               0.999999999              -0.000000948              -0.000011796               0.999999999              -0.000001234              -0.000012676               0.999999999              -0.000001564              -0.000013776               0.999999999              -0.000002083              -0.000015182               0.999999999              -0.000002937              -0.000016879               0.999999999              -0.000004133              -0.000018729               0.999999999              -0.000005658              -0.000020607               0.999999999              -0.000007579              -0.000022647               0.999999999              -0.000009951              -0.000024944               0.999999999              -0.000012775              -0.000027384               0.999999999              -0.000016103              -0.000030046               0.999999999              -0.000019997              -0.000033023               0.999999999               0.000007664              -0.000023221               0.999999999               0.000003515              -0.000021114               0.999999999               0.000001556              -0.000020732               0.999999999               0.000000486              -0.000021271               0.999999999              -0.000000214              -0.000022341               0.999999999              -0.000000801              -0.000023776               0.999999999              -0.000001454              -0.000025575               0.999999999              -0.000002238              -0.000027839               0.999999999              -0.000003345              -0.000030742               0.999999999              -0.000004811              -0.000034056               0.999999999              -0.000006615              -0.000037674               0.999999999              -0.000008780              -0.000041312               0.999999999              -0.000011292              -0.000045343               0.999999999              -0.000014205              -0.000049800               0.999999999              -0.000017564              -0.000054487               0.999999999              -0.000021419              -0.000059567               0.999999999              -0.000025751              -0.000065050               0.999999999               0.000007317              -0.000034515               0.999999999               0.000003865              -0.000031373               0.999999999               0.000002194              -0.000030910               0.999999999               0.000001161              -0.000031891               0.999999999               0.000000273              -0.000033636               0.999999999              -0.000000697              -0.000035952               0.999999999              -0.000001826              -0.000038866               0.999999999              -0.000003337              -0.000042445               0.999999999              -0.000005244              -0.000046855               0.999999999              -0.000007541              -0.000051803               0.999999999              -0.000010158              -0.000057012               0.999999999              -0.000013068              -0.000062375               0.999999999              -0.000016377              -0.000068284               0.999999999              -0.000020063              -0.000074690               0.999999999              -0.000024112              -0.000081407               0.999999999              -0.000028532              -0.000088604               0.999999999              -0.000033375              -0.000096164               0.999999999               0.000006864              -0.000045478               0.999999999               0.000004300              -0.000041268               0.999999999               0.000002973              -0.000040881               0.999999999               0.000001884              -0.000042420               0.999999999               0.000000714              -0.000044992               0.999999999              -0.000000663              -0.000048413               0.999999999              -0.000002468              -0.000052532               0.999999999              -0.000004736              -0.000057682               0.999999999              -0.000007519              -0.000063626               0.999999999              -0.000010711              -0.000070198               0.999999999              -0.000014172              -0.000076942               0.999999999              -0.000017952              -0.000083960               0.999999999              -0.000022068              -0.000091708               0.999999999              -0.000026515              -0.000099979               0.999999999              -0.000031281              -0.000108702               0.999999999              -0.000036484              -0.000117965               0.999999999              -0.000042204              -0.000127748               0.999999999               0.000006284              -0.000055952               0.999999999               0.000004811              -0.000050762               0.999999999               0.000003729              -0.000050566               0.999999999               0.000002485              -0.000052793               0.999999999               0.000000983              -0.000056336               0.999999999              -0.000000938              -0.000060942               0.999999999              -0.000003388              -0.000066567               0.999999999              -0.000006459              -0.000073336               0.999999999              -0.000010058              -0.000081044               0.999999999              -0.000014061              -0.000089189               0.999999999              -0.000018352              -0.000097544               0.999999999              -0.000022934              -0.000106422               0.999999999              -0.000027894              -0.000116108               0.999999999              -0.000033297              -0.000126402               0.999999999              -0.000039118              -0.000137349               0.999999999              -0.000045417              -0.000148960               0.999999999              -0.000052194              -0.000161208               0.999999999               0.000005613              -0.000065814               0.999999999               0.000005346              -0.000059835               0.999999999               0.000004380              -0.000059956               0.999999999               0.000002884              -0.000062925               0.999999999               0.000000931              -0.000067530               0.999999999              -0.000001546              -0.000073484               0.999999999              -0.000004686              -0.000080716               0.999999999              -0.000008526              -0.000089344               0.999999999              -0.000012889              -0.000098719               0.999999999              -0.000017597              -0.000108667               0.999999999              -0.000022592              -0.000118969               0.999999999              -0.000027957              -0.000130056               0.999999999              -0.000033765              -0.000142175               0.999999999              -0.000040057              -0.000155095               0.999999999              -0.000046846              -0.000168733               0.999999999              -0.000054159              -0.000183167               0.999999999              -0.000061963              -0.000198408               0.999999999               0.000004920              -0.000075022               0.999999999               0.000005831              -0.000068439               0.999999999               0.000004871              -0.000068975               0.999999999               0.000003023              -0.000072759               0.999999999               0.000000603              -0.000078537               0.999999999              -0.000002462              -0.000085913               0.999999999              -0.000006347              -0.000094952               0.999999999              -0.000010956              -0.000105357               0.999999999              -0.000015994              -0.000116667               0.999999999              -0.000021282              -0.000128664               0.999999999              -0.000026823              -0.000141448               0.999999999              -0.000032757              -0.000155411               0.999999999              -0.000039216              -0.000170673               0.999999999              -0.000046292              -0.000186802               0.999999999              -0.000054045              -0.000203798               0.999999999              -0.000062348              -0.000221791               0.999999999              -0.000071150              -0.000240592               0.999999999               0.000004131              -0.000083386               0.999999999               0.000006259              -0.000076563               0.999999999               0.000005132              -0.000077581               0.999999999               0.000002923              -0.000082248               0.999999999               0.000000063              -0.000089278               0.999999999              -0.000003635              -0.000098266               0.999999999              -0.000008253              -0.000109202               0.999999999              -0.000013538              -0.000121556               0.999999999              -0.000019039              -0.000135062               0.999999999              -0.000024659              -0.000149660               0.999999999              -0.000030525              -0.000165688               0.999999999              -0.000037054              -0.000183157               0.999999999              -0.000044309              -0.000201977               0.999999999              -0.000052200              -0.000221865               0.999999999              -0.000060699              -0.000242858               0.999999999              -0.000069738              -0.000264858               0.999999999              -0.000079161              -0.000287566               0.999999999               0.000003192              -0.000091143               0.999999999               0.000006369              -0.000084809               0.999999999               0.000005688              -0.000085098               0.999999999               0.000003841              -0.000088957               0.999999999               0.000001355              -0.000095102               0.999999999              -0.000001713              -0.000103163               0.999999999              -0.000005681              -0.000112925               0.999999999              -0.000010231              -0.000124252               0.999999999              -0.000015005              -0.000136823               0.999999999              -0.000019833              -0.000150597               0.999999999              -0.000024711              -0.000165568               0.999999999              -0.000029938              -0.000181772               0.999999999              -0.000035759              -0.000199257               0.999999999              -0.000042012              -0.000218043               0.999999999              -0.000048689              -0.000237775               0.999999999              -0.000056092              -0.000258563               0.999999999              -0.000063883              -0.000280215               0.999999999               0.000002376              -0.000098097               0.999999999               0.000006119              -0.000092635               0.999999999               0.000005954              -0.000092580               0.999999999               0.000004527              -0.000095777               0.999999999               0.000002516              -0.000101213               0.999999999              -0.000000034              -0.000108418               0.999999999              -0.000003252              -0.000117262               0.999999999              -0.000006976              -0.000127547               0.999999999              -0.000011048              -0.000139212               0.999999999              -0.000015321              -0.000152122               0.999999999              -0.000019445              -0.000166190               0.999999999              -0.000023558              -0.000181372               0.999999999              -0.000028071              -0.000197715               0.999999999              -0.000032951              -0.000215189               0.999999999              -0.000038083              -0.000233748               0.999999999              -0.000043663              -0.000253263               0.999999999              -0.000049822              -0.000273623               0.999999999               0.000001634              -0.000104083               0.999999999               0.000005553              -0.000099816               0.999999999               0.000005841              -0.000099736               0.999999999               0.000004873              -0.000102508               0.999999999               0.000003321              -0.000107372               0.999999999               0.000001353              -0.000113902               0.999999999              -0.000001176              -0.000121954               0.999999999              -0.000004136              -0.000131357               0.999999999              -0.000007554              -0.000142174               0.999999999              -0.000011149              -0.000154264               0.999999999              -0.000014620              -0.000167529               0.999999999              -0.000017971              -0.000181885               0.999999999              -0.000021362              -0.000197317               0.999999999              -0.000025022              -0.000213702               0.999999999              -0.000028791              -0.000231074               0.999999999              -0.000032705              -0.000249376               0.999999999              -0.000037091              -0.000268544               0.999999999               0.000001037              -0.000109098               0.999999999               0.000004759              -0.000106154               0.999999999               0.000005291              -0.000106278               0.999999999               0.000004764              -0.000108826               0.999999999               0.000003707              -0.000113314               0.999999999               0.000002235              -0.000119335               0.999999999               0.000000345              -0.000126726               0.999999999              -0.000001992              -0.000135475               0.999999999              -0.000004623              -0.000145585               0.999999999              -0.000007444              -0.000157000               0.999999999              -0.000010309              -0.000169634               0.999999999              -0.000012988              -0.000183334               0.999999999              -0.000015566              -0.000197901               0.999999999              -0.000018185              -0.000213408               0.999999999              -0.000020812              -0.000229783               0.999999999              -0.000023384              -0.000246997               0.999999999              -0.000026129              -0.000265040               0.999999999               0.000000604              -0.000113059               0.999999999               0.000003721              -0.000111359               0.999999999               0.000004365              -0.000111878               0.999999999               0.000004165              -0.000114395               0.999999999               0.000003515              -0.000118619               0.999999999               0.000002511              -0.000124314               0.999999999               0.000001142              -0.000131281               0.999999999              -0.000000484              -0.000139593               0.999999999              -0.000002359              -0.000149245               0.999999999              -0.000004466              -0.000160109               0.999999999              -0.000006669              -0.000172154               0.999999999              -0.000008751              -0.000185232               0.999999999              -0.000010670              -0.000199142               0.999999999              -0.000012397              -0.000213915               0.999999999              -0.000014054              -0.000229550               0.999999999              -0.000015712              -0.000246053               0.999999999              -0.000017275              -0.000263313               0.999999999               0.000000311              -0.000115901               0.999999999               0.000002530              -0.000115251               0.999999999               0.000003139              -0.000116178               0.999999999               0.000003073              -0.000118758               0.999999999               0.000002741              -0.000122900               0.999999999               0.000002148              -0.000128355               0.999999999               0.000001282              -0.000135167               0.999999999               0.000000297              -0.000143258               0.999999999              -0.000000957              -0.000152496               0.999999999              -0.000002396              -0.000162955               0.999999999              -0.000003838              -0.000174567               0.999999999              -0.000005227              -0.000187138               0.999999999              -0.000006492              -0.000200602               0.999999999              -0.000007565              -0.000214936               0.999999999              -0.000008549              -0.000230125               0.999999999              -0.000009499              -0.000246109               0.999999999              -0.000010264              -0.000262868               0.999999999               0.000000128              -0.000117623               0.999999999               0.000001277              -0.000117656               0.999999999               0.000001644              -0.000118879               0.999999999               0.000001628              -0.000121571               0.999999999               0.000001518              -0.000125692               0.999999999               0.000001208              -0.000131054               0.999999999               0.000000875              -0.000137783               0.999999999               0.000000307              -0.000145744               0.999999999              -0.000000317              -0.000154807               0.999999999              -0.000000969              -0.000165010               0.999999999              -0.000001673              -0.000176302               0.999999999              -0.000002363              -0.000188592               0.999999999              -0.000003030              -0.000201860               0.999999999              -0.000003580              -0.000216013               0.999999999              -0.000004034              -0.000230917               0.999999999              -0.000004420              -0.000246580               0.999999999              -0.000004659              -0.000263098               0.999999999               0.000000000              -0.000118211               0.999999999               0.000000000              -0.000118467               0.999999999              -0.000000000              -0.000119803               0.999999999               0.000000000              -0.000122567               0.999999999               0.000000000              -0.000126636               0.999999999               0.000000000              -0.000131994               0.999999999              -0.000000000              -0.000138708               0.999999999               0.000000000              -0.000146617               0.999999999              -0.000000000              -0.000155710               0.999999999              -0.000000000              -0.000165789               0.999999999              -0.000000000              -0.000176895               0.999999999              -0.000000000              -0.000189186               0.999999999              -0.000000000              -0.000202424               0.999999999              -0.000000000              -0.000216431               0.999999999              -0.000000000              -0.000231234               0.999999999               0.000000000              -0.000246853               0.999999999               0.000000000              -0.000263323               0.999999999              -0.000007951              -0.000000000               0.999999999              -0.000003229               0.000000000               0.999999999              -0.000000983               0.000000000               0.999999999               0.000000142               0.000000000               0.999999999               0.000000723               0.000000000               0.999999999               0.000001015              -0.000000000               0.999999999               0.000001148              -0.000000000               0.999999999               0.000001325              -0.000000000               0.999999999               0.000001652              -0.000000000               0.999999999               0.000002251              -0.000000000               0.999999999               0.000003235              -0.000000000               0.999999999               0.000004576              -0.000000000               0.999999999               0.000006290              -0.000000000               0.999999999               0.000008408              -0.000000000               0.999999999               0.000010984              -0.000000000               0.999999999               0.000014154              -0.000000000               0.999999999               0.000017921              -0.000000000               0.999999999              -0.000007878              -0.000011680               0.999999999              -0.000003286              -0.000010610               0.999999999              -0.000001124              -0.000010423               0.999999999              -0.000000023              -0.000010632               0.999999999               0.000000591              -0.000011154               0.999999999               0.000000948              -0.000011796               0.999999999               0.000001234              -0.000012676               0.999999999               0.000001564              -0.000013776               0.999999999               0.000002083              -0.000015182               0.999999999               0.000002937              -0.000016879               0.999999999               0.000004133              -0.000018729               0.999999999               0.000005658              -0.000020607               0.999999999               0.000007579              -0.000022647               0.999999999               0.000009951              -0.000024944               0.999999999               0.000012775              -0.000027384               0.999999999               0.000016103              -0.000030046               0.999999999               0.000019997              -0.000033023               0.999999999              -0.000007664              -0.000023221               0.999999999              -0.000003515              -0.000021114               0.999999999              -0.000001556              -0.000020732               0.999999999              -0.000000486              -0.000021271               0.999999999               0.000000214              -0.000022341               0.999999999               0.000000801              -0.000023776               0.999999999               0.000001454              -0.000025575               0.999999999               0.000002238              -0.000027839               0.999999999               0.000003345              -0.000030742               0.999999999               0.000004811              -0.000034056               0.999999999               0.000006615              -0.000037674               0.999999999               0.000008780              -0.000041312               0.999999999               0.000011292              -0.000045343               0.999999999               0.000014205              -0.000049800               0.999999999               0.000017564              -0.000054487               0.999999999               0.000021419              -0.000059567               0.999999999               0.000025751              -0.000065050               0.999999999              -0.000007317              -0.000034515               0.999999999              -0.000003865              -0.000031373               0.999999999              -0.000002194              -0.000030910               0.999999999              -0.000001161              -0.000031891               0.999999999              -0.000000273              -0.000033636               0.999999999               0.000000697              -0.000035952               0.999999999               0.000001826              -0.000038866               0.999999999               0.000003337              -0.000042445               0.999999999               0.000005244              -0.000046855               0.999999999               0.000007541              -0.000051803               0.999999999               0.000010158              -0.000057012               0.999999999               0.000013068              -0.000062375               0.999999999               0.000016377              -0.000068284               0.999999999               0.000020063              -0.000074690               0.999999999               0.000024112              -0.000081407               0.999999999               0.000028532              -0.000088604               0.999999999               0.000033375              -0.000096164               0.999999999              -0.000006864              -0.000045478               0.999999999              -0.000004300              -0.000041268               0.999999999              -0.000002973              -0.000040881               0.999999999              -0.000001884              -0.000042420               0.999999999              -0.000000714              -0.000044992               0.999999999               0.000000663              -0.000048413               0.999999999               0.000002468              -0.000052532               0.999999999               0.000004736              -0.000057682               0.999999999               0.000007519              -0.000063626               0.999999999               0.000010711              -0.000070198               0.999999999               0.000014172              -0.000076942               0.999999999               0.000017952              -0.000083960               0.999999999               0.000022068              -0.000091708               0.999999999               0.000026515              -0.000099979               0.999999999               0.000031281              -0.000108702               0.999999999               0.000036484              -0.000117965               0.999999999               0.000042204              -0.000127748               0.999999999              -0.000006284              -0.000055952               0.999999999              -0.000004811              -0.000050762               0.999999999              -0.000003729              -0.000050566               0.999999999              -0.000002485              -0.000052793               0.999999999              -0.000000983              -0.000056336               0.999999999               0.000000938              -0.000060942               0.999999999               0.000003388              -0.000066567               0.999999999               0.000006459              -0.000073336               0.999999999               0.000010058              -0.000081044               0.999999999               0.000014061              -0.000089189               0.999999999               0.000018352              -0.000097544               0.999999999               0.000022934              -0.000106422               0.999999999               0.000027894              -0.000116108               0.999999999               0.000033297              -0.000126402               0.999999999               0.000039118              -0.000137349               0.999999999               0.000045417              -0.000148960               0.999999999               0.000052194              -0.000161208               0.999999999              -0.000005613              -0.000065814               0.999999999              -0.000005346              -0.000059835               0.999999999              -0.000004380              -0.000059956               0.999999999              -0.000002884              -0.000062925               0.999999999              -0.000000931              -0.000067530               0.999999999               0.000001546              -0.000073484               0.999999999               0.000004686              -0.000080716               0.999999999               0.000008526              -0.000089344               0.999999999               0.000012889              -0.000098719               0.999999999               0.000017597              -0.000108667               0.999999999               0.000022592              -0.000118969               0.999999999               0.000027957              -0.000130056               0.999999999               0.000033765              -0.000142175               0.999999999               0.000040057              -0.000155095               0.999999999               0.000046846              -0.000168733               0.999999999               0.000054159              -0.000183167               0.999999999               0.000061963              -0.000198408               0.999999999              -0.000004920              -0.000075022               0.999999999              -0.000005831              -0.000068439               0.999999999              -0.000004871              -0.000068975               0.999999999              -0.000003023              -0.000072759               0.999999999              -0.000000603              -0.000078537               0.999999999               0.000002462              -0.000085913               0.999999999               0.000006347              -0.000094952               0.999999999               0.000010956              -0.000105357               0.999999999               0.000015994              -0.000116667               0.999999999               0.000021282              -0.000128664               0.999999999               0.000026823              -0.000141448               0.999999999               0.000032757              -0.000155411               0.999999999               0.000039216              -0.000170673               0.999999999               0.000046292              -0.000186802               0.999999999               0.000054045              -0.000203798               0.999999999               0.000062348              -0.000221791               0.999999999               0.000071150              -0.000240592               0.999999999              -0.000004131              -0.000083386               0.999999999              -0.000006259              -0.000076563               0.999999999              -0.000005132              -0.000077581               0.999999999              -0.000002923              -0.000082248               0.999999999              -0.000000063              -0.000089278               0.999999999               0.000003635              -0.000098266               0.999999999               0.000008253              -0.000109202               0.999999999               0.000013538              -0.000121556               0.999999999               0.000019039              -0.000135062               0.999999999               0.000024659              -0.000149660               0.999999999               0.000030525              -0.000165688               0.999999999               0.000037054              -0.000183157               0.999999999               0.000044309              -0.000201977               0.999999999               0.000052200              -0.000221865               0.999999999               0.000060699              -0.000242858               0.999999999               0.000069738              -0.000264858               0.999999999               0.000079161              -0.000287566               0.999999999              -0.000003192              -0.000091143               0.999999999              -0.000006369              -0.000084809               0.999999999              -0.000005688              -0.000085098               0.999999999              -0.000003841              -0.000088957               0.999999999              -0.000001355              -0.000095102               0.999999999               0.000001713              -0.000103163               0.999999999               0.000005681              -0.000112925               0.999999999               0.000010231              -0.000124252               0.999999999               0.000015005              -0.000136823               0.999999999               0.000019833              -0.000150597               0.999999999               0.000024711              -0.000165568               0.999999999               0.000029938              -0.000181772               0.999999999               0.000035759              -0.000199257               0.999999999               0.000042012              -0.000218043               0.999999999               0.000048689              -0.000237775               0.999999999               0.000056092              -0.000258563               0.999999999               0.000063883              -0.000280215               0.999999999              -0.000002376              -0.000098097               0.999999999              -0.000006119              -0.000092635               0.999999999              -0.000005954              -0.000092580               0.999999999              -0.000004527              -0.000095777               0.999999999              -0.000002516              -0.000101213               0.999999999               0.000000034              -0.000108418               0.999999999               0.000003252              -0.000117262               0.999999999               0.000006976              -0.000127547               0.999999999               0.000011048              -0.000139212               0.999999999               0.000015321              -0.000152122               0.999999999               0.000019445              -0.000166190               0.999999999               0.000023558              -0.000181372               0.999999999               0.000028071              -0.000197715               0.999999999               0.000032951              -0.000215189               0.999999999               0.000038083              -0.000233748               0.999999999               0.000043663              -0.000253263               0.999999999               0.000049822              -0.000273623               0.999999999              -0.000001634              -0.000104083               0.999999999              -0.000005553              -0.000099816               0.999999999              -0.000005841              -0.000099736               0.999999999              -0.000004873              -0.000102508               0.999999999              -0.000003321              -0.000107372               0.999999999              -0.000001353              -0.000113902               0.999999999               0.000001176              -0.000121954               0.999999999               0.000004136              -0.000131357               0.999999999               0.000007554              -0.000142174               0.999999999               0.000011149              -0.000154264               0.999999999               0.000014620              -0.000167529               0.999999999               0.000017971              -0.000181885               0.999999999               0.000021362              -0.000197317               0.999999999               0.000025022              -0.000213702               0.999999999               0.000028791              -0.000231074               0.999999999               0.000032705              -0.000249376               0.999999999               0.000037091              -0.000268544               0.999999999              -0.000001037              -0.000109098               0.999999999              -0.000004759              -0.000106154               0.999999999              -0.000005291              -0.000106278               0.999999999              -0.000004764              -0.000108826               0.999999999              -0.000003707              -0.000113314               0.999999999              -0.000002235              -0.000119335               0.999999999              -0.000000345              -0.000126726               0.999999999               0.000001992              -0.000135475               0.999999999               0.000004623              -0.000145585               0.999999999               0.000007444              -0.000157000               0.999999999               0.000010309              -0.000169634               0.999999999               0.000012988              -0.000183334               0.999999999               0.000015566              -0.000197901               0.999999999               0.000018185              -0.000213408               0.999999999               0.000020812              -0.000229783               0.999999999               0.000023384              -0.000246997               0.999999999               0.000026129              -0.000265040               0.999999999              -0.000000604              -0.000113059               0.999999999              -0.000003721              -0.000111359               0.999999999              -0.000004365              -0.000111878               0.999999999              -0.000004165              -0.000114395               0.999999999              -0.000003515              -0.000118619               0.999999999              -0.000002511              -0.000124314               0.999999999              -0.000001142              -0.000131281               0.999999999               0.000000484              -0.000139593               0.999999999               0.000002359              -0.000149245               0.999999999               0.000004466              -0.000160109               0.999999999               0.000006669              -0.000172154               0.999999999               0.000008751              -0.000185232               0.999999999               0.000010670              -0.000199142               0.999999999               0.000012397              -0.000213915               0.999999999               0.000014054              -0.000229550               0.999999999               0.000015712              -0.000246053               0.999999999               0.000017275              -0.000263313               0.999999999              -0.000000311              -0.000115901               0.999999999              -0.000002530              -0.000115251               0.999999999              -0.000003139              -0.000116178               0.999999999              -0.000003073              -0.000118758               0.999999999              -0.000002741              -0.000122900               0.999999999              -0.000002148              -0.000128355               0.999999999              -0.000001282              -0.000135167               0.999999999              -0.000000297              -0.000143258               0.999999999               0.000000957              -0.000152496               0.999999999               0.000002396              -0.000162955               0.999999999               0.000003838              -0.000174567               0.999999999               0.000005227              -0.000187138               0.999999999               0.000006492              -0.000200602               0.999999999               0.000007565              -0.000214936               0.999999999               0.000008549              -0.000230125               0.999999999               0.000009499              -0.000246109               0.999999999               0.000010264              -0.000262868               0.999999999              -0.000000128              -0.000117623               0.999999999              -0.000001277              -0.000117656               0.999999999              -0.000001644              -0.000118879               0.999999999              -0.000001628              -0.000121571               0.999999999              -0.000001518              -0.000125692               0.999999999              -0.000001208              -0.000131054               0.999999999              -0.000000875              -0.000137783               0.999999999              -0.000000307              -0.000145744               0.999999999               0.000000317              -0.000154807               0.999999999               0.000000969              -0.000165010               0.999999999               0.000001673              -0.000176302               0.999999999               0.000002363              -0.000188592               0.999999999               0.000003030              -0.000201860               0.999999999               0.000003580              -0.000216013               0.999999999               0.000004034              -0.000230917               0.999999999               0.000004420              -0.000246580               0.999999999               0.000004659              -0.000263098               0.999999999               0.000000000              -0.000118211               0.999999999               0.000000000              -0.000118467               0.999999999              -0.000000000              -0.000119803               0.999999999               0.000000000              -0.000122567               0.999999999               0.000000000              -0.000126636               0.999999999               0.000000000              -0.000131994               0.999999999              -0.000000000              -0.000138708               0.999999999               0.000000000              -0.000146617               0.999999999              -0.000000000              -0.000155710               0.999999999              -0.000000000              -0.000165789               0.999999999              -0.000000000              -0.000176895               0.999999999              -0.000000000              -0.000189186               0.999999999              -0.000000000              -0.000202424               0.999999999              -0.000000000              -0.000216431               0.999999999              -0.000000000              -0.000231234               0.999999999               0.000000000              -0.000246853               0.999999999               0.000000000              -0.000263323               0.999999999              -0.000007951              -0.000000000               0.999999999              -0.000003229               0.000000000               0.999999999              -0.000000983               0.000000000               0.999999999               0.000000142               0.000000000               0.999999999               0.000000723               0.000000000               0.999999999               0.000001015              -0.000000000               0.999999999               0.000001148              -0.000000000               0.999999999               0.000001325              -0.000000000               0.999999999               0.000001652              -0.000000000               0.999999999               0.000002251              -0.000000000               0.999999999               0.000003235              -0.000000000               0.999999999               0.000004576              -0.000000000               0.999999999               0.000006290              -0.000000000               0.999999999               0.000008408              -0.000000000               0.999999999               0.000010984              -0.000000000               0.999999999               0.000014154              -0.000000000               0.999999999               0.000017921              -0.000000000               0.999999999              -0.000007878               0.000011680               0.999999999              -0.000003286               0.000010610               0.999999999              -0.000001124               0.000010423               0.999999999              -0.000000023               0.000010632               0.999999999               0.000000591               0.000011154               0.999999999               0.000000948               0.000011796               0.999999999               0.000001234               0.000012676               0.999999999               0.000001564               0.000013776               0.999999999               0.000002083               0.000015182               0.999999999               0.000002937               0.000016879               0.999999999               0.000004133               0.000018729               0.999999999               0.000005658               0.000020607               0.999999999               0.000007579               0.000022647               0.999999999               0.000009951               0.000024944               0.999999999               0.000012775               0.000027384               0.999999999               0.000016103               0.000030046               0.999999999               0.000019997               0.000033023               0.999999999              -0.000007664               0.000023221               0.999999999              -0.000003515               0.000021114               0.999999999              -0.000001556               0.000020732               0.999999999              -0.000000486               0.000021271               0.999999999               0.000000214               0.000022341               0.999999999               0.000000801               0.000023776               0.999999999               0.000001454               0.000025575               0.999999999               0.000002238               0.000027839               0.999999999               0.000003345               0.000030742               0.999999999               0.000004811               0.000034056               0.999999999               0.000006615               0.000037674               0.999999999               0.000008780               0.000041312               0.999999999               0.000011292               0.000045343               0.999999999               0.000014205               0.000049800               0.999999999               0.000017564               0.000054487               0.999999999               0.000021419               0.000059567               0.999999999               0.000025751               0.000065050               0.999999999              -0.000007317               0.000034515               0.999999999              -0.000003865               0.000031373               0.999999999              -0.000002194               0.000030910               0.999999999              -0.000001161               0.000031891               0.999999999              -0.000000273               0.000033636               0.999999999               0.000000697               0.000035952               0.999999999               0.000001826               0.000038866               0.999999999               0.000003337               0.000042445               0.999999999               0.000005244               0.000046855               0.999999999               0.000007541               0.000051803               0.999999999               0.000010158               0.000057012               0.999999999               0.000013068               0.000062375               0.999999999               0.000016377               0.000068284               0.999999999               0.000020063               0.000074690               0.999999999               0.000024112               0.000081407               0.999999999               0.000028532               0.000088604               0.999999999               0.000033375               0.000096164               0.999999999              -0.000006864               0.000045478               0.999999999              -0.000004300               0.000041268               0.999999999              -0.000002973               0.000040881               0.999999999              -0.000001884               0.000042420               0.999999999              -0.000000714               0.000044992               0.999999999               0.000000663               0.000048413               0.999999999               0.000002468               0.000052532               0.999999999               0.000004736               0.000057682               0.999999999               0.000007519               0.000063626               0.999999999               0.000010711               0.000070198               0.999999999               0.000014172               0.000076942               0.999999999               0.000017952               0.000083960               0.999999999               0.000022068               0.000091708               0.999999999               0.000026515               0.000099979               0.999999999               0.000031281               0.000108702               0.999999999               0.000036484               0.000117965               0.999999999               0.000042204               0.000127748               0.999999999              -0.000006284               0.000055952               0.999999999              -0.000004811               0.000050762               0.999999999              -0.000003729               0.000050566               0.999999999              -0.000002485               0.000052793               0.999999999              -0.000000983               0.000056336               0.999999999               0.000000938               0.000060942               0.999999999               0.000003388               0.000066567               0.999999999               0.000006459               0.000073336               0.999999999               0.000010058               0.000081044               0.999999999               0.000014061               0.000089189               0.999999999               0.000018352               0.000097544               0.999999999               0.000022934               0.000106422               0.999999999               0.000027894               0.000116108               0.999999999               0.000033297               0.000126402               0.999999999               0.000039118               0.000137349               0.999999999               0.000045417               0.000148960               0.999999999               0.000052194               0.000161208               0.999999999              -0.000005613               0.000065814               0.999999999              -0.000005346               0.000059835               0.999999999              -0.000004380               0.000059956               0.999999999              -0.000002884               0.000062925               0.999999999              -0.000000931               0.000067530               0.999999999               0.000001546               0.000073484               0.999999999               0.000004686               0.000080716               0.999999999               0.000008526               0.000089344               0.999999999               0.000012889               0.000098719               0.999999999               0.000017597               0.000108667               0.999999999               0.000022592               0.000118969               0.999999999               0.000027957               0.000130056               0.999999999               0.000033765               0.000142175               0.999999999               0.000040057               0.000155095               0.999999999               0.000046846               0.000168733               0.999999999               0.000054159               0.000183167               0.999999999               0.000061963               0.000198408               0.999999999              -0.000004920               0.000075022               0.999999999              -0.000005831               0.000068439               0.999999999              -0.000004871               0.000068975               0.999999999              -0.000003023               0.000072759               0.999999999              -0.000000603               0.000078537               0.999999999               0.000002462               0.000085913               0.999999999               0.000006347               0.000094952               0.999999999               0.000010956               0.000105357               0.999999999               0.000015994               0.000116667               0.999999999               0.000021282               0.000128664               0.999999999               0.000026823               0.000141448               0.999999999               0.000032757               0.000155411               0.999999999               0.000039216               0.000170673               0.999999999               0.000046292               0.000186802               0.999999999               0.000054045               0.000203798               0.999999999               0.000062348               0.000221791               0.999999999               0.000071150               0.000240592               0.999999999              -0.000004131               0.000083386               0.999999999              -0.000006259               0.000076563               0.999999999              -0.000005132               0.000077581               0.999999999              -0.000002923               0.000082248               0.999999999              -0.000000063               0.000089278               0.999999999               0.000003635               0.000098266               0.999999999               0.000008253               0.000109202               0.999999999               0.000013538               0.000121556               0.999999999               0.000019039               0.000135062               0.999999999               0.000024659               0.000149660               0.999999999               0.000030525               0.000165688               0.999999999               0.000037054               0.000183157               0.999999999               0.000044309               0.000201977               0.999999999               0.000052200               0.000221865               0.999999999               0.000060699               0.000242858               0.999999999               0.000069738               0.000264858               0.999999999               0.000079161               0.000287566               0.999999999              -0.000003192               0.000091143               0.999999999              -0.000006369               0.000084809               0.999999999              -0.000005688               0.000085098               0.999999999              -0.000003841               0.000088957               0.999999999              -0.000001355               0.000095102               0.999999999               0.000001713               0.000103163               0.999999999               0.000005681               0.000112925               0.999999999               0.000010231               0.000124252               0.999999999               0.000015005               0.000136823               0.999999999               0.000019833               0.000150597               0.999999999               0.000024711               0.000165568               0.999999999               0.000029938               0.000181772               0.999999999               0.000035759               0.000199257               0.999999999               0.000042012               0.000218043               0.999999999               0.000048689               0.000237775               0.999999999               0.000056092               0.000258563               0.999999999               0.000063883               0.000280215               0.999999999              -0.000002376               0.000098097               0.999999999              -0.000006119               0.000092635               0.999999999              -0.000005954               0.000092580               0.999999999              -0.000004527               0.000095777               0.999999999              -0.000002516               0.000101213               0.999999999               0.000000034               0.000108418               0.999999999               0.000003252               0.000117262               0.999999999               0.000006976               0.000127547               0.999999999               0.000011048               0.000139212               0.999999999               0.000015321               0.000152122               0.999999999               0.000019445               0.000166190               0.999999999               0.000023558               0.000181372               0.999999999               0.000028071               0.000197715               0.999999999               0.000032951               0.000215189               0.999999999               0.000038083               0.000233748               0.999999999               0.000043663               0.000253263               0.999999999               0.000049822               0.000273623               0.999999999              -0.000001634               0.000104083               0.999999999              -0.000005553               0.000099816               0.999999999              -0.000005841               0.000099736               0.999999999              -0.000004873               0.000102508               0.999999999              -0.000003321               0.000107372               0.999999999              -0.000001353               0.000113902               0.999999999               0.000001176               0.000121954               0.999999999               0.000004136               0.000131357               0.999999999               0.000007554               0.000142174               0.999999999               0.000011149               0.000154264               0.999999999               0.000014620               0.000167529               0.999999999               0.000017971               0.000181885               0.999999999               0.000021362               0.000197317               0.999999999               0.000025022               0.000213702               0.999999999               0.000028791               0.000231074               0.999999999               0.000032705               0.000249376               0.999999999               0.000037091               0.000268544               0.999999999              -0.000001037               0.000109098               0.999999999              -0.000004759               0.000106154               0.999999999              -0.000005291               0.000106278               0.999999999              -0.000004764               0.000108826               0.999999999              -0.000003707               0.000113314               0.999999999              -0.000002235               0.000119335               0.999999999              -0.000000345               0.000126726               0.999999999               0.000001992               0.000135475               0.999999999               0.000004623               0.000145585               0.999999999               0.000007444               0.000157000               0.999999999               0.000010309               0.000169634               0.999999999               0.000012988               0.000183334               0.999999999               0.000015566               0.000197901               0.999999999               0.000018185               0.000213408               0.999999999               0.000020812               0.000229783               0.999999999               0.000023384               0.000246997               0.999999999               0.000026129               0.000265040               0.999999999              -0.000000604               0.000113059               0.999999999              -0.000003721               0.000111359               0.999999999              -0.000004365               0.000111878               0.999999999              -0.000004165               0.000114395               0.999999999              -0.000003515               0.000118619               0.999999999              -0.000002511               0.000124314               0.999999999              -0.000001142               0.000131281               0.999999999               0.000000484               0.000139593               0.999999999               0.000002359               0.000149245               0.999999999               0.000004466               0.000160109               0.999999999               0.000006669               0.000172154               0.999999999               0.000008751               0.000185232               0.999999999               0.000010670               0.000199142               0.999999999               0.000012397               0.000213915               0.999999999               0.000014054               0.000229550               0.999999999               0.000015712               0.000246053               0.999999999               0.000017275               0.000263313               0.999999999              -0.000000311               0.000115901               0.999999999              -0.000002530               0.000115251               0.999999999              -0.000003139               0.000116178               0.999999999              -0.000003073               0.000118758               0.999999999              -0.000002741               0.000122900               0.999999999              -0.000002148               0.000128355               0.999999999              -0.000001282               0.000135167               0.999999999              -0.000000297               0.000143258               0.999999999               0.000000957               0.000152496               0.999999999               0.000002396               0.000162955               0.999999999               0.000003838               0.000174567               0.999999999               0.000005227               0.000187138               0.999999999               0.000006492               0.000200602               0.999999999               0.000007565               0.000214936               0.999999999               0.000008549               0.000230125               0.999999999               0.000009499               0.000246109               0.999999999               0.000010264               0.000262868               0.999999999              -0.000000128               0.000117623               0.999999999              -0.000001277               0.000117656               0.999999999              -0.000001644               0.000118879               0.999999999              -0.000001628               0.000121571               0.999999999              -0.000001518               0.000125692               0.999999999              -0.000001208               0.000131054               0.999999999              -0.000000875               0.000137783               0.999999999              -0.000000307               0.000145744               0.999999999               0.000000317               0.000154807               0.999999999               0.000000969               0.000165010               0.999999999               0.000001673               0.000176302               0.999999999               0.000002363               0.000188592               0.999999999               0.000003030               0.000201860               0.999999999               0.000003580               0.000216013               0.999999999               0.000004034               0.000230917               0.999999999               0.000004420               0.000246580               0.999999999               0.000004659               0.000263098               0.999999999              -0.000000000               0.000118211               0.999999999               0.000000000               0.000118467               0.999999999               0.000000000               0.000119803               0.999999999              -0.000000000               0.000122567               0.999999999              -0.000000000               0.000126636               0.999999999              -0.000000000               0.000131994               0.999999999               0.000000000               0.000138708               0.999999999              -0.000000000               0.000146617               0.999999999              -0.000000000               0.000155710               0.999999999               0.000000000               0.000165789               0.999999999              -0.000000000               0.000176895               0.999999999               0.000000000               0.000189186               0.999999999               0.000000000               0.000202424               0.999999999               0.000000000               0.000216431               0.999999999              -0.000000000               0.000231234               0.999999999              -0.000000000               0.000246853               0.999999999              -0.000000000               0.000263323               0.999999999 </DataArray>
<DataArray type="Float64"                                    Name="defo"                                                      NumberOfComponents=" 3" format="ascii">
              0.000007951               0.000000000               0.999999999               0.000003229               0.000000000               0.999999999               0.000000983              -0.000000000               0.999999999              -0.000000142               0.000000000               0.999999999              -0.000000723               0.000000000               0.999999999              -0.000001015               0.000000000               0.999999999              -0.000001148               0.000000000               0.999999999              -0.000001325               0.000000000               0.999999999              -0.000001652               0.000000000               0.999999999              -0.000002251               0.000000000               0.999999999              -0.000003235              -0.000000000               0.999999999              -0.000004576              -0.000000000               0.999999999              -0.000006290              -0.000000000               0.999999999              -0.000008408              -0.000000000               0.999999999              -0.000010984              -0.000000000               0.999999999              -0.000014154              -0.000000000               0.999999999              -0.000017921              -0.000000000               0.999999999               0.000007878               0.000011680               0.999999999               0.000003286               0.000010610               0.999999999               0.000001124               0.000010423               0.999999999               0.000000023               0.000010632               0.999999999              -0.000000591               0.000011154               0.999999999              -0.000000948               0.000011796               0.999999999              -0.000001234               0.000012676               0.999999999              -0.000001564               0.000013776               0.999999999              -0.000002083               0.000015182               0.999999999              -0.000002937               0.000016879               0.999999999              -0.000004133               0.000018729               0.999999999              -0.000005658               0.000020607               0.999999999              -0.000007579               0.000022647               0.999999999              -0.000009951               0.000024944               0.999999999              -0.000012775               0.000027384               0.999999999              -0.000016103               0.000030046               0.999999999              -0.000019997               0.000033023               0.999999999               0.000007664               0.000023221               0.999999999               0.000003515               0.000021114               0.999999999               0.000001556               0.000020732               0.999999999               0.000000486               0.000021271               0.999999999              -0.000000214               0.000022341               0.999999999              -0.000000801               0.000023776               0.999999999              -0.000001454               0.000025575               0.999999999              -0.000002238               0.000027839               0.999999999              -0.000003345               0.000030742               0.999999999              -0.000004811               0.000034056               0.999999999              -0.000006615               0.000037674               0.999999999              -0.000008780               0.000041312               0.999999999              -0.000011292               0.000045343               0.999999999              -0.000014205               0.000049800               0.999999999              -0.000017564               0.000054487               0.999999999              -0.000021419               0.000059567               0.999999999              -0.000025751               0.000065050               0.999999999               0.000007317               0.000034515               0.999999999               0.000003865               0.000031373               0.999999999               0.000002194               0.000030910               0.999999999               0.000001161               0.000031891               0.999999999               0.000000273               0.000033636               0.999999999              -0.000000697               0.000035952               0.999999999              -0.000001826               0.000038866               0.999999999              -0.000003337               0.000042445               0.999999999              -0.000005244               0.000046855               0.999999999              -0.000007541               0.000051803               0.999999999              -0.000010158               0.000057012               0.999999999              -0.000013068               0.000062375               0.999999999              -0.000016377               0.000068284               0.999999999              -0.000020063               0.000074690               0.999999999              -0.000024112               0.000081407               0.999999999              -0.000028532               0.000088604               0.999999999              -0.000033375               0.000096164               0.999999999               0.000006864               0.000045478               0.999999999               0.000004300               0.000041268               0.999999999               0.000002973               0.000040881               0.999999999               0.000001884               0.000042420               0.999999999               0.000000714               0.000044992               0.999999999              -0.000000663               0.000048413               0.999999999              -0.000002468               0.000052532               0.999999999              -0.000004736               0.000057682               0.999999999              -0.000007519               0.000063626               0.999999999              -0.000010711               0.000070198               0.999999999              -0.000014172               0.000076942               0.999999999              -0.000017952               0.000083960               0.999999999              -0.000022068               0.000091708               0.999999999              -0.000026515               0.000099979               0.999999999              -0.000031281               0.000108702               0.999999999              -0.000036484               0.000117965               0.999999999              -0.000042204               0.000127748               0.999999999               0.000006284               0.000055952               0.999999999               0.000004811               0.000050762               0.999999999               0.000003729               0.000050566               0.999999999               0.000002485               0.000052793               0.999999999               0.000000983               0.000056336               0.999999999              -0.000000938               0.000060942               0.999999999              -0.000003388               0.000066567               0.999999999              -0.000006459               0.000073336               0.999999999              -0.000010058               0.000081044               0.999999999              -0.000014061               0.000089189               0.999999999              -0.000018352               0.000097544               0.999999999              -0.000022934               0.000106422               0.999999999              -0.000027894               0.000116108               0.999999999              -0.000033297               0.000126402               0.999999999              -0.000039118               0.000137349               0.999999999              -0.000045417               0.000148960               0.999999999              -0.000052194               0.000161208               0.999999999               0.000005613               0.000065814               0.999999999               0.000005346               0.000059835               0.999999999               0.000004380               0.000059956               0.999999999               0.000002884               0.000062925               0.999999999               0.000000931               0.000067530               0.999999999              -0.000001546               0.000073484               0.999999999              -0.000004686               0.000080716               0.999999999              -0.000008526               0.000089344               0.999999999              -0.000012889               0.000098719               0.999999999              -0.000017597               0.000108667               0.999999999              -0.000022592               0.000118969               0.999999999              -0.000027957               0.000130056               0.999999999              -0.000033765               0.000142175               0.999999999              -0.000040057               0.000155095               0.999999999              -0.000046846               0.000168733               0.999999999              -0.000054159               0.000183167               0.999999999              -0.000061963               0.000198408               0.999999999               0.000004920               0.000075022               0.999999999               0.000005831               0.000068439               0.999999999               0.000004871               0.000068975               0.999999999               0.000003023               0.000072759               0.999999999               0.000000603               0.000078537               0.999999999              -0.000002462               0.000085913               0.999999999              -0.000006347               0.000094952               0.999999999              -0.000010956               0.000105357               0.999999999              -0.000015994               0.000116667               0.999999999              -0.000021282               0.000128664               0.999999999              -0.000026823               0.000141448               0.999999999              -0.000032757               0.000155411               0.999999999              -0.000039216               0.000170673               0.999999999              -0.000046292               0.000186802               0.999999999              -0.000054045               0.000203798               0.999999999              -0.000062348               0.000221791               0.999999999              -0.000071150               0.000240592               0.999999999               0.000004131               0.000083386               0.999999999               0.000006259               0.000076563               0.999999999               0.000005132               0.000077581               0.999999999               0.000002923               0.000082248               0.999999999               0.000000063               0.000089278               0.999999999              -0.000003635               0.000098266               0.999999999              -0.000008253               0.000109202               0.999999999              -0.000013538               0.000121556               0.999999999              -0.000019039               0.000135062               0.999999999              -0.000024659               0.000149660               0.999999999              -0.000030525               0.000165688               0.999999999              -0.000037054               0.000183157               0.999999999              -0.000044309               0.000201977               0.999999999              -0.000052200               0.000221865               0.999999999              -0.000060699               0.000242858               0.999999999              -0.000069738               0.000264858               0.999999999              -0.000079161               0.000287566               0.999999999               0.000003192               0.000091143               0.999999999               0.000006369               0.000084809               0.999999999               0.000005688               0.000085098               0.999999999               0.000003841               0.000088957               0.999999999               0.000001355               0.000095102               0.999999999              -0.000001713               0.000103163               0.999999999              -0.000005681               0.000112925               0.999999999              -0.000010231               0.000124252               0.999999999              -0.000015005               0.000136823               0.999999999              -0.000019833               0.000150597               0.999999999              -0.000024711               0.000165568               0.999999999              -0.000029938               0.000181772               0.999999999              -0.000035759               0.000199257               0.999999999              -0.000042012               0.000218043               0.999999999              -0.000048689               0.000237775               0.999999999              -0.000056092               0.000258563               0.999999999              -0.000063883               0.000280215               0.999999999               0.000002376               0.000098097               0.999999999               0.000006119               0.000092635               0.999999999               0.000005954               0.000092580               0.999999999               0.000004527               0.000095777               0.999999999               0.000002516               0.000101213               0.999999999              -0.000000034               0.000108418               0.999999999              -0.000003252               0.000117262               0.999999999              -0.000006976               0.000127547               0.999999999              -0.000011048               0.000139212               0.999999999              -0.000015321               0.000152122               0.999999999              -0.000019445               0.000166190               0.999999999              -0.000023558               0.000181372               0.999999999              -0.000028071               0.000197715               0.999999999              -0.000032951               0.000215189               0.999999999              -0.000038083               0.000233748               0.999999999              -0.000043663               0.000253263               0.999999999              -0.000049822               0.000273623               0.999999999               0.000001634               0.000104083               0.999999999               0.000005553               0.000099816               0.999999999               0.000005841               0.000099736               0.999999999               0.000004873               0.000102508               0.999999999               0.000003321               0.000107372               0.999999999               0.000001353               0.000113902               0.999999999              -0.000001176               0.000121954               0.999999999              -0.000004136               0.000131357               0.999999999              -0.000007554               0.000142174               0.999999999              -0.000011149               0.000154264               0.999999999              -0.000014620               0.000167529               0.999999999              -0.000017971               0.000181885               0.999999999              -0.000021362               0.000197317               0.999999999              -0.000025022               0.000213702               0.999999999              -0.000028791               0.000231074               0.999999999              -0.000032705               0.000249376               0.999999999              -0.000037091               0.000268544               0.999999999               0.000001037               0.000109098               0.999999999               0.000004759               0.000106154               0.999999999               0.000005291               0.000106278               0.999999999               0.000004764               0.000108826               0.999999999               0.000003707               0.000113314               0.999999999               0.000002235               0.000119335               0.999999999               0.000000345               0.000126726               0.999999999              -0.000001992               0.000135475               0.999999999              -0.000004623               0.000145585               0.999999999              -0.000007444               0.000157000               0.999999999              -0.000010309               0.000169634               0.999999999              -0.000012988               0.000183334               0.999999999              -0.000015566               0.000197901               0.999999999              -0.000018185               0.000213408               0.999999999              -0.000020812               0.000229783               0.999999999              -0.000023384               0.000246997               0.999999999              -0.000026129               0.000265040               0.999999999               0.000000604               0.000113059               0.999999999               0.000003721               0.000111359               0.999999999               0.000004365               0.000111878               0.999999999               0.000004165               0.000114395               0.999999999               0.000003515               0.000118619               0.999999999               0.000002511               0.000124314               0.999999999               0.000001142               0.000131281               0.999999999              -0.000000484               0.000139593               0.999999999              -0.000002359               0.000149245               0.999999999              -0.000004466               0.000160109               0.999999999              -0.000006669               0.000172154               0.999999999              -0.000008751               0.000185232               0.999999999              -0.000010670               0.000199142               0.999999999              -0.000012397               0.000213915               0.999999999              -0.000014054               0.000229550               0.999999999              -0.000015712               0.000246053               0.999999999              -0.000017275               0.000263313               0.999999999               0.000000311               0.000115901               0.999999999               0.000002530               0.000115251               0.999999999               0.000003139               0.000116178               0.999999999               0.000003073               0.000118758               0.999999999               0.000002741               0.000122900               0.999999999               0.000002148               0.000128355               0.999999999               0.000001282               0.000135167               0.999999999               0.000000297               0.000143258               0.999999999              -0.000000957               0.000152496               0.999999999              -0.000002396               0.000162955               0.999999999              -0.000003838               0.000174567               0.999999999              -0.000005227               0.000187138               0.999999999              -0.000006492               0.000200602               0.999999999              -0.000007565               0.000214936               0.999999999              -0.000008549               0.000230125               0.999999999              -0.000009499               0.000246109               0.999999999              -0.000010264               0.000262868               0.999999999               0.000000128               0.000117623               0.999999999               0.000001277               0.000117656               0.999999999               0.000001644               0.000118879               0.999999999               0.000001628               0.000121571               0.999999999               0.000001518               0.000125692               0.999999999               0.000001208               0.000131054               0.999999999               0.000000875               0.000137783               0.999999999               0.000000307               0.000145744               0.999999999              -0.000000317               0.000154807               0.999999999              -0.000000969               0.000165010               0.999999999              -0.000001673               0.000176302               0.999999999              -0.000002363               0.000188592               0.999999999              -0.000003030               0.000201860               0.999999999              -0.000003580               0.000216013               0.999999999              -0.000004034               0.000230917               0.999999999              -0.000004420               0.000246580               0.999999999              -0.000004659               0.000263098               0.999999999              -0.000000000               0.000118211               0.999999999               0.000000000               0.000118467               0.999999999               0.000000000               0.000119803               0.999999999              -0.000000000               0.000122567               0.999999999              -0.000000000               0.000126636               0.999999999              -0.000000000               0.000131994               0.999999999               0.000000000               0.000138708               0.999999999              -0.000000000               0.000146617               0.999999999              -0.000000000               0.000155710               0.999999999               0.000000000               0.000165789               0.999999999              -0.000000000               0.000176895               0.999999999               0.000000000               0.000189186               0.999999999               0.000000000               0.000202424               0.999999999               0.000000000               0.000216431               0.999999999              -0.000000000               0.000231234               0.999999999              -0.000000000               0.000246853               0.999999999              -0.000000000               0.000263323               0.999999999               0.000007951               0.000000000               0.999999999               0.000003229               0.000000000               0.999999999               0.000000983              -0.000000000               0.999999999              -0.000000142               0.000000000               0.999999999              -0.000000723               0.000000000               0.999999999              -0.000001015               0.000000000               0.999999999              -0.000001148               0.000000000               0.999999999              -0.000001325               0.000000000               0.999999999              -0.000001652               0.000000000               0.999999999              -0.000002251               0.000000000               0.999999999              -0.000003235              -0.000000000               0.999999999              -0.000004576              -0.000000000               0.999999999              -0.000006290              -0.000000000               0.999999999              -0.000008408              -0.000000000               0.999999999              -0.000010984              -0.000000000               0.999999999              -0.000014154              -0.000000000               0.999999999              -0.000017921              -0.000000000               0.999999999               0.000007878              -0.000011680               0.999999999               0.000003286              -0.000010610               0.999999999               0.000001124              -0.000010423               0.999999999               0.000000023              -0.000010632               0.999999999              -0.000000591              -0.000011154               0.999999999              -0.000000948              -0.000011796               0.999999999              -0.000001234              -0.000012676               0.999999999              -0.000001564              -0.000013776               0.999999999              -0.000002083              -0.000015182               0.999999999              -0.000002937              -0.000016879               0.999999999              -0.000004133              -0.000018729               0.999999999              -0.000005658              -0.000020607               0.999999999              -0.000007579              -0.000022647               0.999999999              -0.000009951              -0.000024944               0.999999999              -0.000012775              -0.000027384               0.999999999              -0.000016103              -0.000030046               0.999999999              -0.000019997              -0.000033023               0.999999999               0.000007664              -0.000023221               0.999999999               0.000003515              -0.000021114               0.999999999               0.000001556              -0.000020732               0.999999999               0.000000486              -0.000021271               0.999999999              -0.000000214              -0.000022341               0.999999999              -0.000000801              -0.000023776               0.999999999              -0.000001454              -0.000025575               0.999999999              -0.000002238              -0.000027839               0.999999999              -0.000003345              -0.000030742               0.999999999              -0.000004811              -0.000034056               0.999999999              -0.000006615              -0.000037674               0.999999999              -0.000008780              -0.000041312               0.999999999              -0.000011292              -0.000045343               0.999999999              -0.000014205              -0.000049800               0.999999999              -0.000017564              -0.000054487               0.999999999              -0.000021419              -0.000059567               0.999999999              -0.000025751              -0.000065050               0.999999999               0.000007317              -0.000034515               0.999999999               0.000003865              -0.000031373               0.999999999               0.000002194              -0.000030910               0.999999999               0.000001161              -0.000031891               0.999999999               0.000000273              -0.000033636               0.999999999              -0.000000697              -0.000035952               0.999999999              -0.000001826              -0.000038866               0.999999999              -0.000003337              -0.000042445               0.999999999              -0.000005244              -0.000046855               0.999999999              -0.000007541              -0.000051803               0.999999999              -0.000010158              -0.000057012               0.999999999              -0.000013068              -0.000062375               0.999999999              -0.000016377              -0.000068284               0.999999999              -0.000020063              -0.000074690               0.999999999              -0.000024112              -0.000081407               0.999999999              -0.000028532              -0.000088604               0.999999999              -0.000033375              -0.000096164               0.999999999               0.000006864              -0.000045478               0.999999999               0.000004300              -0.000041268               0.999999999               0.000002973              -0.000040881               0.999999999               0.000001884              -0.000042420               0.999999999               0.000000714              -0.000044992               0.999999999              -0.000000663              -0.000048413               0.999999999              -0.000002468              -0.000052532               0.999999999              -0.000004736              -0.000057682               0.999999999              -0.000007519              -0.000063626               0.999999999              -0.000010711              -0.000070198               0.999999999              -0.000014172              -0.000076942               0.999999999              -0.000017952              -0.000083960               0.999999999              -0.000022068              -0.000091708               0.999999999              -0.000026515              -0.000099979               0.999999999              -0.000031281              -0.000108702               0.999999999              -0.000036484              -0.000117965               0.999999999              -0.000042204              -0.000127748               0.999999999               0.000006284              -0.000055952               0.999999999               0.000004811              -0.000050762               0.999999999               0.000003729              -0.000050566               0.999999999               0.000002485              -0.000052793               0.999999999               0.000000983              -0.000056336               0.999999999              -0.000000938              -0.000060942               0.999999999              -0.000003388              -0.000066567               0.999999999              -0.000006459              -0.000073336               0.999999999              -0.000010058              -0.000081044               0.999999999              -0.000014061              -0.000089189               0.999999999              -0.000018352              -0.000097544               0.999999999              -0.000022934              -0.000106422               0.999999999              -0.000027894              -0.000116108               0.999999999              -0.000033297              -0.000126402               0.999999999              -0.000039118              -0.000137349               0.999999999              -0.000045417              -0.000148960               0.999999999              -0.000052194              -0.000161208               0.999999999               0.000005613              -0.000065814               0.999999999               0.000005346              -0.000059835               0.999999999               0.000004380              -0.000059956               0.999999999               0.000002884              -0.000062925               0.999999999               0.000000931              -0.000067530               0.999999999              -0.000001546              -0.000073484               0.999999999              -0.000004686              -0.000080716               0.999999999              -0.000008526              -0.000089344               0.999999999              -0.000012889              -0.000098719               0.999999999              -0.000017597              -0.000108667               0.999999999              -0.000022592              -0.000118969               0.999999999              -0.000027957              -0.000130056               0.999999999              -0.000033765              -0.000142175               0.999999999              -0.000040057              -0.000155095               0.999999999              -0.000046846              -0.000168733               0.999999999              -0.000054159              -0.000183167               0.999999999              -0.000061963              -0.000198408               0.999999999               0.000004920              -0.000075022               0.999999999               0.000005831              -0.000068439               0.999999999               0.000004871              -0.000068975               0.999999999               0.000003023              -0.000072759               0.999999999               0.000000603              -0.000078537               0.999999999              -0.000002462              -0.000085913               0.999999999              -0.000006347              -0.000094952               0.999999999              -0.000010956              -0.000105357               0.999999999              -0.000015994              -0.000116667               0.999999999              -0.000021282              -0.000128664               0.999999999              -0.000026823              -0.000141448               0.999999999              -0.000032757              -0.000155411               0.999999999              -0.000039216              -0.000170673               0.999999999              -0.000046292              -0.000186802               0.999999999              -0.000054045              -0.000203798               0.999999999              -0.000062348              -0.000221791               0.999999999              -0.000071150              -0.000240592               0.999999999               0.000004131              -0.000083386               0.999999999               0.000006259              -0.000076563               0.999999999               0.000005132              -0.000077581               0.999999999               0.000002923              -0.000082248               0.999999999               0.000000063              -0.000089278               0.999999999              -0.000003635              -0.000098266               0.999999999              -0.000008253              -0.000109202               0.999999999              -0.000013538              -0.000121556               0.999999999              -0.000019039              -0.000135062               0.999999999              -0.000024659              -0.000149660               0.999999999              -0.000030525              -0.000165688               0.999999999              -0.000037054              -0.000183157               0.999999999              -0.000044309              -0.000201977               0.999999999              -0.000052200              -0.000221865               0.999999999              -0.000060699              -0.000242858               0.999999999              -0.000069738              -0.000264858               0.999999999              -0.000079161              -0.000287566               0.999999999               0.000003192              -0.000091143               0.999999999               0.000006369              -0.000084809               0.999999999               0.000005688              -0.000085098               0.999999999               0.000003841              -0.000088957               0.999999999               0.000001355              -0.000095102               0.999999999              -0.000001713              -0.000103163               0.999999999              -0.000005681              -0.000112925               0.999999999              -0.000010231              -0.000124252               0.999999999              -0.000015005              -0.000136823               0.999999999              -0.000019833              -0.000150597               0.999999999              -0.000024711              -0.000165568               0.999999999              -0.000029938              -0.000181772               0.999999999              -0.000035759              -0.000199257               0.999999999              -0.000042012              -0.000218043               0.999999999              -0.000048689              -0.000237775               0.999999999              -0.000056092              -0.000258563               0.999999999              -0.000063883              -0.000280215               0.999999999               0.000002376              -0.000098097               0.999999999               0.000006119              -0.000092635               0.999999999               0.000005954              -0.000092580               0.999999999               0.000004527              -0.000095777               0.999999999               0.000002516              -0.000101213               0.999999999              -0.000000034              -0.000108418               0.999999999              -0.000003252              -0.000117262               0.999999999              -0.000006976              -0.000127547               0.999999999              -0.000011048              -0.000139212               0.999999999              -0.000015321              -0.000152122               0.999999999              -0.000019445              -0.000166190               0.999999999              -0.000023558              -0.000181372               0.999999999              -0.000028071              -0.000197715               0.999999999              -0.000032951              -0.000215189               0.999999999              -0.000038083              -0.000233748               0.999999999              -0.000043663              -0.000253263               0.999999999              -0.000049822              -0.000273623               0.999999999               0.000001634              -0.000104083               0.999999999               0.000005553              -0.000099816               0.999999999               0.000005841              -0.000099736               0.999999999               0.000004873              -0.000102508               0.999999999               0.000003321              -0.000107372               0.999999999               0.000001353              -0.000113902               0.999999999              -0.000001176              -0.000121954               0.999999999              -0.000004136              -0.000131357               0.999999999              -0.000007554              -0.000142174               0.999999999              -0.000011149              -0.000154264               0.999999999              -0.000014620              -0.000167529               0.999999999              -0.000017971              -0.000181885               0.999999999              -0.000021362              -0.000197317               0.999999999              -0.000025022              -0.000213702               0.999999999              -0.000028791              -0.000231074               0.999999999              -0.000032705              -0.000249376               0.999999999              -0.000037091              -0.000268544               0.999999999               0.000001037              -0.000109098               0.999999999               0.000004759              -0.000106154               0.999999999               0.000005291              -0.000106278               0.999999999               0.000004764              -0.000108826               0.999999999               0.000003707              -0.000113314               0.999999999               0.000002235              -0.000119335               0.999999999               0.000000345              -0.000126726               0.999999999              -0.000001992              -0.000135475               0.999999999              -0.000004623              -0.000145585               0.999999999              -0.000007444              -0.000157000               0.999999999              -0.000010309              -0.000169634               0.999999999              -0.000012988              -0.000183334               0.999999999              -0.000015566              -0.000197901               0.999999999              -0.000018185              -0.000213408               0.999999999              -0.000020812              -0.000229783               0.999999999              -0.000023384              -0.000246997               0.999999999              -0.000026129              -0.000265040               0.999999999               0.000000604              -0.000113059               0.999999999               0.000003721              -0.000111359               0.999999999               0.000004365              -0.000111878               0.999999999               0.000004165              -0.000114395               0.999999999               0.000003515              -0.000118619               0.999999999               0.000002511              -0.000124314               0.999999999               0.000001142              -0.000131281               0.999999999              -0.000000484              -0.000139593               0.999999999              -0.000002359              -0.000149245               0.999999999              -0.000004466              -0.000160109               0.999999999              -0.000006669              -0.000172154               0.999999999              -0.000008751              -0.000185232               0.999999999              -0.000010670              -0.000199142               0.999999999              -0.000012397              -0.000213915               0.999999999              -0.000014054              -0.000229550               0.999999999              -0.000015712              -0.000246053               0.999999999              -0.000017275              -0.000263313               0.999999999               0.000000311              -0.000115901               0.999999999               0.000002530              -0.000115251               0.999999999               0.000003139              -0.000116178               0.999999999               0.000003073              -0.000118758               0.999999999               0.000002741              -0.000122900               0.999999999               0.000002148              -0.000128355               0.999999999               0.000001282              -0.000135167               0.999999999               0.000000297              -0.000143258               0.999999999              -0.000000957              -0.000152496               0.999999999              -0.000002396              -0.000162955               0.999999999              -0.000003838              -0.000174567               0.999999999              -0.000005227              -0.000187138               0.999999999              -0.000006492              -0.000200602               0.999999999              -0.000007565              -0.000214936               0.999999999              -0.000008549              -0.000230125               0.999999999              -0.000009499              -0.000246109               0.999999999              -0.000010264              -0.000262868               0.999999999               0.000000128              -0.000117623               0.999999999               0.000001277              -0.000117656               0.999999999               0.000001644              -0.000118879               0.999999999               0.000001628              -0.000121571               0.999999999               0.000001518              -0.000125692               0.999999999               0.000001208              -0.000131054               0.999999999               0.000000875              -0.000137783               0.999999999               0.000000307              -0.000145744               0.999999999              -0.000000317              -0.000154807               0.999999999              -0.000000969              -0.000165010               0.999999999              -0.000001673              -0.000176302               0.999999999              -0.000002363              -0.000188592               0.999999999              -0.000003030              -0.000201860               0.999999999              -0.000003580              -0.000216013               0.999999999              -0.000004034              -0.000230917               0.999999999              -0.000004420              -0.000246580               0.999999999              -0.000004659              -0.000263098               0.999999999               0.000000000              -0.000118211               0.999999999               0.000000000              -0.000118467               0.999999999              -0.000000000              -0.000119803               0.999999999               0.000000000              -0.000122567               0.999999999               0.000000000              -0.000126636               0.999999999               0.000000000              -0.000131994               0.999999999              -0.000000000              -0.000138708               0.999999999               0.000000000              -0.000146617               0.999999999              -0.000000000              -0.000155710               0.999999999              -0.000000000              -0.000165789               0.999999999              -0.000000000              -0.000176895               0.999999999              -0.000000000              -0.000189186               0.999999999              -0.000000000              -0.000202424               0.999999999              -0.000000000              -0.000216431               0.999999999              -0.000000000              -0.000231234               0.999999999               0.000000000              -0.000246853               0.999999999               0.000000000              -0.000263323               0.999999999              -0.000007951              -0.000000000               0.999999999              -0.000003229               0.000000000               0.999999999              -0.000000983               0.000000000               0.999999999               0.000000142               0.000000000               0.999999999               0.000000723               0.000000000               0.999999999               0.000001015              -0.000000000               0.999999999               0.000001148              -0.000000000               0.999999999               0.000001325              -0.000000000               0.999999999               0.000001652              -0.000000000               0.999999999               0.000002251              -0.000000000               0.999999999               0.000003235              -0.000000000               0.999999999               0.000004576              -0.000000000               0.999999999               0.000006290              -0.000000000               0.999999999               0.000008408              -0.000000000               0.999999999               0.000010984              -0.000000000               0.999999999               0.000014154              -0.000000000               0.999999999               0.000017921              -0.000000000               0.999999999              -0.000007878              -0.000011680               0.999999999              -0.000003286              -0.000010610               0.999999999              -0.000001124              -0.000010423               0.999999999              -0.000000023              -0.000010632               0.999999999               0.000000591              -0.000011154               0.999999999               0.000000948              -0.000011796               0.999999999               0.000001234              -0.000012676               0.999999999               0.000001564              -0.000013776               0.999999999               0.000002083              -0.000015182               0.999999999               0.000002937              -0.000016879               0.999999999               0.000004133              -0.000018729               0.999999999               0.000005658              -0.000020607               0.999999999               0.000007579              -0.000022647               0.999999999               0.000009951              -0.000024944               0.999999999               0.000012775              -0.000027384               0.999999999               0.000016103              -0.000030046               0.999999999               0.000019997              -0.000033023               0.999999999              -0.000007664              -0.000023221               0.999999999              -0.000003515              -0.000021114               0.999999999              -0.000001556              -0.000020732               0.999999999              -0.000000486              -0.000021271               0.999999999               0.000000214              -0.000022341               0.999999999               0.000000801              -0.000023776               0.999999999               0.000001454              -0.000025575               0.999999999               0.000002238              -0.000027839               0.999999999               0.000003345              -0.000030742               0.999999999               0.000004811              -0.000034056               0.999999999               0.000006615              -0.000037674               0.999999999               0.000008780              -0.000041312               0.999999999               0.000011292              -0.000045343               0.999999999               0.000014205              -0.000049800               0.999999999               0.000017564              -0.000054487               0.999999999               0.000021419              -0.000059567               0.999999999               0.000025751              -0.000065050               0.999999999              -0.000007317              -0.000034515               0.999999999              -0.000003865              -0.000031373               0.999999999              -0.000002194              -0.000030910               0.999999999              -0.000001161              -0.000031891               0.999999999              -0.000000273              -0.000033636               0.999999999               0.000000697              -0.000035952               0.999999999               0.000001826              -0.000038866               0.999999999               0.000003337              -0.000042445               0.999999999               0.000005244              -0.000046855               0.999999999               0.000007541              -0.000051803               0.999999999               0.000010158              -0.000057012               0.999999999               0.000013068              -0.000062375               0.999999999               0.000016377              -0.000068284               0.999999999               0.000020063              -0.000074690               0.999999999               0.000024112              -0.000081407               0.999999999               0.000028532              -0.000088604               0.999999999               0.000033375              -0.000096164               0.999999999              -0.000006864              -0.000045478               0.999999999              -0.000004300              -0.000041268               0.999999999              -0.000002973              -0.000040881               0.999999999              -0.000001884              -0.000042420               0.999999999              -0.000000714              -0.000044992               0.999999999               0.000000663              -0.000048413               0.999999999               0.000002468              -0.000052532               0.999999999               0.000004736              -0.000057682               0.999999999               0.000007519              -0.000063626               0.999999999               0.000010711              -0.000070198               0.999999999               0.000014172              -0.000076942               0.999999999               0.000017952              -0.000083960               0.999999999               0.000022068              -0.000091708               0.999999999               0.000026515              -0.000099979               0.999999999               0.000031281              -0.000108702               0.999999999               0.000036484              -0.000117965               0.999999999               0.000042204              -0.000127748               0.999999999              -0.000006284              -0.000055952               0.999999999              -0.000004811              -0.000050762               0.999999999              -0.000003729              -0.000050566               0.999999999              -0.000002485              -0.000052793               0.999999999              -0.000000983              -0.000056336               0.999999999               0.000000938              -0.000060942               0.999999999               0.000003388              -0.000066567               0.999999999               0.000006459              -0.000073336               0.999999999               0.000010058              -0.000081044               0.999999999               0.000014061              -0.000089189               0.999999999               0.000018352              -0.000097544               0.999999999               0.000022934              -0.000106422               0.999999999               0.000027894              -0.000116108               0.999999999               0.000033297              -0.000126402               0.999999999               0.000039118              -0.000137349               0.999999999               0.000045417              -0.000148960               0.999999999               0.000052194              -0.000161208               0.999999999              -0.000005613              -0.000065814               0.999999999              -0.000005346              -0.000059835               0.999999999              -0.000004380              -0.000059956               0.999999999              -0.000002884              -0.000062925               0.999999999              -0.000000931              -0.000067530               0.999999999               0.000001546              -0.000073484               0.999999999               0.000004686              -0.000080716               0.999999999               0.000008526              -0.000089344               0.999999999               0.000012889              -0.000098719               0.999999999               0.000017597              -0.000108667               0.999999999               0.000022592              -0.000118969               0.999999999               0.000027957              -0.000130056               0.999999999               0.000033765              -0.000142175               0.999999999               0.000040057              -0.000155095               0.999999999               0.000046846              -0.000168733               0.999999999               0.000054159              -0.000183167               0.999999999               0.000061963              -0.000198408               0.999999999              -0.000004920              -0.000075022               0.999999999              -0.000005831              -0.000068439               0.999999999              -0.000004871              -0.000068975               0.999999999              -0.000003023              -0.000072759               0.999999999              -0.000000603              -0.000078537               0.999999999               0.000002462              -0.000085913               0.999999999               0.000006347              -0.000094952               0.999999999               0.000010956              -0.000105357               0.999999999               0.000015994              -0.000116667               0.999999999               0.000021282              -0.000128664               0.999999999               0.000026823              -0.000141448               0.999999999               0.000032757              -0.000155411               0.999999999               0.000039216              -0.000170673               0.999999999               0.000046292              -0.000186802               0.999999999               0.000054045              -0.000203798               0.999999999               0.000062348              -0.000221791               0.999999999               0.000071150              -0.000240592               0.999999999              -0.000004131              -0.000083386               0.999999999              -0.000006259              -0.000076563               0.999999999              -0.000005132              -0.000077581               0.999999999              -0.000002923              -0.000082248               0.999999999              -0.000000063              -0.000089278               0.999999999               0.000003635              -0.000098266               0.999999999               0.000008253              -0.000109202               0.999999999               0.000013538              -0.000121556               0.999999999               0.000019039              -0.000135062               0.999999999               0.000024659              -0.000149660               0.999999999               0.000030525              -0.000165688               0.999999999               0.000037054              -0.000183157               0.999999999               0.000044309              -0.000201977               0.999999999               0.000052200              -0.000221865               0.999999999               0.000060699              -0.000242858               0.999999999               0.000069738              -0.000264858               0.999999999               0.000079161              -0.000287566               0.999999999              -0.000003192              -0.000091143               0.999999999              -0.000006369              -0.000084809               0.999999999              -0.000005688              -0.000085098               0.999999999              -0.000003841              -0.000088957               0.999999999              -0.000001355              -0.000095102               0.999999999               0.000001713              -0.000103163               0.999999999               0.000005681              -0.000112925               0.999999999               0.000010231              -0.000124252               0.999999999               0.000015005              -0.000136823               0.999999999               0.000019833              -0.000150597               0.999999999               0.000024711              -0.000165568               0.999999999               0.000029938              -0.000181772               0.999999999               0.000035759              -0.000199257               0.999999999               0.000042012              -0.000218043               0.999999999               0.000048689              -0.000237775               0.999999999               0.000056092              -0.000258563               0.999999999               0.000063883              -0.000280215               0.999999999              -0.000002376              -0.000098097               0.999999999              -0.000006119              -0.000092635               0.999999999              -0.000005954              -0.000092580               0.999999999              -0.000004527              -0.000095777               0.999999999              -0.000002516              -0.000101213               0.999999999               0.000000034              -0.000108418               0.999999999               0.000003252              -0.000117262               0.999999999               0.000006976              -0.000127547               0.999999999               0.000011048              -0.000139212               0.999999999               0.000015321              -0.000152122               0.999999999               0.000019445              -0.000166190               0.999999999               0.000023558              -0.000181372               0.999999999               0.000028071              -0.000197715               0.999999999               0.000032951              -0.000215189               0.999999999               0.000038083              -0.000233748               0.999999999               0.000043663              -0.000253263               0.999999999               0.000049822              -0.000273623               0.999999999              -0.000001634              -0.000104083               0.999999999              -0.000005553              -0.000099816               0.999999999              -0.000005841              -0.000099736               0.999999999              -0.000004873              -0.000102508               0.999999999              -0.000003321              -0.000107372               0.999999999              -0.000001353              -0.000113902               0.999999999               0.000001176              -0.000121954               0.999999999               0.000004136              -0.000131357               0.999999999               0.000007554              -0.000142174               0.999999999               0.000011149              -0.000154264               0.999999999               0.000014620              -0.000167529               0.999999999               0.000017971              -0.000181885               0.999999999               0.000021362              -0.000197317               0.999999999               0.000025022              -0.000213702               0.999999999               0.000028791              -0.000231074               0.999999999               0.000032705              -0.000249376               0.999999999               0.000037091              -0.000268544               0.999999999              -0.000001037              -0.000109098               0.999999999              -0.000004759              -0.000106154               0.999999999              -0.000005291              -0.000106278               0.999999999              -0.000004764              -0.000108826               0.999999999              -0.000003707              -0.000113314               0.999999999              -0.000002235              -0.000119335               0.999999999              -0.000000345              -0.000126726               0.999999999               0.000001992              -0.000135475               0.999999999               0.000004623              -0.000145585               0.999999999               0.000007444              -0.000157000               0.999999999               0.000010309              -0.000169634               0.999999999               0.000012988              -0.000183334               0.999999999               0.000015566              -0.000197901               0.999999999               0.000018185              -0.000213408               0.999999999               0.000020812              -0.000229783               0.999999999               0.000023384              -0.000246997               0.999999999               0.000026129              -0.000265040               0.999999999              -0.000000604              -0.000113059               0.999999999              -0.000003721              -0.000111359               0.999999999              -0.000004365              -0.000111878               0.999999999              -0.000004165              -0.000114395               0.999999999              -0.000003515              -0.000118619               0.999999999              -0.000002511              -0.000124314               0.999999999              -0.000001142              -0.000131281               0.999999999               0.000000484              -0.000139593               0.999999999               0.000002359              -0.000149245               0.999999999               0.000004466              -0.000160109               0.999999999               0.000006669              -0.000172154               0.999999999               0.000008751              -0.000185232               0.999999999               0.000010670              -0.000199142               0.999999999               0.000012397              -0.000213915               0.999999999               0.000014054              -0.000229550               0.999999999               0.000015712              -0.000246053               0.999999999               0.000017275              -0.000263313               0.999999999              -0.000000311              -0.000115901               0.999999999              -0.000002530              -0.000115251               0.999999999              -0.000003139              -0.000116178               0.999999999              -0.000003073              -0.000118758               0.999999999              -0.000002741              -0.000122900               0.999999999              -0.000002148              -0.000128355               0.999999999              -0.000001282              -0.000135167               0.999999999              -0.000000297              -0.000143258               0.999999999               0.000000957              -0.000152496               0.999999999               0.000002396              -0.000162955               0.999999999               0.000003838              -0.000174567               0.999999999               0.000005227              -0.000187138               0.999999999               0.000006492              -0.000200602               0.999999999               0.000007565              -0.000214936               0.999999999               0.000008549              -0.000230125               0.999999999               0.000009499              -0.000246109               0.999999999               0.000010264              -0.000262868               0.999999999              -0.000000128              -0.000117623               0.999999999              -0.000001277              -0.000117656               0.999999999              -0.000001644              -0.000118879               0.999999999              -0.000001628              -0.000121571               0.999999999              -0.000001518              -0.000125692               0.999999999              -0.000001208              -0.000131054               0.999999999              -0.000000875              -0.000137783               0.999999999              -0.000000307              -0.000145744               0.999999999               0.000000317              -0.000154807               0.999999999               0.000000969              -0.000165010               0.999999999               0.000001673              -0.000176302               0.999999999               0.000002363              -0.000188592               0.999999999               0.000003030              -0.000201860               0.999999999               0.000003580              -0.000216013               0.999999999               0.000004034              -0.000230917               0.999999999               0.000004420              -0.000246580               0.999999999               0.000004659              -0.000263098               0.999999999               0.000000000              -0.000118211               0.999999999               0.000000000              -0.000118467               0.999999999              -0.000000000              -0.000119803               0.999999999               0.000000000              -0.000122567               0.999999999               0.000000000              -0.000126636               0.999999999               0.000000000              -0.000131994               0.999999999              -0.000000000              -0.000138708               0.999999999               0.000000000              -0.000146617               0.999999999              -0.000000000              -0.000155710               0.999999999              -0.000000000              -0.000165789               0.999999999              -0.000000000              -0.000176895               0.999999999              -0.000000000              -0.000189186               0.999999999              -0.000000000              -0.000202424               0.999999999              -0.000000000              -0.000216431               0.999999999              -0.000000000              -0.000231234               0.999999999               0.000000000              -0.000246853               0.999999999               0.000000000              -0.000263323               0.999999999              -0.000007951              -0.000000000               0.999999999              -0.000003229               0.000000000               0.999999999              -0.000000983               0.000000000               0.999999999               0.000000142               0.000000000               0.999999999               0.000000723               0.000000000               0.999999999               0.000001015              -0.000000000               0.999999999               0.000001148              -0.000000000               0.999999999               0.000001325              -0.000000000               0.999999999               0.000001652              -0.000000000               0.999999999               0.000002251              -0.000000000               0.999999999               0.000003235              -0.000000000               0.999999999               0.000004576              -0.000000000               0.999999999               0.000006290              -0.000000000               0.999999999               0.000008408              -0.000000000               0.999999999               0.000010984              -0.000000000               0.999999999               0.000014154              -0.000000000               0.999999999               0.000017921              -0.000000000               0.999999999              -0.000007878               0.000011680               0.999999999              -0.000003286               0.000010610               0.999999999              -0.000001124               0.000010423               0.999999999              -0.000000023               0.000010632               0.999999999               0.000000591               0.000011154               0.999999999               0.000000948               0.000011796               0.999999999               0.000001234               0.000012676               0.999999999               0.000001564               0.000013776               0.999999999               0.000002083               0.000015182               0.999999999               0.000002937               0.000016879               0.999999999               0.000004133               0.000018729               0.999999999               0.000005658               0.000020607               0.999999999               0.000007579               0.000022647               0.999999999               0.000009951               0.000024944               0.999999999               0.000012775               0.000027384               0.999999999               0.000016103               0.000030046               0.999999999               0.000019997               0.000033023               0.999999999              -0.000007664               0.000023221               0.999999999              -0.000003515               0.000021114               0.999999999              -0.000001556               0.000020732               0.999999999              -0.000000486               0.000021271               0.999999999               0.000000214               0.000022341               0.999999999               0.000000801               0.000023776               0.999999999               0.000001454               0.000025575               0.999999999               0.000002238               0.000027839               0.999999999               0.000003345               0.000030742               0.999999999               0.000004811               0.000034056               0.999999999               0.000006615               0.000037674               0.999999999               0.000008780               0.000041312               0.999999999               0.000011292               0.000045343               0.999999999               0.000014205               0.000049800               0.999999999               0.000017564               0.000054487               0.999999999               0.000021419               0.000059567               0.999999999               0.000025751               0.000065050               0.999999999              -0.000007317               0.000034515               0.999999999              -0.000003865               0.000031373               0.999999999              -0.000002194               0.000030910               0.999999999              -0.000001161               0.000031891               0.999999999              -0.000000273               0.000033636               0.999999999               0.000000697               0.000035952               0.999999999               0.000001826               0.000038866               0.999999999               0.000003337               0.000042445               0.999999999               0.000005244               0.000046855               0.999999999               0.000007541               0.000051803               0.999999999               0.000010158               0.000057012               0.999999999               0.000013068               0.000062375               0.999999999               0.000016377               0.000068284               0.999999999               0.000020063               0.000074690               0.999999999               0.000024112               0.000081407               0.999999999               0.000028532               0.000088604               0.999999999               0.000033375               0.000096164               0.999999999              -0.000006864               0.000045478               0.999999999              -0.000004300               0.000041268               0.999999999              -0.000002973               0.000040881               0.999999999              -0.000001884               0.000042420               0.999999999              -0.000000714               0.000044992               0.999999999               0.000000663               0.000048413               0.999999999               0.000002468               0.000052532               0.999999999               0.000004736               0.000057682               0.999999999               0.000007519               0.000063626               0.999999999               0.000010711               0.000070198               0.999999999               0.000014172               0.000076942               0.999999999               0.000017952               0.000083960               0.999999999               0.000022068               0.000091708               0.999999999               0.000026515               0.000099979               0.999999999               0.000031281               0.000108702               0.999999999               0.000036484               0.000117965               0.999999999               0.000042204               0.000127748               0.999999999              -0.000006284               0.000055952               0.999999999              -0.000004811               0.000050762               0.999999999              -0.000003729               0.000050566               0.999999999              -0.000002485               0.000052793               0.999999999              -0.000000983               0.000056336               0.999999999               0.000000938               0.000060942               0.999999999               0.000003388               0.000066567               0.999999999               0.000006459               0.000073336               0.999999999               0.000010058               0.000081044               0.999999999               0.000014061               0.000089189               0.999999999               0.000018352               0.000097544               0.999999999               0.000022934               0.000106422               0.999999999               0.000027894               0.000116108               0.999999999               0.000033297               0.000126402               0.999999999               0.000039118               0.000137349               0.999999999               0.000045417               0.000148960               0.999999999               0.000052194               0.000161208               0.999999999              -0.000005613               0.000065814               0.999999999              -0.000005346               0.000059835               0.999999999              -0.000004380               0.000059956               0.999999999              -0.000002884               0.000062925               0.999999999              -0.000000931               0.000067530               0.999999999               0.000001546               0.000073484               0.999999999               0.000004686               0.000080716               0.999999999               0.000008526               0.000089344               0.999999999               0.000012889               0.000098719               0.999999999               0.000017597               0.000108667               0.999999999               0.000022592               0.000118969               0.999999999               0.000027957               0.000130056               0.999999999               0.000033765               0.000142175               0.999999999               0.000040057               0.000155095               0.999999999               0.000046846               0.000168733               0.999999999               0.000054159               0.000183167               0.999999999               0.000061963               0.000198408               0.999999999              -0.000004920               0.000075022               0.999999999              -0.000005831               0.000068439               0.999999999              -0.000004871               0.000068975               0.999999999              -0.000003023               0.000072759               0.999999999              -0.000000603               0.000078537               0.999999999               0.000002462               0.000085913               0.999999999               0.000006347               0.000094952               0.999999999               0.000010956               0.000105357               0.999999999               0.000015994               0.000116667               0.999999999               0.000021282               0.000128664               0.999999999               0.000026823               0.000141448               0.999999999               0.000032757               0.000155411               0.999999999               0.000039216               0.000170673               0.999999999               0.000046292               0.000186802               0.999999999               0.000054045               0.000203798               0.999999999               0.000062348               0.000221791               0.999999999               0.000071150               0.000240592               0.999999999              -0.000004131               0.000083386               0.999999999              -0.000006259               0.000076563               0.999999999              -0.000005132               0.000077581               0.999999999              -0.000002923               0.000082248               0.999999999              -0.000000063               0.000089278               0.999999999               0.000003635               0.000098266               0.999999999               0.000008253               0.000109202               0.999999999               0.000013538               0.000121556               0.999999999               0.000019039               0.000135062               0.999999999               0.000024659               0.000149660               0.999999999               0.000030525               0.000165688               0.999999999               0.000037054               0.000183157               0.999999999               0.000044309               0.000201977               0.999999999               0.000052200               0.000221865               0.999999999               0.000060699               0.000242858               0.999999999               0.000069738               0.000264858               0.999999999               0.000079161               0.000287566               0.999999999              -0.000003192               0.000091143               0.999999999              -0.000006369               0.000084809               0.999999999              -0.000005688               0.000085098               0.999999999              -0.000003841               0.000088957               0.999999999              -0.000001355               0.000095102               0.999999999               0.000001713               0.000103163               0.999999999               0.000005681               0.000112925               0.999999999               0.000010231               0.000124252               0.999999999               0.000015005               0.000136823               0.999999999               0.000019833               0.000150597               0.999999999               0.000024711               0.000165568               0.999999999               0.000029938               0.000181772               0.999999999               0.000035759               0.000199257               0.999999999               0.000042012               0.000218043               0.999999999               0.000048689               0.000237775               0.999999999               0.000056092               0.000258563               0.999999999               0.000063883               0.000280215               0.999999999              -0.000002376               0.000098097               0.999999999              -0.000006119               0.000092635               0.999999999              -0.000005954               0.000092580               0.999999999              -0.000004527               0.000095777               0.999999999              -0.000002516               0.000101213               0.999999999               0.000000034               0.000108418               0.999999999               0.000003252               0.000117262               0.999999999               0.000006976               0.000127547               0.999999999               0.000011048               0.000139212               0.999999999               0.000015321               0.000152122               0.999999999               0.000019445               0.000166190               0.999999999               0.000023558               0.000181372               0.999999999               0.000028071               0.000197715               0.999999999               0.000032951               0.000215189               0.999999999               0.000038083               0.000233748               0.999999999               0.000043663               0.000253263               0.999999999               0.000049822               0.000273623               0.999999999              -0.000001634               0.000104083               0.999999999              -0.000005553               0.000099816               0.999999999              -0.000005841               0.000099736               0.999999999              -0.000004873               0.000102508               0.999999999              -0.000003321               0.000107372               0.999999999              -0.000001353               0.000113902               0.999999999               0.000001176               0.000121954               0.999999999               0.000004136               0.000131357               0.999999999               0.000007554               0.000142174               0.999999999               0.000011149               0.000154264               0.999999999               0.000014620               0.000167529               0.999999999               0.000017971               0.000181885               0.999999999               0.000021362               0.000197317               0.999999999               0.000025022               0.000213702               0.999999999               0.000028791               0.000231074               0.999999999               0.000032705               0.000249376               0.999999999               0.000037091               0.000268544               0.999999999              -0.000001037               0.000109098               0.999999999              -0.000004759               0.000106154               0.999999999              -0.000005291               0.000106278               0.999999999              -0.000004764               0.000108826               0.999999999              -0.000003707               0.000113314               0.999999999              -0.000002235               0.000119335               0.999999999              -0.000000345               0.000126726               0.999999999               0.000001992               0.000135475               0.999999999               0.000004623               0.000145585               0.999999999               0.000007444               0.000157000               0.999999999               0.000010309               0.000169634               0.999999999               0.000012988               0.000183334               0.999999999               0.000015566               0.000197901               0.999999999               0.000018185               0.000213408               0.999999999               0.000020812               0.000229783               0.999999999               0.000023384               0.000246997               0.999999999               0.000026129               0.000265040               0.999999999              -0.000000604               0.000113059               0.999999999              -0.000003721               0.000111359               0.999999999              -0.000004365               0.000111878               0.999999999              -0.000004165               0.000114395               0.999999999              -0.000003515               0.000118619               0.999999999              -0.000002511               0.000124314               0.999999999              -0.000001142               0.000131281               0.999999999               0.000000484               0.000139593               0.999999999               0.000002359               0.000149245               0.999999999               0.000004466               0.000160109               0.999999999               0.000006669               0.000172154               0.999999999               0.000008751               0.000185232               0.999999999               0.000010670               0.000199142               0.999999999               0.000012397               0.000213915               0.999999999               0.000014054               0.000229550               0.999999999               0.000015712               0.000246053               0.999999999               0.000017275               0.000263313               0.999999999              -0.000000311               0.000115901               0.999999999              -0.000002530               0.000115251               0.999999999              -0.000003139               0.000116178               0.999999999              -0.000003073               0.000118758               0.999999999              -0.000002741               0.000122900               0.999999999              -0.000002148               0.000128355               0.999999999              -0.000001282               0.000135167               0.999999999              -0.000000297               0.000143258               0.999999999               0.000000957               0.000152496               0.999999999               0.000002396               0.000162955               0.999999999               0.000003838               0.000174567               0.999999999               0.000005227               0.000187138               0.999999999               0.000006492               0.000200602               0.999999999               0.000007565               0.000214936               0.999999999               0.000008549               0.000230125               0.999999999               0.000009499               0.000246109               0.999999999               0.000010264               0.000262868               0.999999999              -0.000000128               0.000117623               0.999999999              -0.000001277               0.000117656               0.999999999              -0.000001644               0.000118879               0.999999999              -0.000001628               0.000121571               0.999999999              -0.000001518               0.000125692               0.999999999              -0.000001208               0.000131054               0.999999999              -0.000000875               0.000137783               0.999999999              -0.000000307               0.000145744               0.999999999               0.000000317               0.000154807               0.999999999               0.000000969               0.000165010               0.999999999               0.000001673               0.000176302               0.999999999               0.000002363               0.000188592               0.999999999               0.000003030               0.000201860               0.999999999               0.000003580               0.000216013               0.999999999               0.000004034               0.000230917               0.999999999               0.000004420               0.000246580               0.999999999               0.000004659               0.000263098               0.999999999              -0.000000000               0.000118211               0.999999999               0.000000000               0.000118467               0.999999999               0.000000000               0.000119803               0.999999999              -0.000000000               0.000122567               0.999999999              -0.000000000               0.000126636               0.999999999              -0.000000000               0.000131994               0.999999999               0.000000000               0.000138708               0.999999999              -0.000000000               0.000146617               0.999999999              -0.000000000               0.000155710               0.999999999               0.000000000               0.000165789               0.999999999              -0.000000000               0.000176895               0.999999999               0.000000000               0.000189186               0.999999999               0.000000000               0.000202424               0.999999999               0.000000000               0.000216431               0.999999999              -0.000000000               0.000231234               0.999999999              -0.000000000               0.000246853               0.999999999              -0.000000000               0.000263323               0.999999999 </DataArray>
<DataArray type="Float64"                                    Name="stress"                                                      NumberOfComponents="10" format="ascii">
              0.000192711               0.002204762              -0.000000000              -0.000203328               0.000802689               0.000599361               0.000000000               0.000000000               0.000000000               0.000000000               0.000225420               0.001849937              -0.000000000              -0.000146709               0.000665543               0.000518833               0.000000000               0.000000000               0.000000000               0.000000000               0.000330304               0.001563583              -0.000000000              -0.000071584               0.000545050               0.000473467               0.000000000               0.000000000               0.000000000               0.000000000               0.000367589               0.001398575              -0.000000000              -0.000036976               0.000478512               0.000441536               0.000000000               0.000000000               0.000000000               0.000000000               0.000380587               0.001299326              -0.000000000              -0.000019695               0.000439670               0.000419974               0.000000000               0.000000000               0.000000000               0.000000000               0.000382791               0.001234971              -0.000000000              -0.000010825               0.000415261               0.000404436               0.000000000               0.000000000               0.000000000               0.000000000               0.000375813               0.001198451              -0.000000000              -0.000008876               0.000402439               0.000393562               0.000000000               0.000000000               0.000000000               0.000000000               0.000358986               0.001182999              -0.000000000              -0.000013255               0.000398747               0.000385492               0.000000000               0.000000000               0.000000000               0.000000000               0.000334106               0.001186867              -0.000000000              -0.000023068               0.000403308               0.000380239               0.000000000               0.000000000               0.000000000               0.000000000               0.000301777               0.001204002              -0.000000000              -0.000037334               0.000413774               0.000376441               0.000000000               0.000000000               0.000000000               0.000000000               0.000267952               0.001226093              -0.000000000              -0.000052780               0.000426287               0.000373507               0.000000000               0.000000000               0.000000000               0.000000000               0.000233093               0.001247476              -0.000000000              -0.000068524               0.000438663               0.000370138               0.000000000               0.000000000               0.000000000               0.000000000               0.000195099               0.001272039              -0.000000000              -0.000085843               0.000452623               0.000366781               0.000000000               0.000000000               0.000000000               0.000000000               0.000154765               0.001302617              -0.000000000              -0.000104790               0.000469131               0.000364341               0.000000000               0.000000000               0.000000000               0.000000000               0.000106175               0.001333882              -0.000000000              -0.000126919               0.000486929               0.000360010               0.000000000               0.000000000               0.000000000               0.000000000               0.000050836               0.001368027               0.000000000              -0.000151939               0.000506651               0.000354712               0.000000000               0.000000000               0.000000000               0.000000000               0.000027595               0.001398788               0.000000000              -0.000164500               0.000521091               0.000356591               0.000000000               0.000000000               0.000000000               0.000000000               0.000205432               0.002170021              -0.000172645              -0.000194215               0.000788072               0.000593856               0.000000000               0.000000000               0.000000000               0.000000000               0.000231311               0.001826062              -0.000117426              -0.000141516               0.000655853               0.000514337               0.000000000               0.000000000               0.000000000               0.000000000               0.000327510               0.001549216              -0.000061405              -0.000070836               0.000540012               0.000469176               0.000000000               0.000000000               0.000000000               0.000000000               0.000360771               0.001392736              -0.000035853              -0.000038803               0.000477175               0.000438372               0.000000000               0.000000000               0.000000000               0.000000000               0.000371205               0.001297868              -0.000024671              -0.000023032               0.000440295               0.000417264               0.000000000               0.000000000               0.000000000               0.000000000               0.000371006               0.001238632              -0.000019858              -0.000015702               0.000418107               0.000402405               0.000000000               0.000000000               0.000000000               0.000000000               0.000362906               0.001204341              -0.000016724              -0.000014453               0.000406261               0.000391808               0.000000000               0.000000000               0.000000000               0.000000000               0.000346604               0.001191212              -0.000013235              -0.000018925               0.000403375               0.000384450               0.000000000               0.000000000               0.000000000               0.000000000               0.000320964               0.001196280              -0.000010668              -0.000029174               0.000408481               0.000379307               0.000000000               0.000000000               0.000000000               0.000000000               0.000290283               0.001211355              -0.000011654              -0.000042563               0.000417968               0.000375406               0.000000000               0.000000000               0.000000000               0.000000000               0.000260083               0.001231084              -0.000016631              -0.000056354               0.000429142               0.000372788               0.000000000               0.000000000               0.000000000               0.000000000               0.000226948               0.001249576              -0.000019900              -0.000071091               0.000440218               0.000369127               0.000000000               0.000000000               0.000000000               0.000000000               0.000189025               0.001271845              -0.000017741              -0.000088096               0.000453309               0.000365213               0.000000000               0.000000000               0.000000000               0.000000000               0.000148292               0.001298743              -0.000016074              -0.000106733               0.000468488               0.000361755               0.000000000               0.000000000               0.000000000               0.000000000               0.000102697               0.001326361              -0.000014295              -0.000127283               0.000484544               0.000357260               0.000000000               0.000000000               0.000000000               0.000000000               0.000051306               0.001355800              -0.000008388              -0.000150235               0.000502007               0.000351772               0.000000000               0.000000000               0.000000000               0.000000000               0.000028414               0.001380927              -0.000005068              -0.000161960               0.000514291               0.000352331               0.000000000               0.000000000               0.000000000               0.000000000               0.000243905               0.002071831              -0.000327062              -0.000167514               0.000746442               0.000578927               0.000000000               0.000000000               0.000000000               0.000000000               0.000247725               0.001756921              -0.000223570              -0.000126718               0.000627874               0.000501156               0.000000000               0.000000000               0.000000000               0.000000000               0.000319397               0.001511778              -0.000117736              -0.000069198               0.000526987               0.000457789               0.000000000               0.000000000               0.000000000               0.000000000               0.000341942               0.001377019              -0.000070465              -0.000043899               0.000473635               0.000429736               0.000000000               0.000000000               0.000000000               0.000000000               0.000345220               0.001294599              -0.000049890              -0.000032367               0.000442318               0.000409951               0.000000000               0.000000000               0.000000000               0.000000000               0.000339951               0.001246098              -0.000040829              -0.000028280               0.000424789               0.000396508               0.000000000               0.000000000               0.000000000               0.000000000               0.000328916               0.001220771              -0.000034379              -0.000029253               0.000416670               0.000387418               0.000000000               0.000000000               0.000000000               0.000000000               0.000310901               0.001213960              -0.000026903              -0.000035157               0.000416368               0.000381211               0.000000000               0.000000000               0.000000000               0.000000000               0.000286043               0.001220724              -0.000022334              -0.000045324               0.000422012               0.000376688               0.000000000               0.000000000               0.000000000               0.000000000               0.000260432               0.001232710              -0.000024003              -0.000056427               0.000429708               0.000373281               0.000000000               0.000000000               0.000000000               0.000000000               0.000234081               0.001244902              -0.000031415              -0.000067832               0.000437574               0.000369742               0.000000000               0.000000000               0.000000000               0.000000000               0.000204984               0.001258106              -0.000034480              -0.000080394               0.000446163               0.000365768               0.000000000               0.000000000               0.000000000               0.000000000               0.000172945               0.001276064              -0.000028887              -0.000094653               0.000456901               0.000362248               0.000000000               0.000000000               0.000000000               0.000000000               0.000136019               0.001295041              -0.000025210              -0.000110873               0.000468634               0.000357761               0.000000000               0.000000000               0.000000000               0.000000000               0.000093335               0.001313091              -0.000020448              -0.000129135               0.000480738               0.000351602               0.000000000               0.000000000               0.000000000               0.000000000               0.000046471               0.001330919              -0.000010826              -0.000148938               0.000493281               0.000344343               0.000000000               0.000000000               0.000000000               0.000000000               0.000024915               0.001345084              -0.000006327              -0.000158792               0.000501287               0.000342496               0.000000000               0.000000000               0.000000000               0.000000000               0.000298019               0.001921933              -0.000452140              -0.000128484               0.000683466               0.000554981               0.000000000               0.000000000               0.000000000               0.000000000               0.000270009               0.001649864              -0.000310786              -0.000104979               0.000584942               0.000479963               0.000000000               0.000000000               0.000000000               0.000000000               0.000307842               0.001457277              -0.000166020              -0.000066719               0.000507994               0.000441275               0.000000000               0.000000000               0.000000000               0.000000000               0.000314687               0.001351659              -0.000103540              -0.000050950               0.000467532               0.000416582               0.000000000               0.000000000               0.000000000               0.000000000               0.000309074               0.001288868              -0.000076488              -0.000045206               0.000444687               0.000399481               0.000000000               0.000000000               0.000000000               0.000000000               0.000299441               0.001256191              -0.000062557              -0.000044734               0.000433637               0.000388904               0.000000000               0.000000000               0.000000000               0.000000000               0.000283205               0.001242764              -0.000052285              -0.000049144               0.000430632               0.000381488               0.000000000               0.000000000               0.000000000               0.000000000               0.000261865               0.001246156              -0.000041581              -0.000057570               0.000434571               0.000377001               0.000000000               0.000000000               0.000000000               0.000000000               0.000239382               0.001254122              -0.000034451              -0.000066997               0.000440369               0.000373372               0.000000000               0.000000000               0.000000000               0.000000000               0.000219964               0.001263502              -0.000036517              -0.000075451               0.000446314               0.000370863               0.000000000               0.000000000               0.000000000               0.000000000               0.000200574               0.001269249              -0.000043072              -0.000083441               0.000450892               0.000367452               0.000000000               0.000000000               0.000000000               0.000000000               0.000175818               0.001277533              -0.000041406              -0.000093759               0.000457093               0.000363334               0.000000000               0.000000000               0.000000000               0.000000000               0.000146997               0.001289966              -0.000031857              -0.000106122               0.000465358               0.000359237               0.000000000               0.000000000               0.000000000               0.000000000               0.000116854               0.001302699              -0.000025501              -0.000119017               0.000473901               0.000354884               0.000000000               0.000000000               0.000000000               0.000000000               0.000083094               0.001315826              -0.000017671              -0.000133318               0.000483043               0.000349726               0.000000000               0.000000000               0.000000000               0.000000000               0.000043305               0.001327596              -0.000007300              -0.000149710               0.000492431               0.000342721               0.000000000               0.000000000               0.000000000               0.000000000               0.000024674               0.001337839              -0.000004228              -0.000157977               0.000498601               0.000340624               0.000000000               0.000000000               0.000000000               0.000000000               0.000355069               0.001731929              -0.000541259              -0.000083340               0.000605084               0.000521744               0.000000000               0.000000000               0.000000000               0.000000000               0.000293025               0.001518020              -0.000374150              -0.000079868               0.000532624               0.000452756               0.000000000               0.000000000               0.000000000               0.000000000               0.000293378               0.001389754              -0.000205305              -0.000063702               0.000484481               0.000420778               0.000000000               0.000000000               0.000000000               0.000000000               0.000284910               0.001318356              -0.000134857              -0.000057953               0.000458765               0.000400812               0.000000000               0.000000000               0.000000000               0.000000000               0.000274382               0.001279505              -0.000102194              -0.000057045               0.000445512               0.000388468               0.000000000               0.000000000               0.000000000               0.000000000               0.000258572               0.001263792              -0.000084583              -0.000061009               0.000441596               0.000380587               0.000000000               0.000000000               0.000000000               0.000000000               0.000237445               0.001265360              -0.000069615              -0.000069128               0.000444825               0.000375697               0.000000000               0.000000000               0.000000000               0.000000000               0.000214774               0.001278920              -0.000055311              -0.000079324               0.000452744               0.000373419               0.000000000               0.000000000               0.000000000               0.000000000               0.000193164               0.001291034              -0.000047527              -0.000088943               0.000459988               0.000371045               0.000000000               0.000000000               0.000000000               0.000000000               0.000178021               0.001297635              -0.000048774              -0.000095446               0.000464356               0.000368910               0.000000000               0.000000000               0.000000000               0.000000000               0.000163760               0.001301946              -0.000052779              -0.000101333               0.000467755               0.000366422               0.000000000               0.000000000               0.000000000               0.000000000               0.000144673               0.001311958              -0.000045323              -0.000109742               0.000473896               0.000364153               0.000000000               0.000000000               0.000000000               0.000000000               0.000122146               0.001325294              -0.000032524              -0.000119857               0.000481712               0.000361856               0.000000000               0.000000000               0.000000000               0.000000000               0.000099665               0.001339602              -0.000024419              -0.000130075               0.000489888               0.000359812               0.000000000               0.000000000               0.000000000               0.000000000               0.000072967               0.001356100              -0.000016120              -0.000142149               0.000499412               0.000357263               0.000000000               0.000000000               0.000000000               0.000000000               0.000036951               0.001371410              -0.000006968              -0.000157569               0.000509655               0.000352086               0.000000000               0.000000000               0.000000000               0.000000000               0.000021198               0.001385333              -0.000005126              -0.000165217               0.000516846               0.000351628               0.000000000               0.000000000               0.000000000               0.000000000               0.000408499               0.001520057              -0.000589640              -0.000036821               0.000518954               0.000482133               0.000000000               0.000000000               0.000000000               0.000000000               0.000312392               0.001376954              -0.000413713              -0.000054973               0.000477304               0.000422332               0.000000000               0.000000000               0.000000000               0.000000000               0.000277441               0.001318741              -0.000237032              -0.000060802               0.000459843               0.000399041               0.000000000               0.000000000               0.000000000               0.000000000               0.000259624               0.001281808              -0.000162980              -0.000062867               0.000448221               0.000385354               0.000000000               0.000000000               0.000000000               0.000000000               0.000245816               0.001265341              -0.000126897              -0.000065986               0.000443772               0.000377785               0.000000000               0.000000000               0.000000000               0.000000000               0.000227002               0.001267010              -0.000104460              -0.000073250               0.000446749               0.000373499               0.000000000               0.000000000               0.000000000               0.000000000               0.000202938               0.001284704              -0.000084705              -0.000084486               0.000456392               0.000371906               0.000000000               0.000000000               0.000000000               0.000000000               0.000179592               0.001307509              -0.000068091              -0.000096092               0.000467862               0.000371771               0.000000000               0.000000000               0.000000000               0.000000000               0.000160015               0.001322411              -0.000060111              -0.000105295               0.000475898               0.000370602               0.000000000               0.000000000               0.000000000               0.000000000               0.000146250               0.001332067              -0.000060781              -0.000111664               0.000481239               0.000369575               0.000000000               0.000000000               0.000000000               0.000000000               0.000135436               0.001346078              -0.000059566              -0.000117471               0.000487845               0.000370374               0.000000000               0.000000000               0.000000000               0.000000000               0.000120914               0.001369119              -0.000047448              -0.000125797               0.000498301               0.000372504               0.000000000               0.000000000               0.000000000               0.000000000               0.000100131               0.001394691              -0.000034401              -0.000136787               0.000510488               0.000373701               0.000000000               0.000000000               0.000000000               0.000000000               0.000078337               0.001421903              -0.000026142              -0.000148361               0.000523417               0.000375056               0.000000000               0.000000000               0.000000000               0.000000000               0.000054486               0.001450175              -0.000017630              -0.000160839               0.000537000               0.000376161               0.000000000               0.000000000               0.000000000               0.000000000               0.000025843               0.001478222              -0.000008669              -0.000175086               0.000551098               0.000376012               0.000000000               0.000000000               0.000000000               0.000000000               0.000016103               0.001500633              -0.000007205              -0.000181540               0.000560719               0.000379179               0.000000000               0.000000000               0.000000000               0.000000000               0.000448328               0.001307324              -0.000599463               0.000004707               0.000434201               0.000438908               0.000000000               0.000000000               0.000000000               0.000000000               0.000325666               0.001237085              -0.000431828              -0.000032511               0.000423195               0.000390683               0.000000000               0.000000000               0.000000000               0.000000000               0.000261303               0.001248199              -0.000261424              -0.000058036               0.000435408               0.000377371               0.000000000               0.000000000               0.000000000               0.000000000               0.000239182               0.001244285              -0.000187146              -0.000065842               0.000436705               0.000370863               0.000000000               0.000000000               0.000000000               0.000000000               0.000225516               0.001250549              -0.000147591              -0.000071750               0.000440762               0.000369012               0.000000000               0.000000000               0.000000000               0.000000000               0.000205530               0.001269714              -0.000120019              -0.000081640               0.000450447               0.000368807               0.000000000               0.000000000               0.000000000               0.000000000               0.000181455               0.001301196              -0.000096460              -0.000094604               0.000465262               0.000370659               0.000000000               0.000000000               0.000000000               0.000000000               0.000159710               0.001329775              -0.000079492              -0.000106330               0.000478697               0.000372367               0.000000000               0.000000000               0.000000000               0.000000000               0.000145053               0.001350723              -0.000070935              -0.000114445               0.000488385               0.000373940               0.000000000               0.000000000               0.000000000               0.000000000               0.000135729               0.001374794              -0.000067199              -0.000120951               0.000498577               0.000377626               0.000000000               0.000000000               0.000000000               0.000000000               0.000125569               0.001410587              -0.000060237              -0.000129235               0.000513269               0.000384034               0.000000000               0.000000000               0.000000000               0.000000000               0.000110201               0.001457464              -0.000044088              -0.000140857               0.000532769               0.000391912               0.000000000               0.000000000               0.000000000               0.000000000               0.000089320               0.001507374              -0.000030571              -0.000154926               0.000554095               0.000399169               0.000000000               0.000000000               0.000000000               0.000000000               0.000065576               0.001555287              -0.000023593              -0.000169819               0.000575030               0.000405211               0.000000000               0.000000000               0.000000000               0.000000000               0.000041918               0.001601921              -0.000016415              -0.000184520               0.000595475               0.000410955               0.000000000               0.000000000               0.000000000               0.000000000               0.000018951               0.001648675              -0.000007911              -0.000198977               0.000615879               0.000416901               0.000000000               0.000000000               0.000000000               0.000000000               0.000013924               0.001682035              -0.000007362              -0.000205032               0.000629017               0.000423985               0.000000000               0.000000000               0.000000000               0.000000000               0.000470364               0.001101430              -0.000578498               0.000038707               0.000354237               0.000392944               0.000000000               0.000000000               0.000000000               0.000000000               0.000331331               0.001104011              -0.000432394              -0.000013753               0.000372584               0.000358831               0.000000000               0.000000000               0.000000000               0.000000000               0.000248336               0.001180769              -0.000279245              -0.000054470               0.000411742               0.000357272               0.000000000               0.000000000               0.000000000               0.000000000               0.000226417               0.001209908              -0.000205783              -0.000066332               0.000425409               0.000359077               0.000000000               0.000000000               0.000000000               0.000000000               0.000212273               0.001238538              -0.000162426              -0.000075215               0.000437914               0.000362699               0.000000000               0.000000000               0.000000000               0.000000000               0.000191283               0.001276073              -0.000130922              -0.000087778               0.000454613               0.000366835               0.000000000               0.000000000               0.000000000               0.000000000               0.000168224               0.001319875              -0.000105932              -0.000101900               0.000473921               0.000372020               0.000000000               0.000000000               0.000000000               0.000000000               0.000152180               0.001355781              -0.000087167              -0.000112405               0.000489391               0.000376986               0.000000000               0.000000000               0.000000000               0.000000000               0.000146181               0.001394449              -0.000074470              -0.000119488               0.000504641               0.000385153               0.000000000               0.000000000               0.000000000               0.000000000               0.000142521               0.001444457              -0.000063307              -0.000127111               0.000523851               0.000396740               0.000000000               0.000000000               0.000000000               0.000000000               0.000133440               0.001512638              -0.000049732              -0.000139040               0.000550554               0.000411515               0.000000000               0.000000000               0.000000000               0.000000000               0.000116636               0.001587376              -0.000032557              -0.000154683               0.000580681               0.000425998               0.000000000               0.000000000               0.000000000               0.000000000               0.000093957               0.001657705              -0.000021857              -0.000171979               0.000609889               0.000437910               0.000000000               0.000000000               0.000000000               0.000000000               0.000065654               0.001722485              -0.000017953              -0.000190690               0.000637719               0.000447029               0.000000000               0.000000000               0.000000000               0.000000000               0.000039437               0.001786855              -0.000011883              -0.000208567               0.000665135               0.000456567               0.000000000               0.000000000               0.000000000               0.000000000               0.000018335               0.001848516              -0.000005207              -0.000224188               0.000690895               0.000466707               0.000000000               0.000000000               0.000000000               0.000000000               0.000013075               0.001887895              -0.000006237              -0.000231083               0.000706320               0.000475237               0.000000000               0.000000000               0.000000000               0.000000000               0.000482882               0.000915099              -0.000534637               0.000066692               0.000282799               0.000349491               0.000000000               0.000000000               0.000000000               0.000000000               0.000338557               0.000984296              -0.000423400               0.000003921               0.000326788               0.000330709               0.000000000               0.000000000               0.000000000               0.000000000               0.000245766               0.001120702              -0.000297093              -0.000047925               0.000389539               0.000341613               0.000000000               0.000000000               0.000000000               0.000000000               0.000223435               0.001180163              -0.000223296              -0.000063732               0.000414628               0.000350896               0.000000000               0.000000000               0.000000000               0.000000000               0.000207641               0.001228884              -0.000175873              -0.000075745               0.000434872               0.000359127               0.000000000               0.000000000               0.000000000               0.000000000               0.000185650               0.001285180              -0.000142519              -0.000091029               0.000458732               0.000367703               0.000000000               0.000000000               0.000000000               0.000000000               0.000165925               0.001339909              -0.000116452              -0.000105267               0.000481721               0.000376454               0.000000000               0.000000000               0.000000000               0.000000000               0.000156689               0.001390483              -0.000093641              -0.000115052               0.000501840               0.000386789               0.000000000               0.000000000               0.000000000               0.000000000               0.000157695               0.001448963              -0.000072549              -0.000121984               0.000523644               0.000401660               0.000000000               0.000000000               0.000000000               0.000000000               0.000161142               0.001527830              -0.000053131              -0.000130550               0.000552788               0.000422238               0.000000000               0.000000000               0.000000000               0.000000000               0.000153968               0.001619333              -0.000036595              -0.000144678               0.000587998               0.000443320               0.000000000               0.000000000               0.000000000               0.000000000               0.000134721               0.001706834              -0.000024232              -0.000162834               0.000623217               0.000460383               0.000000000               0.000000000               0.000000000               0.000000000               0.000113312               0.001786833              -0.000016041              -0.000180862               0.000655892               0.000475030               0.000000000               0.000000000               0.000000000               0.000000000               0.000089309               0.001863703              -0.000010638              -0.000199472               0.000687719               0.000488247               0.000000000               0.000000000               0.000000000               0.000000000               0.000064244               0.001937743              -0.000004896              -0.000218126               0.000718617               0.000500491               0.000000000               0.000000000               0.000000000               0.000000000               0.000045393               0.002004840              -0.000001055              -0.000233582               0.000746134               0.000512552               0.000000000               0.000000000               0.000000000               0.000000000               0.000035320               0.002038057               0.000000103              -0.000241512               0.000759849               0.000518338               0.000000000               0.000000000               0.000000000               0.000000000               0.000477368               0.000730436              -0.000477327               0.000087707               0.000214240               0.000301947               0.000000000               0.000000000               0.000000000               0.000000000               0.000348532               0.000843698              -0.000410254               0.000025237               0.000272817               0.000298054               0.000000000               0.000000000               0.000000000               0.000000000               0.000253478               0.001024145              -0.000319003              -0.000032964               0.000352366               0.000319402               0.000000000               0.000000000               0.000000000               0.000000000               0.000228115               0.001114078              -0.000247613              -0.000053717               0.000389261               0.000335545               0.000000000               0.000000000               0.000000000               0.000000000               0.000213679               0.001183313              -0.000197226              -0.000067784               0.000417029               0.000349244               0.000000000               0.000000000               0.000000000               0.000000000               0.000195236               0.001252577              -0.000163221              -0.000083359               0.000445308               0.000361949               0.000000000               0.000000000               0.000000000               0.000000000               0.000176333               0.001320690              -0.000136409              -0.000098961               0.000473213               0.000374251               0.000000000               0.000000000               0.000000000               0.000000000               0.000165328               0.001388226              -0.000109234              -0.000111530               0.000499914               0.000388384               0.000000000               0.000000000               0.000000000               0.000000000               0.000168395               0.001464581              -0.000084867              -0.000119924               0.000528164               0.000408239               0.000000000               0.000000000               0.000000000               0.000000000               0.000181012               0.001555925              -0.000063541              -0.000126611               0.000560840               0.000434229               0.000000000               0.000000000               0.000000000               0.000000000               0.000185288               0.001649526              -0.000045325              -0.000136707               0.000595406               0.000458698               0.000000000               0.000000000               0.000000000               0.000000000               0.000175063               0.001740505              -0.000033277              -0.000151914               0.000630800               0.000478886               0.000000000               0.000000000               0.000000000               0.000000000               0.000160567               0.001832376              -0.000023147              -0.000168834               0.000667064               0.000498230               0.000000000               0.000000000               0.000000000               0.000000000               0.000141668               0.001914711              -0.000012282              -0.000186213               0.000700302               0.000514089               0.000000000               0.000000000               0.000000000               0.000000000               0.000118777               0.001989972              -0.000006979              -0.000204204               0.000731386               0.000527181               0.000000000               0.000000000               0.000000000               0.000000000               0.000098030               0.002061047              -0.000004311              -0.000220869               0.000760632               0.000539763               0.000000000               0.000000000               0.000000000               0.000000000               0.000081565               0.002087914               0.000000857              -0.000230402               0.000772765               0.000542363               0.000000000               0.000000000               0.000000000               0.000000000               0.000448756               0.000554677              -0.000407781               0.000098948               0.000151908               0.000250856               0.000000000               0.000000000               0.000000000               0.000000000               0.000355482               0.000700092              -0.000384893               0.000045793               0.000218097               0.000263890               0.000000000               0.000000000               0.000000000               0.000000000               0.000270468               0.000911095              -0.000332108              -0.000012462               0.000307849               0.000295388               0.000000000               0.000000000               0.000000000               0.000000000               0.000244192               0.001031507              -0.000269432              -0.000037366               0.000356288               0.000318921               0.000000000               0.000000000               0.000000000               0.000000000               0.000230025               0.001121081              -0.000219947              -0.000053876               0.000391649               0.000337773               0.000000000               0.000000000               0.000000000               0.000000000               0.000214944               0.001203171              -0.000184887              -0.000069792               0.000424317               0.000354525               0.000000000               0.000000000               0.000000000               0.000000000               0.000197154               0.001282988              -0.000156639              -0.000086441               0.000456472               0.000370031               0.000000000               0.000000000               0.000000000               0.000000000               0.000186241               0.001364119              -0.000129703              -0.000100674               0.000488260               0.000387586               0.000000000               0.000000000               0.000000000               0.000000000               0.000192242               0.001455749              -0.000107543              -0.000109878               0.000521871               0.000411993               0.000000000               0.000000000               0.000000000               0.000000000               0.000208473               0.001552038              -0.000084276              -0.000115827               0.000555950               0.000440123               0.000000000               0.000000000               0.000000000               0.000000000               0.000222138               0.001648242              -0.000060832              -0.000122728               0.000590318               0.000467590               0.000000000               0.000000000               0.000000000               0.000000000               0.000224393               0.001743697              -0.000045588              -0.000133814               0.000625831               0.000492017               0.000000000               0.000000000               0.000000000               0.000000000               0.000216376               0.001836419              -0.000034692              -0.000148411               0.000661604               0.000513193               0.000000000               0.000000000               0.000000000               0.000000000               0.000204446               0.001921237              -0.000021057              -0.000163487               0.000694901               0.000531414               0.000000000               0.000000000               0.000000000               0.000000000               0.000187002               0.001999246              -0.000010077              -0.000179780               0.000726335               0.000546555               0.000000000               0.000000000               0.000000000               0.000000000               0.000161051               0.002066346              -0.000004494              -0.000197899               0.000754741               0.000556843               0.000000000               0.000000000               0.000000000               0.000000000               0.000139147               0.002090656               0.000000412              -0.000209151               0.000766595               0.000557444               0.000000000               0.000000000               0.000000000               0.000000000               0.000399190               0.000401433              -0.000328011               0.000099516               0.000100637               0.000200153               0.000000000               0.000000000               0.000000000               0.000000000               0.000349382               0.000561719              -0.000342129               0.000060803               0.000166970               0.000227773               0.000000000               0.000000000               0.000000000               0.000000000               0.000291287               0.000786577              -0.000325583               0.000010910               0.000258553               0.000269463               0.000000000               0.000000000               0.000000000               0.000000000               0.000267944               0.000931411              -0.000276469              -0.000015948               0.000315783               0.000299835               0.000000000               0.000000000               0.000000000               0.000000000               0.000254194               0.001040911              -0.000231734              -0.000034791               0.000358564               0.000323773               0.000000000               0.000000000               0.000000000               0.000000000               0.000241513               0.001136985              -0.000198005              -0.000051556               0.000396176               0.000344621               0.000000000               0.000000000               0.000000000               0.000000000               0.000228257               0.001227932              -0.000171060              -0.000067895               0.000431938               0.000364043               0.000000000               0.000000000               0.000000000               0.000000000               0.000223184               0.001326167              -0.000148763              -0.000082077               0.000469410               0.000387333               0.000000000               0.000000000               0.000000000               0.000000000               0.000226797               0.001431953              -0.000128190              -0.000093945               0.000508628               0.000414683               0.000000000               0.000000000               0.000000000               0.000000000               0.000237679               0.001537435              -0.000104102              -0.000103049               0.000546823               0.000443774               0.000000000               0.000000000               0.000000000               0.000000000               0.000255359               0.001642252              -0.000079775              -0.000109521               0.000583919               0.000474398               0.000000000               0.000000000               0.000000000               0.000000000               0.000268290               0.001742247              -0.000060460              -0.000117172               0.000619801               0.000502629               0.000000000               0.000000000               0.000000000               0.000000000               0.000268514               0.001831941              -0.000046342              -0.000128299               0.000653407               0.000525108               0.000000000               0.000000000               0.000000000               0.000000000               0.000261646               0.001915487              -0.000031868              -0.000141318               0.000685595               0.000544277               0.000000000               0.000000000               0.000000000               0.000000000               0.000250110               0.001994448              -0.000015152              -0.000155514               0.000716647               0.000561133               0.000000000               0.000000000               0.000000000               0.000000000               0.000229678               0.002064965              -0.000004621              -0.000171991               0.000745645               0.000573654               0.000000000               0.000000000               0.000000000               0.000000000               0.000207027               0.002091302               0.000001571              -0.000183777               0.000758353               0.000574576               0.000000000               0.000000000               0.000000000               0.000000000               0.000331716               0.000277273              -0.000245691               0.000089733               0.000062512               0.000152246               0.000000000               0.000000000               0.000000000               0.000000000               0.000332025               0.000435358              -0.000285932               0.000070089               0.000121755               0.000191844               0.000000000               0.000000000               0.000000000               0.000000000               0.000309817               0.000658770              -0.000297652               0.000033834               0.000208310               0.000242144               0.000000000               0.000000000               0.000000000               0.000000000               0.000296411               0.000821250              -0.000263062               0.000008497               0.000270915               0.000279412               0.000000000               0.000000000               0.000000000               0.000000000               0.000285345               0.000948321              -0.000226851              -0.000011536               0.000319949               0.000308413               0.000000000               0.000000000               0.000000000               0.000000000               0.000276366               0.001057186              -0.000198490              -0.000028511               0.000361895               0.000333384               0.000000000               0.000000000               0.000000000               0.000000000               0.000268798               0.001163683              -0.000176022              -0.000044661               0.000402778               0.000358116               0.000000000               0.000000000               0.000000000               0.000000000               0.000265941               0.001279101              -0.000156977              -0.000060160               0.000446416               0.000386256               0.000000000               0.000000000               0.000000000               0.000000000               0.000266479               0.001397614              -0.000138042              -0.000074772               0.000490791               0.000416019               0.000000000               0.000000000               0.000000000               0.000000000               0.000274747               0.001514874              -0.000118117              -0.000086329               0.000533729               0.000447400               0.000000000               0.000000000               0.000000000               0.000000000               0.000291116               0.001627061              -0.000095770              -0.000094214               0.000573753               0.000479539               0.000000000               0.000000000               0.000000000               0.000000000               0.000305111               0.001723648              -0.000073615              -0.000101039               0.000608223               0.000507184               0.000000000               0.000000000               0.000000000               0.000000000               0.000312053               0.001810814              -0.000055297              -0.000109332               0.000640042               0.000530711               0.000000000               0.000000000               0.000000000               0.000000000               0.000311373               0.001895899              -0.000038415              -0.000120222               0.000672034               0.000551812               0.000000000               0.000000000               0.000000000               0.000000000               0.000307298               0.001976941              -0.000020775              -0.000131881               0.000702934               0.000571053               0.000000000               0.000000000               0.000000000               0.000000000               0.000300220               0.002054555              -0.000007160              -0.000144236               0.000732923               0.000588687               0.000000000               0.000000000               0.000000000               0.000000000               0.000285353               0.002085816               0.000000911              -0.000153719               0.000746505               0.000592786               0.000000000               0.000000000               0.000000000               0.000000000               0.000256876               0.000180782              -0.000169069               0.000073730               0.000035683               0.000109413               0.000000000               0.000000000               0.000000000               0.000000000               0.000308253               0.000328479              -0.000219425               0.000074534               0.000084647               0.000159181               0.000000000               0.000000000               0.000000000               0.000000000               0.000322120               0.000539451              -0.000246525               0.000053363               0.000162028               0.000215390               0.000000000               0.000000000               0.000000000               0.000000000               0.000324779               0.000710483              -0.000226764               0.000032981               0.000225832               0.000258813               0.000000000               0.000000000               0.000000000               0.000000000               0.000321289               0.000852120              -0.000200977               0.000013968               0.000279381               0.000293349               0.000000000               0.000000000               0.000000000               0.000000000               0.000315640               0.000975657              -0.000179833              -0.000003592               0.000326413               0.000322821               0.000000000               0.000000000               0.000000000               0.000000000               0.000312555               0.001099727              -0.000162918              -0.000020258               0.000373325               0.000353067               0.000000000               0.000000000               0.000000000               0.000000000               0.000310124               0.001228307              -0.000147312              -0.000037242               0.000421846               0.000384604               0.000000000               0.000000000               0.000000000               0.000000000               0.000312015               0.001354284              -0.000133169              -0.000052280               0.000468850               0.000416570               0.000000000               0.000000000               0.000000000               0.000000000               0.000318977               0.001477036              -0.000118099              -0.000065013               0.000514011               0.000448998               0.000000000               0.000000000               0.000000000               0.000000000               0.000328291               0.001591003              -0.000098657              -0.000075766               0.000555584               0.000479818               0.000000000               0.000000000               0.000000000               0.000000000               0.000338046               0.001687771              -0.000077198              -0.000084204               0.000590653               0.000506449               0.000000000               0.000000000               0.000000000               0.000000000               0.000347369               0.001778052              -0.000057044              -0.000091993               0.000623342               0.000531350               0.000000000               0.000000000               0.000000000               0.000000000               0.000354867               0.001869568              -0.000039473              -0.000100621               0.000656723               0.000556103               0.000000000               0.000000000               0.000000000               0.000000000               0.000362184               0.001960753              -0.000025939              -0.000109275               0.000690003               0.000580728               0.000000000               0.000000000               0.000000000               0.000000000               0.000368953               0.002047518              -0.000013233              -0.000117582               0.000721693               0.000604111               0.000000000               0.000000000               0.000000000               0.000000000               0.000364712               0.002084370              -0.000004603              -0.000123779               0.000736043               0.000612264               0.000000000               0.000000000               0.000000000               0.000000000               0.000187761               0.000116393              -0.000103453               0.000055861               0.000020177               0.000076038               0.000000000               0.000000000               0.000000000               0.000000000               0.000280772               0.000247901              -0.000147125               0.000074301               0.000057866               0.000132167               0.000000000               0.000000000               0.000000000               0.000000000               0.000330131               0.000441235              -0.000176007               0.000068644               0.000124196               0.000192840               0.000000000               0.000000000               0.000000000               0.000000000               0.000348447               0.000615677              -0.000167588               0.000053707               0.000187321               0.000241029               0.000000000               0.000000000               0.000000000               0.000000000               0.000353044               0.000766009              -0.000151750               0.000036640               0.000243120               0.000279761               0.000000000               0.000000000               0.000000000               0.000000000               0.000353929               0.000905190              -0.000138097               0.000019574               0.000295202               0.000314777               0.000000000               0.000000000               0.000000000               0.000000000               0.000353555               0.001044723              -0.000126628               0.000001992               0.000347573               0.000349566               0.000000000               0.000000000               0.000000000               0.000000000               0.000355032               0.001176294              -0.000117271              -0.000013900               0.000396727               0.000382827               0.000000000               0.000000000               0.000000000               0.000000000               0.000356339               0.001303847              -0.000108333              -0.000029354               0.000444396               0.000415042               0.000000000               0.000000000               0.000000000               0.000000000               0.000358518               0.001431092              -0.000096254              -0.000044442               0.000491840               0.000447398               0.000000000               0.000000000               0.000000000               0.000000000               0.000361253               0.001546230              -0.000081059              -0.000057809               0.000534674               0.000476866               0.000000000               0.000000000               0.000000000               0.000000000               0.000367182               0.001649324              -0.000065241              -0.000068472               0.000572593               0.000504121               0.000000000               0.000000000               0.000000000               0.000000000               0.000379078               0.001749998              -0.000049798              -0.000076595               0.000608859               0.000532264               0.000000000               0.000000000               0.000000000               0.000000000               0.000394672               0.001849459              -0.000036593              -0.000083180               0.000644207               0.000561027               0.000000000               0.000000000               0.000000000               0.000000000               0.000410366               0.001945083              -0.000026699              -0.000089248               0.000678104               0.000588856               0.000000000               0.000000000               0.000000000               0.000000000               0.000425307               0.002037516              -0.000015269              -0.000095199               0.000710898               0.000615699               0.000000000               0.000000000               0.000000000               0.000000000               0.000429527               0.002081155              -0.000007674              -0.000099071               0.000726735               0.000627664               0.000000000               0.000000000               0.000000000               0.000000000               0.000138726               0.000079718              -0.000048835               0.000042057               0.000012553               0.000054611               0.000000000               0.000000000               0.000000000               0.000000000               0.000258541               0.000196878              -0.000073395               0.000072343               0.000041511               0.000113854               0.000000000               0.000000000               0.000000000               0.000000000               0.000335998               0.000378168              -0.000091854               0.000078728               0.000099812               0.000178540               0.000000000               0.000000000               0.000000000               0.000000000               0.000363472               0.000551534              -0.000089459               0.000067360               0.000161390               0.000228749               0.000000000               0.000000000               0.000000000               0.000000000               0.000375195               0.000705859              -0.000081878               0.000052465               0.000217796               0.000270261               0.000000000               0.000000000               0.000000000               0.000000000               0.000381962               0.000856009              -0.000074891               0.000036234               0.000273255               0.000309490               0.000000000               0.000000000               0.000000000               0.000000000               0.000386313               0.001004227              -0.000069849               0.000019339               0.000328293               0.000347632               0.000000000               0.000000000               0.000000000               0.000000000               0.000387366               0.001138000              -0.000066386               0.000003012               0.000378326               0.000381338               0.000000000               0.000000000               0.000000000               0.000000000               0.000385397               0.001265157              -0.000061132              -0.000013621               0.000426255               0.000412634               0.000000000               0.000000000               0.000000000               0.000000000               0.000384039               0.001390274              -0.000053861              -0.000029770               0.000473343               0.000443574               0.000000000               0.000000000               0.000000000               0.000000000               0.000386495               0.001510697              -0.000045593              -0.000043901               0.000518194               0.000474293               0.000000000               0.000000000               0.000000000               0.000000000               0.000393799               0.001626044              -0.000038695              -0.000055581               0.000560536               0.000504956               0.000000000               0.000000000               0.000000000               0.000000000               0.000405865               0.001734264              -0.000031388              -0.000064584               0.000599610               0.000535026               0.000000000               0.000000000               0.000000000               0.000000000               0.000421698               0.001833226              -0.000023348              -0.000071016               0.000634741               0.000563725               0.000000000               0.000000000               0.000000000               0.000000000               0.000440266               0.001927981              -0.000016752              -0.000075898               0.000667953               0.000592055               0.000000000               0.000000000               0.000000000               0.000000000               0.000463560               0.002028325              -0.000009686              -0.000079705               0.000702670               0.000622965               0.000000000               0.000000000               0.000000000               0.000000000               0.000476173               0.002079903              -0.000005398              -0.000081423               0.000720435               0.000639012               0.000000000               0.000000000               0.000000000               0.000000000               0.000120979               0.000066988               0.000000000               0.000036993               0.000009998               0.000046991               0.000000000               0.000000000               0.000000000               0.000000000               0.000250135               0.000179213               0.000000000               0.000071398               0.000035938               0.000107336               0.000000000               0.000000000               0.000000000               0.000000000               0.000338202               0.000357211              -0.000000000               0.000082173               0.000091678               0.000173852               0.000000000               0.000000000               0.000000000               0.000000000               0.000368409               0.000527828              -0.000000000               0.000072174               0.000151883               0.000224057               0.000000000               0.000000000               0.000000000               0.000000000               0.000383466               0.000683611              -0.000000000               0.000058348               0.000208419               0.000266766               0.000000000               0.000000000               0.000000000               0.000000000               0.000391989               0.000838630               0.000000000               0.000042167               0.000265485               0.000307652               0.000000000               0.000000000               0.000000000               0.000000000               0.000400124               0.000989481               0.000000000               0.000026361               0.000321037               0.000347398               0.000000000               0.000000000               0.000000000               0.000000000               0.000397767               0.001125359              -0.000000000               0.000008493               0.000372285               0.000380778               0.000000000               0.000000000               0.000000000               0.000000000               0.000394095               0.001251007               0.000000000              -0.000008590               0.000419862               0.000411271               0.000000000               0.000000000               0.000000000               0.000000000               0.000393096               0.001371214               0.000000000              -0.000023991               0.000465064               0.000441073               0.000000000               0.000000000               0.000000000               0.000000000               0.000397961               0.001498385               0.000000000              -0.000038062               0.000512144               0.000474082               0.000000000               0.000000000               0.000000000               0.000000000               0.000406764               0.001621724               0.000000000              -0.000050179               0.000557296               0.000507117               0.000000000               0.000000000               0.000000000               0.000000000               0.000415384               0.001726726              -0.000000000              -0.000060072               0.000595594               0.000535522               0.000000000               0.000000000               0.000000000               0.000000000               0.000429167               0.001823249              -0.000000000              -0.000066968               0.000630066               0.000563098               0.000000000               0.000000000               0.000000000               0.000000000               0.000450064               0.001921643              -0.000000000              -0.000071431               0.000664352               0.000592920               0.000000000               0.000000000               0.000000000               0.000000000               0.000478291               0.002026760               0.000000000              -0.000073986               0.000700242               0.000626256               0.000000000               0.000000000               0.000000000               0.000000000               0.000494993               0.002080964              -0.000000000              -0.000074498               0.000718480               0.000643982               0.000000000               0.000000000               0.000000000               0.000000000               0.000000000               0.000000000               0.000000000               0.000000000               0.000000000               0.000000000               0.000000000               0.000000000               0.000000000               0.000000000               0.000000000               0.000000000               0.000000000               0.000000000               0.000000000               0.000000000               0.000000000               0.000000000               0.000000000               0.000000000               0.000000000               0.000000000               0.000000000               0.000000000               0.000000000               0.000000000               0.000000000               0.000000000               0.000000000               0.000000000               0.000000000               0.000000000               0.000000000               0.000000000               0.000000000               0.000000000               0.000000000               0.000000000               0.000000000               0.000000000               0.000000000               0.000000000               0.000000000               0.000000000               0.000000000               0.000000000               0.000000000               0.000000000               0.000000000               0.000000000               0.000000000               0.000000000               0.000000000               0.000000000               0.000000000               0.000000000               0.000000000               0.000000000               0.000000000               0.000000000               0.000000000               0.000000000               0.000000000               0.000000000               0.000000000               0.000000000               0.000000000               0.000000000               0.000000000               0.000000000               0.000000000               0.000000000               0.000000000               0.000000000               0.000000000               0.000000000               0.000000000               0.000000000               0.000000000               0.000000000               0.000000000               0.000000000               0.000000000               0.000000000               0.000000000               0.000000000               0.000000000               0.000000000               0.000000000               0.000000000               0.000000000               0.000000000               0.000000000               0.000000000               0.000000000               0.000000000               0.000000000               0.000000000               0.000000000               0.000000000               0.000000000               0.000000000               0.000000000               0.000000000               0.000000000               0.000000000               0.000000000               0.000000000               0.000000000               0.000000000               0.000000000               0.000000000               0.000000000               0.000000000               0.000000000               0.000000000               0.000000000               0.000000000               0.000000000               0.000000000               0.000000000               0.000000000               0.000000000               0.000000000               0.000000000               0.000000000               0.000000000               0.000000000               0.000000000               0.000000000               0.000000000               0.000000000               0.000000000               0.000000000               0.000000000               0.000000000               0.000000000               0.000000000               0.000000000               0.000000000               0.000000000               0.000000000               0.000000000               0.000000000               0.000000000               0.000000000               0.000000000               0.000000000               0.000000000               0.000000000               0.000000000               0.000000000               0.000000000               0.000000000               0.000000000               0.000000000               0.000000000               0.000000000               0.000000000               0.000000000               0.000000000               0.000000000               0.000000000               0.000000000               0.000000000               0.000000000               0.000000000               0.000000000               0.000000000               0.000000000               0.000205432               0.002170021               0.000172645              -0.000194215               0.000788072               0.000593856               0.000000000               0.000000000               0.000000000               0.000000000               0.000231311               0.001826062               0.000117426              -0.000141516               0.000655853               0.000514337               0.000000000               0.000000000               0.000000000               0.000000000               0.000327510               0.001549216               0.000061405              -0.000070836               0.000540012               0.000469176               0.000000000               0.000000000               0.000000000               0.000000000               0.000360771               0.001392736               0.000035853              -0.000038803               0.000477175               0.000438372               0.000000000               0.000000000               0.000000000               0.000000000               0.000371205               0.001297868               0.000024671              -0.000023032               0.000440295               0.000417264               0.000000000               0.000000000               0.000000000               0.000000000               0.000371006               0.001238632               0.000019858              -0.000015702               0.000418107               0.000402405               0.000000000               0.000000000               0.000000000               0.000000000               0.000362906               0.001204341               0.000016724              -0.000014453               0.000406261               0.000391808               0.000000000               0.000000000               0.000000000               0.000000000               0.000346604               0.001191212               0.000013235              -0.000018925               0.000403375               0.000384450               0.000000000               0.000000000               0.000000000               0.000000000               0.000320964               0.001196280               0.000010668              -0.000029174               0.000408481               0.000379307               0.000000000               0.000000000               0.000000000               0.000000000               0.000290283               0.001211355               0.000011654              -0.000042563               0.000417968               0.000375406               0.000000000               0.000000000               0.000000000               0.000000000               0.000260083               0.001231084               0.000016631              -0.000056354               0.000429142               0.000372788               0.000000000               0.000000000               0.000000000               0.000000000               0.000226948               0.001249576               0.000019900              -0.000071091               0.000440218               0.000369127               0.000000000               0.000000000               0.000000000               0.000000000               0.000189025               0.001271845               0.000017741              -0.000088096               0.000453309               0.000365213               0.000000000               0.000000000               0.000000000               0.000000000               0.000148292               0.001298743               0.000016074              -0.000106733               0.000468488               0.000361755               0.000000000               0.000000000               0.000000000               0.000000000               0.000102697               0.001326361               0.000014295              -0.000127283               0.000484544               0.000357260               0.000000000               0.000000000               0.000000000               0.000000000               0.000051306               0.001355800               0.000008388              -0.000150235               0.000502007               0.000351772               0.000000000               0.000000000               0.000000000               0.000000000               0.000028414               0.001380927               0.000005068              -0.000161960               0.000514291               0.000352331               0.000000000               0.000000000               0.000000000               0.000000000               0.000243905               0.002071831               0.000327062              -0.000167514               0.000746442               0.000578927               0.000000000               0.000000000               0.000000000               0.000000000               0.000247725               0.001756921               0.000223570              -0.000126718               0.000627874               0.000501156               0.000000000               0.000000000               0.000000000               0.000000000               0.000319397               0.001511778               0.000117736              -0.000069198               0.000526987               0.000457789               0.000000000               0.000000000               0.000000000               0.000000000               0.000341942               0.001377019               0.000070465              -0.000043899               0.000473635               0.000429736               0.000000000               0.000000000               0.000000000               0.000000000               0.000345220               0.001294599               0.000049890              -0.000032367               0.000442318               0.000409951               0.000000000               0.000000000               0.000000000               0.000000000               0.000339951               0.001246098               0.000040829              -0.000028280               0.000424789               0.000396508               0.000000000               0.000000000               0.000000000               0.000000000               0.000328916               0.001220771               0.000034379              -0.000029253               0.000416670               0.000387418               0.000000000               0.000000000               0.000000000               0.000000000               0.000310901               0.001213960               0.000026903              -0.000035157               0.000416368               0.000381211               0.000000000               0.000000000               0.000000000               0.000000000               0.000286043               0.001220724               0.000022334              -0.000045324               0.000422012               0.000376688               0.000000000               0.000000000               0.000000000               0.000000000               0.000260432               0.001232710               0.000024003              -0.000056427               0.000429708               0.000373281               0.000000000               0.000000000               0.000000000               0.000000000               0.000234081               0.001244902               0.000031415              -0.000067832               0.000437574               0.000369742               0.000000000               0.000000000               0.000000000               0.000000000               0.000204984               0.001258106               0.000034480              -0.000080394               0.000446163               0.000365768               0.000000000               0.000000000               0.000000000               0.000000000               0.000172945               0.001276064               0.000028887              -0.000094653               0.000456901               0.000362248               0.000000000               0.000000000               0.000000000               0.000000000               0.000136019               0.001295041               0.000025210              -0.000110873               0.000468634               0.000357761               0.000000000               0.000000000               0.000000000               0.000000000               0.000093335               0.001313091               0.000020448              -0.000129135               0.000480738               0.000351602               0.000000000               0.000000000               0.000000000               0.000000000               0.000046471               0.001330919               0.000010826              -0.000148938               0.000493281               0.000344343               0.000000000               0.000000000               0.000000000               0.000000000               0.000024915               0.001345084               0.000006327              -0.000158792               0.000501287               0.000342496               0.000000000               0.000000000               0.000000000               0.000000000               0.000298019               0.001921933               0.000452140              -0.000128484               0.000683466               0.000554981               0.000000000               0.000000000               0.000000000               0.000000000               0.000270009               0.001649864               0.000310786              -0.000104979               0.000584942               0.000479963               0.000000000               0.000000000               0.000000000               0.000000000               0.000307842               0.001457277               0.000166020              -0.000066719               0.000507994               0.000441275               0.000000000               0.000000000               0.000000000               0.000000000               0.000314687               0.001351659               0.000103540              -0.000050950               0.000467532               0.000416582               0.000000000               0.000000000               0.000000000               0.000000000               0.000309074               0.001288868               0.000076488              -0.000045206               0.000444687               0.000399481               0.000000000               0.000000000               0.000000000               0.000000000               0.000299441               0.001256191               0.000062557              -0.000044734               0.000433637               0.000388904               0.000000000               0.000000000               0.000000000               0.000000000               0.000283205               0.001242764               0.000052285              -0.000049144               0.000430632               0.000381488               0.000000000               0.000000000               0.000000000               0.000000000               0.000261865               0.001246156               0.000041581              -0.000057570               0.000434571               0.000377001               0.000000000               0.000000000               0.000000000               0.000000000               0.000239382               0.001254122               0.000034451              -0.000066997               0.000440369               0.000373372               0.000000000               0.000000000               0.000000000               0.000000000               0.000219964               0.001263502               0.000036517              -0.000075451               0.000446314               0.000370863               0.000000000               0.000000000               0.000000000               0.000000000               0.000200574               0.001269249               0.000043072              -0.000083441               0.000450892               0.000367452               0.000000000               0.000000000               0.000000000               0.000000000               0.000175818               0.001277533               0.000041406              -0.000093759               0.000457093               0.000363334               0.000000000               0.000000000               0.000000000               0.000000000               0.000146997               0.001289966               0.000031857              -0.000106122               0.000465358               0.000359237               0.000000000               0.000000000               0.000000000               0.000000000               0.000116854               0.001302699               0.000025501              -0.000119017               0.000473901               0.000354884               0.000000000               0.000000000               0.000000000               0.000000000               0.000083094               0.001315826               0.000017671              -0.000133318               0.000483043               0.000349726               0.000000000               0.000000000               0.000000000               0.000000000               0.000043305               0.001327596               0.000007300              -0.000149710               0.000492431               0.000342721               0.000000000               0.000000000               0.000000000               0.000000000               0.000024674               0.001337839               0.000004228              -0.000157977               0.000498601               0.000340624               0.000000000               0.000000000               0.000000000               0.000000000               0.000355069               0.001731929               0.000541259              -0.000083340               0.000605084               0.000521744               0.000000000               0.000000000               0.000000000               0.000000000               0.000293025               0.001518020               0.000374150              -0.000079868               0.000532624               0.000452756               0.000000000               0.000000000               0.000000000               0.000000000               0.000293378               0.001389754               0.000205305              -0.000063702               0.000484481               0.000420778               0.000000000               0.000000000               0.000000000               0.000000000               0.000284910               0.001318356               0.000134857              -0.000057953               0.000458765               0.000400812               0.000000000               0.000000000               0.000000000               0.000000000               0.000274382               0.001279505               0.000102194              -0.000057045               0.000445512               0.000388468               0.000000000               0.000000000               0.000000000               0.000000000               0.000258572               0.001263792               0.000084583              -0.000061009               0.000441596               0.000380587               0.000000000               0.000000000               0.000000000               0.000000000               0.000237445               0.001265360               0.000069615              -0.000069128               0.000444825               0.000375697               0.000000000               0.000000000               0.000000000               0.000000000               0.000214774               0.001278920               0.000055311              -0.000079324               0.000452744               0.000373419               0.000000000               0.000000000               0.000000000               0.000000000               0.000193164               0.001291034               0.000047527              -0.000088943               0.000459988               0.000371045               0.000000000               0.000000000               0.000000000               0.000000000               0.000178021               0.001297635               0.000048774              -0.000095446               0.000464356               0.000368910               0.000000000               0.000000000               0.000000000               0.000000000               0.000163760               0.001301946               0.000052779              -0.000101333               0.000467755               0.000366422               0.000000000               0.000000000               0.000000000               0.000000000               0.000144673               0.001311958               0.000045323              -0.000109742               0.000473896               0.000364153               0.000000000               0.000000000               0.000000000               0.000000000               0.000122146               0.001325294               0.000032524              -0.000119857               0.000481712               0.000361856               0.000000000               0.000000000               0.000000000               0.000000000               0.000099665               0.001339602               0.000024419              -0.000130075               0.000489888               0.000359812               0.000000000               0.000000000               0.000000000               0.000000000               0.000072967               0.001356100               0.000016120              -0.000142149               0.000499412               0.000357263               0.000000000               0.000000000               0.000000000               0.000000000               0.000036951               0.001371410               0.000006968              -0.000157569               0.000509655               0.000352086               0.000000000               0.000000000               0.000000000               0.000000000               0.000021198               0.001385333               0.000005126              -0.000165217               0.000516846               0.000351628               0.000000000               0.000000000               0.000000000               0.000000000               0.000408499               0.001520057               0.000589640              -0.000036821               0.000518954               0.000482133               0.000000000               0.000000000               0.000000000               0.000000000               0.000312392               0.001376954               0.000413713              -0.000054973               0.000477304               0.000422332               0.000000000               0.000000000               0.000000000               0.000000000               0.000277441               0.001318741               0.000237032              -0.000060802               0.000459843               0.000399041               0.000000000               0.000000000               0.000000000               0.000000000               0.000259624               0.001281808               0.000162980              -0.000062867               0.000448221               0.000385354               0.000000000               0.000000000               0.000000000               0.000000000               0.000245816               0.001265341               0.000126897              -0.000065986               0.000443772               0.000377785               0.000000000               0.000000000               0.000000000               0.000000000               0.000227002               0.001267010               0.000104460              -0.000073250               0.000446749               0.000373499               0.000000000               0.000000000               0.000000000               0.000000000               0.000202938               0.001284704               0.000084705              -0.000084486               0.000456392               0.000371906               0.000000000               0.000000000               0.000000000               0.000000000               0.000179592               0.001307509               0.000068091              -0.000096092               0.000467862               0.000371771               0.000000000               0.000000000               0.000000000               0.000000000               0.000160015               0.001322411               0.000060111              -0.000105295               0.000475898               0.000370602               0.000000000               0.000000000               0.000000000               0.000000000               0.000146250               0.001332067               0.000060781              -0.000111664               0.000481239               0.000369575               0.000000000               0.000000000               0.000000000               0.000000000               0.000135436               0.001346078               0.000059566              -0.000117471               0.000487845               0.000370374               0.000000000               0.000000000               0.000000000               0.000000000               0.000120914               0.001369119               0.000047448              -0.000125797               0.000498301               0.000372504               0.000000000               0.000000000               0.000000000               0.000000000               0.000100131               0.001394691               0.000034401              -0.000136787               0.000510488               0.000373701               0.000000000               0.000000000               0.000000000               0.000000000               0.000078337               0.001421903               0.000026142              -0.000148361               0.000523417               0.000375056               0.000000000               0.000000000               0.000000000               0.000000000               0.000054486               0.001450175               0.000017630              -0.000160839               0.000537000               0.000376161               0.000000000               0.000000000               0.000000000               0.000000000               0.000025843               0.001478222               0.000008669              -0.000175086               0.000551098               0.000376012               0.000000000               0.000000000               0.000000000               0.000000000               0.000016103               0.001500633               0.000007205              -0.000181540               0.000560719               0.000379179               0.000000000               0.000000000               0.000000000               0.000000000               0.000448328               0.001307324               0.000599463               0.000004707               0.000434201               0.000438908               0.000000000               0.000000000               0.000000000               0.000000000               0.000325666               0.001237085               0.000431828              -0.000032511               0.000423195               0.000390683               0.000000000               0.000000000               0.000000000               0.000000000               0.000261303               0.001248199               0.000261424              -0.000058036               0.000435408               0.000377371               0.000000000               0.000000000               0.000000000               0.000000000               0.000239182               0.001244285               0.000187146              -0.000065842               0.000436705               0.000370863               0.000000000               0.000000000               0.000000000               0.000000000               0.000225516               0.001250549               0.000147591              -0.000071750               0.000440762               0.000369012               0.000000000               0.000000000               0.000000000               0.000000000               0.000205530               0.001269714               0.000120019              -0.000081640               0.000450447               0.000368807               0.000000000               0.000000000               0.000000000               0.000000000               0.000181455               0.001301196               0.000096460              -0.000094604               0.000465262               0.000370659               0.000000000               0.000000000               0.000000000               0.000000000               0.000159710               0.001329775               0.000079492              -0.000106330               0.000478697               0.000372367               0.000000000               0.000000000               0.000000000               0.000000000               0.000145053               0.001350723               0.000070935              -0.000114445               0.000488385               0.000373940               0.000000000               0.000000000               0.000000000               0.000000000               0.000135729               0.001374794               0.000067199              -0.000120951               0.000498577               0.000377626               0.000000000               0.000000000               0.000000000               0.000000000               0.000125569               0.001410587               0.000060237              -0.000129235               0.000513269               0.000384034               0.000000000               0.000000000               0.000000000               0.000000000               0.000110201               0.001457464               0.000044088              -0.000140857               0.000532769               0.000391912               0.000000000               0.000000000               0.000000000               0.000000000               0.000089320               0.001507374               0.000030571              -0.000154926               0.000554095               0.000399169               0.000000000               0.000000000               0.000000000               0.000000000               0.000065576               0.001555287               0.000023593              -0.000169819               0.000575030               0.000405211               0.000000000               0.000000000               0.000000000               0.000000000               0.000041918               0.001601921               0.000016415              -0.000184520               0.000595475               0.000410955               0.000000000               0.000000000               0.000000000               0.000000000               0.000018951               0.001648675               0.000007911              -0.000198977               0.000615879               0.000416901               0.000000000               0.000000000               0.000000000               0.000000000               0.000013924               0.001682035               0.000007362              -0.000205032               0.000629017               0.000423985               0.000000000               0.000000000               0.000000000               0.000000000               0.000470364               0.001101430               0.000578498               0.000038707               0.000354237               0.000392944               0.000000000               0.000000000               0.000000000               0.000000000               0.000331331               0.001104011               0.000432394              -0.000013753               0.000372584               0.000358831               0.000000000               0.000000000               0.000000000               0.000000000               0.000248336               0.001180769               0.000279245              -0.000054470               0.000411742               0.000357272               0.000000000               0.000000000               0.000000000               0.000000000               0.000226417               0.001209908               0.000205783              -0.000066332               0.000425409               0.000359077               0.000000000               0.000000000               0.000000000               0.000000000               0.000212273               0.001238538               0.000162426              -0.000075215               0.000437914               0.000362699               0.000000000               0.000000000               0.000000000               0.000000000               0.000191283               0.001276073               0.000130922              -0.000087778               0.000454613               0.000366835               0.000000000               0.000000000               0.000000000               0.000000000               0.000168224               0.001319875               0.000105932              -0.000101900               0.000473921               0.000372020               0.000000000               0.000000000               0.000000000               0.000000000               0.000152180               0.001355781               0.000087167              -0.000112405               0.000489391               0.000376986               0.000000000               0.000000000               0.000000000               0.000000000               0.000146181               0.001394449               0.000074470              -0.000119488               0.000504641               0.000385153               0.000000000               0.000000000               0.000000000               0.000000000               0.000142521               0.001444457               0.000063307              -0.000127111               0.000523851               0.000396740               0.000000000               0.000000000               0.000000000               0.000000000               0.000133440               0.001512638               0.000049732              -0.000139040               0.000550554               0.000411515               0.000000000               0.000000000               0.000000000               0.000000000               0.000116636               0.001587376               0.000032557              -0.000154683               0.000580681               0.000425998               0.000000000               0.000000000               0.000000000               0.000000000               0.000093957               0.001657705               0.000021857              -0.000171979               0.000609889               0.000437910               0.000000000               0.000000000               0.000000000               0.000000000               0.000065654               0.001722485               0.000017953              -0.000190690               0.000637719               0.000447029               0.000000000               0.000000000               0.000000000               0.000000000               0.000039437               0.001786855               0.000011883              -0.000208567               0.000665135               0.000456567               0.000000000               0.000000000               0.000000000               0.000000000               0.000018335               0.001848516               0.000005207              -0.000224188               0.000690895               0.000466707               0.000000000               0.000000000               0.000000000               0.000000000               0.000013075               0.001887895               0.000006237              -0.000231083               0.000706320               0.000475237               0.000000000               0.000000000               0.000000000               0.000000000               0.000482882               0.000915099               0.000534637               0.000066692               0.000282799               0.000349491               0.000000000               0.000000000               0.000000000               0.000000000               0.000338557               0.000984296               0.000423400               0.000003921               0.000326788               0.000330709               0.000000000               0.000000000               0.000000000               0.000000000               0.000245766               0.001120702               0.000297093              -0.000047925               0.000389539               0.000341613               0.000000000               0.000000000               0.000000000               0.000000000               0.000223435               0.001180163               0.000223296              -0.000063732               0.000414628               0.000350896               0.000000000               0.000000000               0.000000000               0.000000000               0.000207641               0.001228884               0.000175873              -0.000075745               0.000434872               0.000359127               0.000000000               0.000000000               0.000000000               0.000000000               0.000185650               0.001285180               0.000142519              -0.000091029               0.000458732               0.000367703               0.000000000               0.000000000               0.000000000               0.000000000               0.000165925               0.001339909               0.000116452              -0.000105267               0.000481721               0.000376454               0.000000000               0.000000000               0.000000000               0.000000000               0.000156689               0.001390483               0.000093641              -0.000115052               0.000501840               0.000386789               0.000000000               0.000000000               0.000000000               0.000000000               0.000157695               0.001448963               0.000072549              -0.000121984               0.000523644               0.000401660               0.000000000               0.000000000               0.000000000               0.000000000               0.000161142               0.001527830               0.000053131              -0.000130550               0.000552788               0.000422238               0.000000000               0.000000000               0.000000000               0.000000000               0.000153968               0.001619333               0.000036595              -0.000144678               0.000587998               0.000443320               0.000000000               0.000000000               0.000000000               0.000000000               0.000134721               0.001706834               0.000024232              -0.000162834               0.000623217               0.000460383               0.000000000               0.000000000               0.000000000               0.000000000               0.000113312               0.001786833               0.000016041              -0.000180862               0.000655892               0.000475030               0.000000000               0.000000000               0.000000000               0.000000000               0.000089309               0.001863703               0.000010638              -0.000199472               0.000687719               0.000488247               0.000000000               0.000000000               0.000000000               0.000000000               0.000064244               0.001937743               0.000004896              -0.000218126               0.000718617               0.000500491               0.000000000               0.000000000               0.000000000               0.000000000               0.000045393               0.002004840               0.000001055              -0.000233582               0.000746134               0.000512552               0.000000000               0.000000000               0.000000000               0.000000000               0.000035320               0.002038057              -0.000000103              -0.000241512               0.000759849               0.000518338               0.000000000               0.000000000               0.000000000               0.000000000               0.000477368               0.000730436               0.000477327               0.000087707               0.000214240               0.000301947               0.000000000               0.000000000               0.000000000               0.000000000               0.000348532               0.000843698               0.000410254               0.000025237               0.000272817               0.000298054               0.000000000               0.000000000               0.000000000               0.000000000               0.000253478               0.001024145               0.000319003              -0.000032964               0.000352366               0.000319402               0.000000000               0.000000000               0.000000000               0.000000000               0.000228115               0.001114078               0.000247613              -0.000053717               0.000389261               0.000335545               0.000000000               0.000000000               0.000000000               0.000000000               0.000213679               0.001183313               0.000197226              -0.000067784               0.000417029               0.000349244               0.000000000               0.000000000               0.000000000               0.000000000               0.000195236               0.001252577               0.000163221              -0.000083359               0.000445308               0.000361949               0.000000000               0.000000000               0.000000000               0.000000000               0.000176333               0.001320690               0.000136409              -0.000098961               0.000473213               0.000374251               0.000000000               0.000000000               0.000000000               0.000000000               0.000165328               0.001388226               0.000109234              -0.000111530               0.000499914               0.000388384               0.000000000               0.000000000               0.000000000               0.000000000               0.000168395               0.001464581               0.000084867              -0.000119924               0.000528164               0.000408239               0.000000000               0.000000000               0.000000000               0.000000000               0.000181012               0.001555925               0.000063541              -0.000126611               0.000560840               0.000434229               0.000000000               0.000000000               0.000000000               0.000000000               0.000185288               0.001649526               0.000045325              -0.000136707               0.000595406               0.000458698               0.000000000               0.000000000               0.000000000               0.000000000               0.000175063               0.001740505               0.000033277              -0.000151914               0.000630800               0.000478886               0.000000000               0.000000000               0.000000000               0.000000000               0.000160567               0.001832376               0.000023147              -0.000168834               0.000667064               0.000498230               0.000000000               0.000000000               0.000000000               0.000000000               0.000141668               0.001914711               0.000012282              -0.000186213               0.000700302               0.000514089               0.000000000               0.000000000               0.000000000               0.000000000               0.000118777               0.001989972               0.000006979              -0.000204204               0.000731386               0.000527181               0.000000000               0.000000000               0.000000000               0.000000000               0.000098030               0.002061047               0.000004311              -0.000220869               0.000760632               0.000539763               0.000000000               0.000000000               0.000000000               0.000000000               0.000081565               0.002087914              -0.000000857              -0.000230402               0.000772765               0.000542363               0.000000000               0.000000000               0.000000000               0.000000000               0.000448756               0.000554677               0.000407781               0.000098948               0.000151908               0.000250856               0.000000000               0.000000000               0.000000000               0.000000000               0.000355482               0.000700092               0.000384893               0.000045793               0.000218097               0.000263890               0.000000000               0.000000000               0.000000000               0.000000000               0.000270468               0.000911095               0.000332108              -0.000012462               0.000307849               0.000295388               0.000000000               0.000000000               0.000000000               0.000000000               0.000244192               0.001031507               0.000269432              -0.000037366               0.000356288               0.000318921               0.000000000               0.000000000               0.000000000               0.000000000               0.000230025               0.001121081               0.000219947              -0.000053876               0.000391649               0.000337773               0.000000000               0.000000000               0.000000000               0.000000000               0.000214944               0.001203171               0.000184887              -0.000069792               0.000424317               0.000354525               0.000000000               0.000000000               0.000000000               0.000000000               0.000197154               0.001282988               0.000156639              -0.000086441               0.000456472               0.000370031               0.000000000               0.000000000               0.000000000               0.000000000               0.000186241               0.001364119               0.000129703              -0.000100674               0.000488260               0.000387586               0.000000000               0.000000000               0.000000000               0.000000000               0.000192242               0.001455749               0.000107543              -0.000109878               0.000521871               0.000411993               0.000000000               0.000000000               0.000000000               0.000000000               0.000208473               0.001552038               0.000084276              -0.000115827               0.000555950               0.000440123               0.000000000               0.000000000               0.000000000               0.000000000               0.000222138               0.001648242               0.000060832              -0.000122728               0.000590318               0.000467590               0.000000000               0.000000000               0.000000000               0.000000000               0.000224393               0.001743697               0.000045588              -0.000133814               0.000625831               0.000492017               0.000000000               0.000000000               0.000000000               0.000000000               0.000216376               0.001836419               0.000034692              -0.000148411               0.000661604               0.000513193               0.000000000               0.000000000               0.000000000               0.000000000               0.000204446               0.001921237               0.000021057              -0.000163487               0.000694901               0.000531414               0.000000000               0.000000000               0.000000000               0.000000000               0.000187002               0.001999246               0.000010077              -0.000179780               0.000726335               0.000546555               0.000000000               0.000000000               0.000000000               0.000000000               0.000161051               0.002066346               0.000004494              -0.000197899               0.000754741               0.000556843               0.000000000               0.000000000               0.000000000               0.000000000               0.000139147               0.002090656              -0.000000412              -0.000209151               0.000766595               0.000557444               0.000000000               0.000000000               0.000000000               0.000000000               0.000399190               0.000401433               0.000328011               0.000099516               0.000100637               0.000200153               0.000000000               0.000000000               0.000000000               0.000000000               0.000349382               0.000561719               0.000342129               0.000060803               0.000166970               0.000227773               0.000000000               0.000000000               0.000000000               0.000000000               0.000291287               0.000786577               0.000325583               0.000010910               0.000258553               0.000269463               0.000000000               0.000000000               0.000000000               0.000000000               0.000267944               0.000931411               0.000276469              -0.000015948               0.000315783               0.000299835               0.000000000               0.000000000               0.000000000               0.000000000               0.000254194               0.001040911               0.000231734              -0.000034791               0.000358564               0.000323773               0.000000000               0.000000000               0.000000000               0.000000000               0.000241513               0.001136985               0.000198005              -0.000051556               0.000396176               0.000344621               0.000000000               0.000000000               0.000000000               0.000000000               0.000228257               0.001227932               0.000171060              -0.000067895               0.000431938               0.000364043               0.000000000               0.000000000               0.000000000               0.000000000               0.000223184               0.001326167               0.000148763              -0.000082077               0.000469410               0.000387333               0.000000000               0.000000000               0.000000000               0.000000000               0.000226797               0.001431953               0.000128190              -0.000093945               0.000508628               0.000414683               0.000000000               0.000000000               0.000000000               0.000000000               0.000237679               0.001537435               0.000104102              -0.000103049               0.000546823               0.000443774               0.000000000               0.000000000               0.000000000               0.000000000               0.000255359               0.001642252               0.000079775              -0.000109521               0.000583919               0.000474398               0.000000000               0.000000000               0.000000000               0.000000000               0.000268290               0.001742247               0.000060460              -0.000117172               0.000619801               0.000502629               0.000000000               0.000000000               0.000000000               0.000000000               0.000268514               0.001831941               0.000046342              -0.000128299               0.000653407               0.000525108               0.000000000               0.000000000               0.000000000               0.000000000               0.000261646               0.001915487               0.000031868              -0.000141318               0.000685595               0.000544277               0.000000000               0.000000000               0.000000000               0.000000000               0.000250110               0.001994448               0.000015152              -0.000155514               0.000716647               0.000561133               0.000000000               0.000000000               0.000000000               0.000000000               0.000229678               0.002064965               0.000004621              -0.000171991               0.000745645               0.000573654               0.000000000               0.000000000               0.000000000               0.000000000               0.000207027               0.002091302              -0.000001571              -0.000183777               0.000758353               0.000574576               0.000000000               0.000000000               0.000000000               0.000000000               0.000331716               0.000277273               0.000245691               0.000089733               0.000062512               0.000152246               0.000000000               0.000000000               0.000000000               0.000000000               0.000332025               0.000435358               0.000285932               0.000070089               0.000121755               0.000191844               0.000000000               0.000000000               0.000000000               0.000000000               0.000309817               0.000658770               0.000297652               0.000033834               0.000208310               0.000242144               0.000000000               0.000000000               0.000000000               0.000000000               0.000296411               0.000821250               0.000263062               0.000008497               0.000270915               0.000279412               0.000000000               0.000000000               0.000000000               0.000000000               0.000285345               0.000948321               0.000226851              -0.000011536               0.000319949               0.000308413               0.000000000               0.000000000               0.000000000               0.000000000               0.000276366               0.001057186               0.000198490              -0.000028511               0.000361895               0.000333384               0.000000000               0.000000000               0.000000000               0.000000000               0.000268798               0.001163683               0.000176022              -0.000044661               0.000402778               0.000358116               0.000000000               0.000000000               0.000000000               0.000000000               0.000265941               0.001279101               0.000156977              -0.000060160               0.000446416               0.000386256               0.000000000               0.000000000               0.000000000               0.000000000               0.000266479               0.001397614               0.000138042              -0.000074772               0.000490791               0.000416019               0.000000000               0.000000000               0.000000000               0.000000000               0.000274747               0.001514874               0.000118117              -0.000086329               0.000533729               0.000447400               0.000000000               0.000000000               0.000000000               0.000000000               0.000291116               0.001627061               0.000095770              -0.000094214               0.000573753               0.000479539               0.000000000               0.000000000               0.000000000               0.000000000               0.000305111               0.001723648               0.000073615              -0.000101039               0.000608223               0.000507184               0.000000000               0.000000000               0.000000000               0.000000000               0.000312053               0.001810814               0.000055297              -0.000109332               0.000640042               0.000530711               0.000000000               0.000000000               0.000000000               0.000000000               0.000311373               0.001895899               0.000038415              -0.000120222               0.000672034               0.000551812               0.000000000               0.000000000               0.000000000               0.000000000               0.000307298               0.001976941               0.000020775              -0.000131881               0.000702934               0.000571053               0.000000000               0.000000000               0.000000000               0.000000000               0.000300220               0.002054555               0.000007160              -0.000144236               0.000732923               0.000588687               0.000000000               0.000000000               0.000000000               0.000000000               0.000285353               0.002085816              -0.000000911              -0.000153719               0.000746505               0.000592786               0.000000000               0.000000000               0.000000000               0.000000000               0.000256876               0.000180782               0.000169069               0.000073730               0.000035683               0.000109413               0.000000000               0.000000000               0.000000000               0.000000000               0.000308253               0.000328479               0.000219425               0.000074534               0.000084647               0.000159181               0.000000000               0.000000000               0.000000000               0.000000000               0.000322120               0.000539451               0.000246525               0.000053363               0.000162028               0.000215390               0.000000000               0.000000000               0.000000000               0.000000000               0.000324779               0.000710483               0.000226764               0.000032981               0.000225832               0.000258813               0.000000000               0.000000000               0.000000000               0.000000000               0.000321289               0.000852120               0.000200977               0.000013968               0.000279381               0.000293349               0.000000000               0.000000000               0.000000000               0.000000000               0.000315640               0.000975657               0.000179833              -0.000003592               0.000326413               0.000322821               0.000000000               0.000000000               0.000000000               0.000000000               0.000312555               0.001099727               0.000162918              -0.000020258               0.000373325               0.000353067               0.000000000               0.000000000               0.000000000               0.000000000               0.000310124               0.001228307               0.000147312              -0.000037242               0.000421846               0.000384604               0.000000000               0.000000000               0.000000000               0.000000000               0.000312015               0.001354284               0.000133169              -0.000052280               0.000468850               0.000416570               0.000000000               0.000000000               0.000000000               0.000000000               0.000318977               0.001477036               0.000118099              -0.000065013               0.000514011               0.000448998               0.000000000               0.000000000               0.000000000               0.000000000               0.000328291               0.001591003               0.000098657              -0.000075766               0.000555584               0.000479818               0.000000000               0.000000000               0.000000000               0.000000000               0.000338046               0.001687771               0.000077198              -0.000084204               0.000590653               0.000506449               0.000000000               0.000000000               0.000000000               0.000000000               0.000347369               0.001778052               0.000057044              -0.000091993               0.000623342               0.000531350               0.000000000               0.000000000               0.000000000               0.000000000               0.000354867               0.001869568               0.000039473              -0.000100621               0.000656723               0.000556103               0.000000000               0.000000000               0.000000000               0.000000000               0.000362184               0.001960753               0.000025939              -0.000109275               0.000690003               0.000580728               0.000000000               0.000000000               0.000000000               0.000000000               0.000368953               0.002047518               0.000013233              -0.000117582               0.000721693               0.000604111               0.000000000               0.000000000               0.000000000               0.000000000               0.000364712               0.002084370               0.000004603              -0.000123779               0.000736043               0.000612264               0.000000000               0.000000000               0.000000000               0.000000000               0.000187761               0.000116393               0.000103453               0.000055861               0.000020177               0.000076038               0.000000000               0.000000000               0.000000000               0.000000000               0.000280772               0.000247901               0.000147125               0.000074301               0.000057866               0.000132167               0.000000000               0.000000000               0.000000000               0.000000000               0.000330131               0.000441235               0.000176007               0.000068644               0.000124196               0.000192840               0.000000000               0.000000000               0.000000000               0.000000000               0.000348447               0.000615677               0.000167588               0.000053707               0.000187321               0.000241029               0.000000000               0.000000000               0.000000000               0.000000000               0.000353044               0.000766009               0.000151750               0.000036640               0.000243120               0.000279761               0.000000000               0.000000000               0.000000000               0.000000000               0.000353929               0.000905190               0.000138097               0.000019574               0.000295202               0.000314777               0.000000000               0.000000000               0.000000000               0.000000000               0.000353555               0.001044723               0.000126628               0.000001992               0.000347573               0.000349566               0.000000000               0.000000000               0.000000000               0.000000000               0.000355032               0.001176294               0.000117271              -0.000013900               0.000396727               0.000382827               0.000000000               0.000000000               0.000000000               0.000000000               0.000356339               0.001303847               0.000108333              -0.000029354               0.000444396               0.000415042               0.000000000               0.000000000               0.000000000               0.000000000               0.000358518               0.001431092               0.000096254              -0.000044442               0.000491840               0.000447398               0.000000000               0.000000000               0.000000000               0.000000000               0.000361253               0.001546230               0.000081059              -0.000057809               0.000534674               0.000476866               0.000000000               0.000000000               0.000000000               0.000000000               0.000367182               0.001649324               0.000065241              -0.000068472               0.000572593               0.000504121               0.000000000               0.000000000               0.000000000               0.000000000               0.000379078               0.001749998               0.000049798              -0.000076595               0.000608859               0.000532264               0.000000000               0.000000000               0.000000000               0.000000000               0.000394672               0.001849459               0.000036593              -0.000083180               0.000644207               0.000561027               0.000000000               0.000000000               0.000000000               0.000000000               0.000410366               0.001945083               0.000026699              -0.000089248               0.000678104               0.000588856               0.000000000               0.000000000               0.000000000               0.000000000               0.000425307               0.002037516               0.000015269              -0.000095199               0.000710898               0.000615699               0.000000000               0.000000000               0.000000000               0.000000000               0.000429527               0.002081155               0.000007674              -0.000099071               0.000726735               0.000627664               0.000000000               0.000000000               0.000000000               0.000000000               0.000138726               0.000079718               0.000048835               0.000042057               0.000012553               0.000054611               0.000000000               0.000000000               0.000000000               0.000000000               0.000258541               0.000196878               0.000073395               0.000072343               0.000041511               0.000113854               0.000000000               0.000000000               0.000000000               0.000000000               0.000335998               0.000378168               0.000091854               0.000078728               0.000099812               0.000178540               0.000000000               0.000000000               0.000000000               0.000000000               0.000363472               0.000551534               0.000089459               0.000067360               0.000161390               0.000228749               0.000000000               0.000000000               0.000000000               0.000000000               0.000375195               0.000705859               0.000081878               0.000052465               0.000217796               0.000270261               0.000000000               0.000000000               0.000000000               0.000000000               0.000381962               0.000856009               0.000074891               0.000036234               0.000273255               0.000309490               0.000000000               0.000000000               0.000000000               0.000000000               0.000386313               0.001004227               0.000069849               0.000019339               0.000328293               0.000347632               0.000000000               0.000000000               0.000000000               0.000000000               0.000387366               0.001138000               0.000066386               0.000003012               0.000378326               0.000381338               0.000000000               0.000000000               0.000000000               0.000000000               0.000385397               0.001265157               0.000061132              -0.000013621               0.000426255               0.000412634               0.000000000               0.000000000               0.000000000               0.000000000               0.000384039               0.001390274               0.000053861              -0.000029770               0.000473343               0.000443574               0.000000000               0.000000000               0.000000000               0.000000000               0.000386495               0.001510697               0.000045593              -0.000043901               0.000518194               0.000474293               0.000000000               0.000000000               0.000000000               0.000000000               0.000393799               0.001626044               0.000038695              -0.000055581               0.000560536               0.000504956               0.000000000               0.000000000               0.000000000               0.000000000               0.000405865               0.001734264               0.000031388              -0.000064584               0.000599610               0.000535026               0.000000000               0.000000000               0.000000000               0.000000000               0.000421698               0.001833226               0.000023348              -0.000071016               0.000634741               0.000563725               0.000000000               0.000000000               0.000000000               0.000000000               0.000440266               0.001927981               0.000016752              -0.000075898               0.000667953               0.000592055               0.000000000               0.000000000               0.000000000               0.000000000               0.000463560               0.002028325               0.000009686              -0.000079705               0.000702670               0.000622965               0.000000000               0.000000000               0.000000000               0.000000000               0.000476173               0.002079903               0.000005398              -0.000081423               0.000720435               0.000639012               0.000000000               0.000000000               0.000000000               0.000000000               0.000120979               0.000066988               0.000000000               0.000036993               0.000009998               0.000046991               0.000000000               0.000000000               0.000000000               0.000000000               0.000250135               0.000179213               0.000000000               0.000071398               0.000035938               0.000107336               0.000000000               0.000000000               0.000000000               0.000000000               0.000338202               0.000357211               0.000000000               0.000082173               0.000091678               0.000173852               0.000000000               0.000000000               0.000000000               0.000000000               0.000368409               0.000527828              -0.000000000               0.000072174               0.000151883               0.000224057               0.000000000               0.000000000               0.000000000               0.000000000               0.000383466               0.000683611               0.000000000               0.000058348               0.000208419               0.000266766               0.000000000               0.000000000               0.000000000               0.000000000               0.000391989               0.000838630               0.000000000               0.000042167               0.000265485               0.000307652               0.000000000               0.000000000               0.000000000               0.000000000               0.000400124               0.000989481               0.000000000               0.000026361               0.000321037               0.000347398               0.000000000               0.000000000               0.000000000               0.000000000               0.000397767               0.001125359               0.000000000               0.000008493               0.000372285               0.000380778               0.000000000               0.000000000               0.000000000               0.000000000               0.000394095               0.001251007               0.000000000              -0.000008590               0.000419862               0.000411271               0.000000000               0.000000000               0.000000000               0.000000000               0.000393096               0.001371214              -0.000000000              -0.000023991               0.000465064               0.000441073               0.000000000               0.000000000               0.000000000               0.000000000               0.000397961               0.001498385               0.000000000              -0.000038062               0.000512144               0.000474082               0.000000000               0.000000000               0.000000000               0.000000000               0.000406764               0.001621724               0.000000000              -0.000050179               0.000557296               0.000507117               0.000000000               0.000000000               0.000000000               0.000000000               0.000415384               0.001726726               0.000000000              -0.000060072               0.000595594               0.000535522               0.000000000               0.000000000               0.000000000               0.000000000               0.000429167               0.001823249               0.000000000              -0.000066968               0.000630066               0.000563098               0.000000000               0.000000000               0.000000000               0.000000000               0.000450064               0.001921643              -0.000000000              -0.000071431               0.000664352               0.000592920               0.000000000               0.000000000               0.000000000               0.000000000               0.000478291               0.002026760              -0.000000000              -0.000073986               0.000700242               0.000626256               0.000000000               0.000000000               0.000000000               0.000000000               0.000494993               0.002080964               0.000000000              -0.000074498               0.000718480               0.000643982               0.000000000               0.000000000               0.000000000               0.000000000               0.000192711               0.002204762               0.000000000              -0.000203328               0.000802689               0.000599361               0.000000000               0.000000000               0.000000000               0.000000000               0.000225420               0.001849937              -0.000000000              -0.000146709               0.000665543               0.000518833               0.000000000               0.000000000               0.000000000               0.000000000               0.000330304               0.001563583               0.000000000              -0.000071584               0.000545050               0.000473467               0.000000000               0.000000000               0.000000000               0.000000000               0.000367589               0.001398575               0.000000000              -0.000036976               0.000478512               0.000441536               0.000000000               0.000000000               0.000000000               0.000000000               0.000380587               0.001299326               0.000000000              -0.000019695               0.000439670               0.000419974               0.000000000               0.000000000               0.000000000               0.000000000               0.000382791               0.001234971              -0.000000000              -0.000010825               0.000415261               0.000404436               0.000000000               0.000000000               0.000000000               0.000000000               0.000375813               0.001198451               0.000000000              -0.000008876               0.000402439               0.000393562               0.000000000               0.000000000               0.000000000               0.000000000               0.000358986               0.001182999               0.000000000              -0.000013255               0.000398747               0.000385492               0.000000000               0.000000000               0.000000000               0.000000000               0.000334106               0.001186867               0.000000000              -0.000023068               0.000403308               0.000380239               0.000000000               0.000000000               0.000000000               0.000000000               0.000301777               0.001204002               0.000000000              -0.000037334               0.000413774               0.000376441               0.000000000               0.000000000               0.000000000               0.000000000               0.000267952               0.001226093               0.000000000              -0.000052780               0.000426287               0.000373507               0.000000000               0.000000000               0.000000000               0.000000000               0.000233093               0.001247476              -0.000000000              -0.000068524               0.000438663               0.000370138               0.000000000               0.000000000               0.000000000               0.000000000               0.000195099               0.001272039               0.000000000              -0.000085843               0.000452623               0.000366781               0.000000000               0.000000000               0.000000000               0.000000000               0.000154765               0.001302617              -0.000000000              -0.000104790               0.000469131               0.000364341               0.000000000               0.000000000               0.000000000               0.000000000               0.000106175               0.001333882              -0.000000000              -0.000126919               0.000486929               0.000360010               0.000000000               0.000000000               0.000000000               0.000000000               0.000050836               0.001368027              -0.000000000              -0.000151939               0.000506651               0.000354712               0.000000000               0.000000000               0.000000000               0.000000000               0.000027595               0.001398788              -0.000000000              -0.000164500               0.000521091               0.000356591               0.000000000               0.000000000               0.000000000               0.000000000               0.000205432               0.002170021              -0.000172645              -0.000194215               0.000788072               0.000593856               0.000000000               0.000000000               0.000000000               0.000000000               0.000231311               0.001826062              -0.000117426              -0.000141516               0.000655853               0.000514337               0.000000000               0.000000000               0.000000000               0.000000000               0.000327510               0.001549216              -0.000061405              -0.000070836               0.000540012               0.000469176               0.000000000               0.000000000               0.000000000               0.000000000               0.000360771               0.001392736              -0.000035853              -0.000038803               0.000477175               0.000438372               0.000000000               0.000000000               0.000000000               0.000000000               0.000371205               0.001297868              -0.000024671              -0.000023032               0.000440295               0.000417264               0.000000000               0.000000000               0.000000000               0.000000000               0.000371006               0.001238632              -0.000019858              -0.000015702               0.000418107               0.000402405               0.000000000               0.000000000               0.000000000               0.000000000               0.000362906               0.001204341              -0.000016724              -0.000014453               0.000406261               0.000391808               0.000000000               0.000000000               0.000000000               0.000000000               0.000346604               0.001191212              -0.000013235              -0.000018925               0.000403375               0.000384450               0.000000000               0.000000000               0.000000000               0.000000000               0.000320964               0.001196280              -0.000010668              -0.000029174               0.000408481               0.000379307               0.000000000               0.000000000               0.000000000               0.000000000               0.000290283               0.001211355              -0.000011654              -0.000042563               0.000417968               0.000375406               0.000000000               0.000000000               0.000000000               0.000000000               0.000260083               0.001231084              -0.000016631              -0.000056354               0.000429142               0.000372788               0.000000000               0.000000000               0.000000000               0.000000000               0.000226948               0.001249576              -0.000019900              -0.000071091               0.000440218               0.000369127               0.000000000               0.000000000               0.000000000               0.000000000               0.000189025               0.001271845              -0.000017741              -0.000088096               0.000453309               0.000365213               0.000000000               0.000000000               0.000000000               0.000000000               0.000148292               0.001298743              -0.000016074              -0.000106733               0.000468488               0.000361755               0.000000000               0.000000000               0.000000000               0.000000000               0.000102697               0.001326361              -0.000014295              -0.000127283               0.000484544               0.000357260               0.000000000               0.000000000               0.000000000               0.000000000               0.000051306               0.001355800              -0.000008388              -0.000150235               0.000502007               0.000351772               0.000000000               0.000000000               0.000000000               0.000000000               0.000028414               0.001380927              -0.000005068              -0.000161960               0.000514291               0.000352331               0.000000000               0.000000000               0.000000000               0.000000000               0.000243905               0.002071831              -0.000327062              -0.000167514               0.000746442               0.000578927               0.000000000               0.000000000               0.000000000               0.000000000               0.000247725               0.001756921              -0.000223570              -0.000126718               0.000627874               0.000501156               0.000000000               0.000000000               0.000000000               0.000000000               0.000319397               0.001511778              -0.000117736              -0.000069198               0.000526987               0.000457789               0.000000000               0.000000000               0.000000000               0.000000000               0.000341942               0.001377019              -0.000070465              -0.000043899               0.000473635               0.000429736               0.000000000               0.000000000               0.000000000               0.000000000               0.000345220               0.001294599              -0.000049890              -0.000032367               0.000442318               0.000409951               0.000000000               0.000000000               0.000000000               0.000000000               0.000339951               0.001246098              -0.000040829              -0.000028280               0.000424789               0.000396508               0.000000000               0.000000000               0.000000000               0.000000000               0.000328916               0.001220771              -0.000034379              -0.000029253               0.000416670               0.000387418               0.000000000               0.000000000               0.000000000               0.000000000               0.000310901               0.001213960              -0.000026903              -0.000035157               0.000416368               0.000381211               0.000000000               0.000000000               0.000000000               0.000000000               0.000286043               0.001220724              -0.000022334              -0.000045324               0.000422012               0.000376688               0.000000000               0.000000000               0.000000000               0.000000000               0.000260432               0.001232710              -0.000024003              -0.000056427               0.000429708               0.000373281               0.000000000               0.000000000               0.000000000               0.000000000               0.000234081               0.001244902              -0.000031415              -0.000067832               0.000437574               0.000369742               0.000000000               0.000000000               0.000000000               0.000000000               0.000204984               0.001258106              -0.000034480              -0.000080394               0.000446163               0.000365768               0.000000000               0.000000000               0.000000000               0.000000000               0.000172945               0.001276064              -0.000028887              -0.000094653               0.000456901               0.000362248               0.000000000               0.000000000               0.000000000               0.000000000               0.000136019               0.001295041              -0.000025210              -0.000110873               0.000468634               0.000357761               0.000000000               0.000000000               0.000000000               0.000000000               0.000093335               0.001313091              -0.000020448              -0.000129135               0.000480738               0.000351602               0.000000000               0.000000000               0.000000000               0.000000000               0.000046471               0.001330919              -0.000010826              -0.000148938               0.000493281               0.000344343               0.000000000               0.000000000               0.000000000               0.000000000               0.000024915               0.001345084              -0.000006327              -0.000158792               0.000501287               0.000342496               0.000000000               0.000000000               0.000000000               0.000000000               0.000298019               0.001921933              -0.000452140              -0.000128484               0.000683466               0.000554981               0.000000000               0.000000000               0.000000000               0.000000000               0.000270009               0.001649864              -0.000310786              -0.000104979               0.000584942               0.000479963               0.000000000               0.000000000               0.000000000               0.000000000               0.000307842               0.001457277              -0.000166020              -0.000066719               0.000507994               0.000441275               0.000000000               0.000000000               0.000000000               0.000000000               0.000314687               0.001351659              -0.000103540              -0.000050950               0.000467532               0.000416582               0.000000000               0.000000000               0.000000000               0.000000000               0.000309074               0.001288868              -0.000076488              -0.000045206               0.000444687               0.000399481               0.000000000               0.000000000               0.000000000               0.000000000               0.000299441               0.001256191              -0.000062557              -0.000044734               0.000433637               0.000388904               0.000000000               0.000000000               0.000000000               0.000000000               0.000283205               0.001242764              -0.000052285              -0.000049144               0.000430632               0.000381488               0.000000000               0.000000000               0.000000000               0.000000000               0.000261865               0.001246156              -0.000041581              -0.000057570               0.000434571               0.000377001               0.000000000               0.000000000               0.000000000               0.000000000               0.000239382               0.001254122              -0.000034451              -0.000066997               0.000440369               0.000373372               0.000000000               0.000000000               0.000000000               0.000000000               0.000219964               0.001263502              -0.000036517              -0.000075451               0.000446314               0.000370863               0.000000000               0.000000000               0.000000000               0.000000000               0.000200574               0.001269249              -0.000043072              -0.000083441               0.000450892               0.000367452               0.000000000               0.000000000               0.000000000               0.000000000               0.000175818               0.001277533              -0.000041406              -0.000093759               0.000457093               0.000363334               0.000000000               0.000000000               0.000000000               0.000000000               0.000146997               0.001289966              -0.000031857              -0.000106122               0.000465358               0.000359237               0.000000000               0.000000000               0.000000000               0.000000000               0.000116854               0.001302699              -0.000025501              -0.000119017               0.000473901               0.000354884               0.000000000               0.000000000               0.000000000               0.000000000               0.000083094               0.001315826              -0.000017671              -0.000133318               0.000483043               0.000349726               0.000000000               0.000000000               0.000000000               0.000000000               0.000043305               0.001327596              -0.000007300              -0.000149710               0.000492431               0.000342721               0.000000000               0.000000000               0.000000000               0.000000000               0.000024674               0.001337839              -0.000004228              -0.000157977               0.000498601               0.000340624               0.000000000               0.000000000               0.000000000               0.000000000               0.000355069               0.001731929              -0.000541259              -0.000083340               0.000605084               0.000521744               0.000000000               0.000000000               0.000000000               0.000000000               0.000293025               0.001518020              -0.000374150              -0.000079868               0.000532624               0.000452756               0.000000000               0.000000000               0.000000000               0.000000000               0.000293378               0.001389754              -0.000205305              -0.000063702               0.000484481               0.000420778               0.000000000               0.000000000               0.000000000               0.000000000               0.000284910               0.001318356              -0.000134857              -0.000057953               0.000458765               0.000400812               0.000000000               0.000000000               0.000000000               0.000000000               0.000274382               0.001279505              -0.000102194              -0.000057045               0.000445512               0.000388468               0.000000000               0.000000000               0.000000000               0.000000000               0.000258572               0.001263792              -0.000084583              -0.000061009               0.000441596               0.000380587               0.000000000               0.000000000               0.000000000               0.000000000               0.000237445               0.001265360              -0.000069615              -0.000069128               0.000444825               0.000375697               0.000000000               0.000000000               0.000000000               0.000000000               0.000214774               0.001278920              -0.000055311              -0.000079324               0.000452744               0.000373419               0.000000000               0.000000000               0.000000000               0.000000000               0.000193164               0.001291034              -0.000047527              -0.000088943               0.000459988               0.000371045               0.000000000               0.000000000               0.000000000               0.000000000               0.000178021               0.001297635              -0.000048774              -0.000095446               0.000464356               0.000368910               0.000000000               0.000000000               0.000000000               0.000000000               0.000163760               0.001301946              -0.000052779              -0.000101333               0.000467755               0.000366422               0.000000000               0.000000000               0.000000000               0.000000000               0.000144673               0.001311958              -0.000045323              -0.000109742               0.000473896               0.000364153               0.000000000               0.000000000               0.000000000               0.000000000               0.000122146               0.001325294              -0.000032524              -0.000119857               0.000481712               0.000361856               0.000000000               0.000000000               0.000000000               0.000000000               0.000099665               0.001339602              -0.000024419              -0.000130075               0.000489888               0.000359812               0.000000000               0.000000000               0.000000000               0.000000000               0.000072967               0.001356100              -0.000016120              -0.000142149               0.000499412               0.000357263               0.000000000               0.000000000               0.000000000               0.000000000               0.000036951               0.001371410              -0.000006968              -0.000157569               0.000509655               0.000352086               0.000000000               0.000000000               0.000000000               0.000000000               0.000021198               0.001385333              -0.000005126              -0.000165217               0.000516846               0.000351628               0.000000000               0.000000000               0.000000000               0.000000000               0.000408499               0.001520057              -0.000589640              -0.000036821               0.000518954               0.000482133               0.000000000               0.000000000               0.000000000               0.000000000               0.000312392               0.001376954              -0.000413713              -0.000054973               0.000477304               0.000422332               0.000000000               0.000000000               0.000000000               0.000000000               0.000277441               0.001318741              -0.000237032              -0.000060802               0.000459843               0.000399041               0.000000000               0.000000000               0.000000000               0.000000000               0.000259624               0.001281808              -0.000162980              -0.000062867               0.000448221               0.000385354               0.000000000               0.000000000               0.000000000               0.000000000               0.000245816               0.001265341              -0.000126897              -0.000065986               0.000443772               0.000377785               0.000000000               0.000000000               0.000000000               0.000000000               0.000227002               0.001267010              -0.000104460              -0.000073250               0.000446749               0.000373499               0.000000000               0.000000000               0.000000000               0.000000000               0.000202938               0.001284704              -0.000084705              -0.000084486               0.000456392               0.000371906               0.000000000               0.000000000               0.000000000               0.000000000               0.000179592               0.001307509              -0.000068091              -0.000096092               0.000467862               0.000371771               0.000000000               0.000000000               0.000000000               0.000000000               0.000160015               0.001322411              -0.000060111              -0.000105295               0.000475898               0.000370602               0.000000000               0.000000000               0.000000000               0.000000000               0.000146250               0.001332067              -0.000060781              -0.000111664               0.000481239               0.000369575               0.000000000               0.000000000               0.000000000               0.000000000               0.000135436               0.001346078              -0.000059566              -0.000117471               0.000487845               0.000370374               0.000000000               0.000000000               0.000000000               0.000000000               0.000120914               0.001369119              -0.000047448              -0.000125797               0.000498301               0.000372504               0.000000000               0.000000000               0.000000000               0.000000000               0.000100131               0.001394691              -0.000034401              -0.000136787               0.000510488               0.000373701               0.000000000               0.000000000               0.000000000               0.000000000               0.000078337               0.001421903              -0.000026142              -0.000148361               0.000523417               0.000375056               0.000000000               0.000000000               0.000000000               0.000000000               0.000054486               0.001450175              -0.000017630              -0.000160839               0.000537000               0.000376161               0.000000000               0.000000000               0.000000000               0.000000000               0.000025843               0.001478222              -0.000008669              -0.000175086               0.000551098               0.000376012               0.000000000               0.000000000               0.000000000               0.000000000               0.000016103               0.001500633              -0.000007205              -0.000181540               0.000560719               0.000379179               0.000000000               0.000000000               0.000000000               0.000000000               0.000448328               0.001307324              -0.000599463               0.000004707               0.000434201               0.000438908               0.000000000               0.000000000               0.000000000               0.000000000               0.000325666               0.001237085              -0.000431828              -0.000032511               0.000423195               0.000390683               0.000000000               0.000000000               0.000000000               0.000000000               0.000261303               0.001248199              -0.000261424              -0.000058036               0.000435408               0.000377371               0.000000000               0.000000000               0.000000000               0.000000000               0.000239182               0.001244285              -0.000187146              -0.000065842               0.000436705               0.000370863               0.000000000               0.000000000               0.000000000               0.000000000               0.000225516               0.001250549              -0.000147591              -0.000071750               0.000440762               0.000369012               0.000000000               0.000000000               0.000000000               0.000000000               0.000205530               0.001269714              -0.000120019              -0.000081640               0.000450447               0.000368807               0.000000000               0.000000000               0.000000000               0.000000000               0.000181455               0.001301196              -0.000096460              -0.000094604               0.000465262               0.000370659               0.000000000               0.000000000               0.000000000               0.000000000               0.000159710               0.001329775              -0.000079492              -0.000106330               0.000478697               0.000372367               0.000000000               0.000000000               0.000000000               0.000000000               0.000145053               0.001350723              -0.000070935              -0.000114445               0.000488385               0.000373940               0.000000000               0.000000000               0.000000000               0.000000000               0.000135729               0.001374794              -0.000067199              -0.000120951               0.000498577               0.000377626               0.000000000               0.000000000               0.000000000               0.000000000               0.000125569               0.001410587              -0.000060237              -0.000129235               0.000513269               0.000384034               0.000000000               0.000000000               0.000000000               0.000000000               0.000110201               0.001457464              -0.000044088              -0.000140857               0.000532769               0.000391912               0.000000000               0.000000000               0.000000000               0.000000000               0.000089320               0.001507374              -0.000030571              -0.000154926               0.000554095               0.000399169               0.000000000               0.000000000               0.000000000               0.000000000               0.000065576               0.001555287              -0.000023593              -0.000169819               0.000575030               0.000405211               0.000000000               0.000000000               0.000000000               0.000000000               0.000041918               0.001601921              -0.000016415              -0.000184520               0.000595475               0.000410955               0.000000000               0.000000000               0.000000000               0.000000000               0.000018951               0.001648675              -0.000007911              -0.000198977               0.000615879               0.000416901               0.000000000               0.000000000               0.000000000               0.000000000               0.000013924               0.001682035              -0.000007362              -0.000205032               0.000629017               0.000423985               0.000000000               0.000000000               0.000000000               0.000000000               0.000470364               0.001101430              -0.000578498               0.000038707               0.000354237               0.000392944               0.000000000               0.000000000               0.000000000               0.000000000               0.000331331               0.001104011              -0.000432394              -0.000013753               0.000372584               0.000358831               0.000000000               0.000000000               0.000000000               0.000000000               0.000248336               0.001180769              -0.000279245              -0.000054470               0.000411742               0.000357272               0.000000000               0.000000000               0.000000000               0.000000000               0.000226417               0.001209908              -0.000205783              -0.000066332               0.000425409               0.000359077               0.000000000               0.000000000               0.000000000               0.000000000               0.000212273               0.001238538              -0.000162426              -0.000075215               0.000437914               0.000362699               0.000000000               0.000000000               0.000000000               0.000000000               0.000191283               0.001276073              -0.000130922              -0.000087778               0.000454613               0.000366835               0.000000000               0.000000000               0.000000000               0.000000000               0.000168224               0.001319875              -0.000105932              -0.000101900               0.000473921               0.000372020               0.000000000               0.000000000               0.000000000               0.000000000               0.000152180               0.001355781              -0.000087167              -0.000112405               0.000489391               0.000376986               0.000000000               0.000000000               0.000000000               0.000000000               0.000146181               0.001394449              -0.000074470              -0.000119488               0.000504641               0.000385153               0.000000000               0.000000000               0.000000000               0.000000000               0.000142521               0.001444457              -0.000063307              -0.000127111               0.000523851               0.000396740               0.000000000               0.000000000               0.000000000               0.000000000               0.000133440               0.001512638              -0.000049732              -0.000139040               0.000550554               0.000411515               0.000000000               0.000000000               0.000000000               0.000000000               0.000116636               0.001587376              -0.000032557              -0.000154683               0.000580681               0.000425998               0.000000000               0.000000000               0.000000000               0.000000000               0.000093957               0.001657705              -0.000021857              -0.000171979               0.000609889               0.000437910               0.000000000               0.000000000               0.000000000               0.000000000               0.000065654               0.001722485              -0.000017953              -0.000190690               0.000637719               0.000447029               0.000000000               0.000000000               0.000000000               0.000000000               0.000039437               0.001786855              -0.000011883              -0.000208567               0.000665135               0.000456567               0.000000000               0.000000000               0.000000000               0.000000000               0.000018335               0.001848516              -0.000005207              -0.000224188               0.000690895               0.000466707               0.000000000               0.000000000               0.000000000               0.000000000               0.000013075               0.001887895              -0.000006237              -0.000231083               0.000706320               0.000475237               0.000000000               0.000000000               0.000000000               0.000000000               0.000482882               0.000915099              -0.000534637               0.000066692               0.000282799               0.000349491               0.000000000               0.000000000               0.000000000               0.000000000               0.000338557               0.000984296              -0.000423400               0.000003921               0.000326788               0.000330709               0.000000000               0.000000000               0.000000000               0.000000000               0.000245766               0.001120702              -0.000297093              -0.000047925               0.000389539               0.000341613               0.000000000               0.000000000               0.000000000               0.000000000               0.000223435               0.001180163              -0.000223296              -0.000063732               0.000414628               0.000350896               0.000000000               0.000000000               0.000000000               0.000000000               0.000207641               0.001228884              -0.000175873              -0.000075745               0.000434872               0.000359127               0.000000000               0.000000000               0.000000000               0.000000000               0.000185650               0.001285180              -0.000142519              -0.000091029               0.000458732               0.000367703               0.000000000               0.000000000               0.000000000               0.000000000               0.000165925               0.001339909              -0.000116452              -0.000105267               0.000481721               0.000376454               0.000000000               0.000000000               0.000000000               0.000000000               0.000156689               0.001390483              -0.000093641              -0.000115052               0.000501840               0.000386789               0.000000000               0.000000000               0.000000000               0.000000000               0.000157695               0.001448963              -0.000072549              -0.000121984               0.000523644               0.000401660               0.000000000               0.000000000               0.000000000               0.000000000               0.000161142               0.001527830              -0.000053131              -0.000130550               0.000552788               0.000422238               0.000000000               0.000000000               0.000000000               0.000000000               0.000153968               0.001619333              -0.000036595              -0.000144678               0.000587998               0.000443320               0.000000000               0.000000000               0.000000000               0.000000000               0.000134721               0.001706834              -0.000024232              -0.000162834               0.000623217               0.000460383               0.000000000               0.000000000               0.000000000               0.000000000               0.000113312               0.001786833              -0.000016041              -0.000180862               0.000655892               0.000475030               0.000000000               0.000000000               0.000000000               0.000000000               0.000089309               0.001863703              -0.000010638              -0.000199472               0.000687719               0.000488247               0.000000000               0.000000000               0.000000000               0.000000000               0.000064244               0.001937743              -0.000004896              -0.000218126               0.000718617               0.000500491               0.000000000               0.000000000               0.000000000               0.000000000               0.000045393               0.002004840              -0.000001055              -0.000233582               0.000746134               0.000512552               0.000000000               0.000000000               0.000000000               0.000000000               0.000035320               0.002038057               0.000000103              -0.000241512               0.000759849               0.000518338               0.000000000               0.000000000               0.000000000               0.000000000               0.000477368               0.000730436              -0.000477327               0.000087707               0.000214240               0.000301947               0.000000000               0.000000000               0.000000000               0.000000000               0.000348532               0.000843698              -0.000410254               0.000025237               0.000272817               0.000298054               0.000000000               0.000000000               0.000000000               0.000000000               0.000253478               0.001024145              -0.000319003              -0.000032964               0.000352366               0.000319402               0.000000000               0.000000000               0.000000000               0.000000000               0.000228115               0.001114078              -0.000247613              -0.000053717               0.000389261               0.000335545               0.000000000               0.000000000               0.000000000               0.000000000               0.000213679               0.001183313              -0.000197226              -0.000067784               0.000417029               0.000349244               0.000000000               0.000000000               0.000000000               0.000000000               0.000195236               0.001252577              -0.000163221              -0.000083359               0.000445308               0.000361949               0.000000000               0.000000000               0.000000000               0.000000000               0.000176333               0.001320690              -0.000136409              -0.000098961               0.000473213               0.000374251               0.000000000               0.000000000               0.000000000               0.000000000               0.000165328               0.001388226              -0.000109234              -0.000111530               0.000499914               0.000388384               0.000000000               0.000000000               0.000000000               0.000000000               0.000168395               0.001464581              -0.000084867              -0.000119924               0.000528164               0.000408239               0.000000000               0.000000000               0.000000000               0.000000000               0.000181012               0.001555925              -0.000063541              -0.000126611               0.000560840               0.000434229               0.000000000               0.000000000               0.000000000               0.000000000               0.000185288               0.001649526              -0.000045325              -0.000136707               0.000595406               0.000458698               0.000000000               0.000000000               0.000000000               0.000000000               0.000175063               0.001740505              -0.000033277              -0.000151914               0.000630800               0.000478886               0.000000000               0.000000000               0.000000000               0.000000000               0.000160567               0.001832376              -0.000023147              -0.000168834               0.000667064               0.000498230               0.000000000               0.000000000               0.000000000               0.000000000               0.000141668               0.001914711              -0.000012282              -0.000186213               0.000700302               0.000514089               0.000000000               0.000000000               0.000000000               0.000000000               0.000118777               0.001989972              -0.000006979              -0.000204204               0.000731386               0.000527181               0.000000000               0.000000000               0.000000000               0.000000000               0.000098030               0.002061047              -0.000004311              -0.000220869               0.000760632               0.000539763               0.000000000               0.000000000               0.000000000               0.000000000               0.000081565               0.002087914               0.000000857              -0.000230402               0.000772765               0.000542363               0.000000000               0.000000000               0.000000000               0.000000000               0.000448756               0.000554677              -0.000407781               0.000098948               0.000151908               0.000250856               0.000000000               0.000000000               0.000000000               0.000000000               0.000355482               0.000700092              -0.000384893               0.000045793               0.000218097               0.000263890               0.000000000               0.000000000               0.000000000               0.000000000               0.000270468               0.000911095              -0.000332108              -0.000012462               0.000307849               0.000295388               0.000000000               0.000000000               0.000000000               0.000000000               0.000244192               0.001031507              -0.000269432              -0.000037366               0.000356288               0.000318921               0.000000000               0.000000000               0.000000000               0.000000000               0.000230025               0.001121081              -0.000219947              -0.000053876               0.000391649               0.000337773               0.000000000               0.000000000               0.000000000               0.000000000               0.000214944               0.001203171              -0.000184887              -0.000069792               0.000424317               0.000354525               0.000000000               0.000000000               0.000000000               0.000000000               0.000197154               0.001282988              -0.000156639              -0.000086441               0.000456472               0.000370031               0.000000000               0.000000000               0.000000000               0.000000000               0.000186241               0.001364119              -0.000129703              -0.000100674               0.000488260               0.000387586               0.000000000               0.000000000               0.000000000               0.000000000               0.000192242               0.001455749              -0.000107543              -0.000109878               0.000521871               0.000411993               0.000000000               0.000000000               0.000000000               0.000000000               0.000208473               0.001552038              -0.000084276              -0.000115827               0.000555950               0.000440123               0.000000000               0.000000000               0.000000000               0.000000000               0.000222138               0.001648242              -0.000060832              -0.000122728               0.000590318               0.000467590               0.000000000               0.000000000               0.000000000               0.000000000               0.000224393               0.001743697              -0.000045588              -0.000133814               0.000625831               0.000492017               0.000000000               0.000000000               0.000000000               0.000000000               0.000216376               0.001836419              -0.000034692              -0.000148411               0.000661604               0.000513193               0.000000000               0.000000000               0.000000000               0.000000000               0.000204446               0.001921237              -0.000021057              -0.000163487               0.000694901               0.000531414               0.000000000               0.000000000               0.000000000               0.000000000               0.000187002               0.001999246              -0.000010077              -0.000179780               0.000726335               0.000546555               0.000000000               0.000000000               0.000000000               0.000000000               0.000161051               0.002066346              -0.000004494              -0.000197899               0.000754741               0.000556843               0.000000000               0.000000000               0.000000000               0.000000000               0.000139147               0.002090656               0.000000412              -0.000209151               0.000766595               0.000557444               0.000000000               0.000000000               0.000000000               0.000000000               0.000399190               0.000401433              -0.000328011               0.000099516               0.000100637               0.000200153               0.000000000               0.000000000               0.000000000               0.000000000               0.000349382               0.000561719              -0.000342129               0.000060803               0.000166970               0.000227773               0.000000000               0.000000000               0.000000000               0.000000000               0.000291287               0.000786577              -0.000325583               0.000010910               0.000258553               0.000269463               0.000000000               0.000000000               0.000000000               0.000000000               0.000267944               0.000931411              -0.000276469              -0.000015948               0.000315783               0.000299835               0.000000000               0.000000000               0.000000000               0.000000000               0.000254194               0.001040911              -0.000231734              -0.000034791               0.000358564               0.000323773               0.000000000               0.000000000               0.000000000               0.000000000               0.000241513               0.001136985              -0.000198005              -0.000051556               0.000396176               0.000344621               0.000000000               0.000000000               0.000000000               0.000000000               0.000228257               0.001227932              -0.000171060              -0.000067895               0.000431938               0.000364043               0.000000000               0.000000000               0.000000000               0.000000000               0.000223184               0.001326167              -0.000148763              -0.000082077               0.000469410               0.000387333               0.000000000               0.000000000               0.000000000               0.000000000               0.000226797               0.001431953              -0.000128190              -0.000093945               0.000508628               0.000414683               0.000000000               0.000000000               0.000000000               0.000000000               0.000237679               0.001537435              -0.000104102              -0.000103049               0.000546823               0.000443774               0.000000000               0.000000000               0.000000000               0.000000000               0.000255359               0.001642252              -0.000079775              -0.000109521               0.000583919               0.000474398               0.000000000               0.000000000               0.000000000               0.000000000               0.000268290               0.001742247              -0.000060460              -0.000117172               0.000619801               0.000502629               0.000000000               0.000000000               0.000000000               0.000000000               0.000268514               0.001831941              -0.000046342              -0.000128299               0.000653407               0.000525108               0.000000000               0.000000000               0.000000000               0.000000000               0.000261646               0.001915487              -0.000031868              -0.000141318               0.000685595               0.000544277               0.000000000               0.000000000               0.000000000               0.000000000               0.000250110               0.001994448              -0.000015152              -0.000155514               0.000716647               0.000561133               0.000000000               0.000000000               0.000000000               0.000000000               0.000229678               0.002064965              -0.000004621              -0.000171991               0.000745645               0.000573654               0.000000000               0.000000000               0.000000000               0.000000000               0.000207027               0.002091302               0.000001571              -0.000183777               0.000758353               0.000574576               0.000000000               0.000000000               0.000000000               0.000000000               0.000331716               0.000277273              -0.000245691               0.000089733               0.000062512               0.000152246               0.000000000               0.000000000               0.000000000               0.000000000               0.000332025               0.000435358              -0.000285932               0.000070089               0.000121755               0.000191844               0.000000000               0.000000000               0.000000000               0.000000000               0.000309817               0.000658770              -0.000297652               0.000033834               0.000208310               0.000242144               0.000000000               0.000000000               0.000000000               0.000000000               0.000296411               0.000821250              -0.000263062               0.000008497               0.000270915               0.000279412               0.000000000               0.000000000               0.000000000               0.000000000               0.000285345               0.000948321              -0.000226851              -0.000011536               0.000319949               0.000308413               0.000000000               0.000000000               0.000000000               0.000000000               0.000276366               0.001057186              -0.000198490              -0.000028511               0.000361895               0.000333384               0.000000000               0.000000000               0.000000000               0.000000000               0.000268798               0.001163683              -0.000176022              -0.000044661               0.000402778               0.000358116               0.000000000               0.000000000               0.000000000               0.000000000               0.000265941               0.001279101              -0.000156977              -0.000060160               0.000446416               0.000386256               0.000000000               0.000000000               0.000000000               0.000000000               0.000266479               0.001397614              -0.000138042              -0.000074772               0.000490791               0.000416019               0.000000000               0.000000000               0.000000000               0.000000000               0.000274747               0.001514874              -0.000118117              -0.000086329               0.000533729               0.000447400               0.000000000               0.000000000               0.000000000               0.000000000               0.000291116               0.001627061              -0.000095770              -0.000094214               0.000573753               0.000479539               0.000000000               0.000000000               0.000000000               0.000000000               0.000305111               0.001723648              -0.000073615              -0.000101039               0.000608223               0.000507184               0.000000000               0.000000000               0.000000000               0.000000000               0.000312053               0.001810814              -0.000055297              -0.000109332               0.000640042               0.000530711               0.000000000               0.000000000               0.000000000               0.000000000               0.000311373               0.001895899              -0.000038415              -0.000120222               0.000672034               0.000551812               0.000000000               0.000000000               0.000000000               0.000000000               0.000307298               0.001976941              -0.000020775              -0.000131881               0.000702934               0.000571053               0.000000000               0.000000000               0.000000000               0.000000000               0.000300220               0.002054555              -0.000007160              -0.000144236               0.000732923               0.000588687               0.000000000               0.000000000               0.000000000               0.000000000               0.000285353               0.002085816               0.000000911              -0.000153719               0.000746505               0.000592786               0.000000000               0.000000000               0.000000000               0.000000000               0.000256876               0.000180782              -0.000169069               0.000073730               0.000035683               0.000109413               0.000000000               0.000000000               0.000000000               0.000000000               0.000308253               0.000328479              -0.000219425               0.000074534               0.000084647               0.000159181               0.000000000               0.000000000               0.000000000               0.000000000               0.000322120               0.000539451              -0.000246525               0.000053363               0.000162028               0.000215390               0.000000000               0.000000000               0.000000000               0.000000000               0.000324779               0.000710483              -0.000226764               0.000032981               0.000225832               0.000258813               0.000000000               0.000000000               0.000000000               0.000000000               0.000321289               0.000852120              -0.000200977               0.000013968               0.000279381               0.000293349               0.000000000               0.000000000               0.000000000               0.000000000               0.000315640               0.000975657              -0.000179833              -0.000003592               0.000326413               0.000322821               0.000000000               0.000000000               0.000000000               0.000000000               0.000312555               0.001099727              -0.000162918              -0.000020258               0.000373325               0.000353067               0.000000000               0.000000000               0.000000000               0.000000000               0.000310124               0.001228307              -0.000147312              -0.000037242               0.000421846               0.000384604               0.000000000               0.000000000               0.000000000               0.000000000               0.000312015               0.001354284              -0.000133169              -0.000052280               0.000468850               0.000416570               0.000000000               0.000000000               0.000000000               0.000000000               0.000318977               0.001477036              -0.000118099              -0.000065013               0.000514011               0.000448998               0.000000000               0.000000000               0.000000000               0.000000000               0.000328291               0.001591003              -0.000098657              -0.000075766               0.000555584               0.000479818               0.000000000               0.000000000               0.000000000               0.000000000               0.000338046               0.001687771              -0.000077198              -0.000084204               0.000590653               0.000506449               0.000000000               0.000000000               0.000000000               0.000000000               0.000347369               0.001778052              -0.000057044              -0.000091993               0.000623342               0.000531350               0.000000000               0.000000000               0.000000000               0.000000000               0.000354867               0.001869568              -0.000039473              -0.000100621               0.000656723               0.000556103               0.000000000               0.000000000               0.000000000               0.000000000               0.000362184               0.001960753              -0.000025939              -0.000109275               0.000690003               0.000580728               0.000000000               0.000000000               0.000000000               0.000000000               0.000368953               0.002047518              -0.000013233              -0.000117582               0.000721693               0.000604111               0.000000000               0.000000000               0.000000000               0.000000000               0.000364712               0.002084370              -0.000004603              -0.000123779               0.000736043               0.000612264               0.000000000               0.000000000               0.000000000               0.000000000               0.000187761               0.000116393              -0.000103453               0.000055861               0.000020177               0.000076038               0.000000000               0.000000000               0.000000000               0.000000000               0.000280772               0.000247901              -0.000147125               0.000074301               0.000057866               0.000132167               0.000000000               0.000000000               0.000000000               0.000000000               0.000330131               0.000441235              -0.000176007               0.000068644               0.000124196               0.000192840               0.000000000               0.000000000               0.000000000               0.000000000               0.000348447               0.000615677              -0.000167588               0.000053707               0.000187321               0.000241029               0.000000000               0.000000000               0.000000000               0.000000000               0.000353044               0.000766009              -0.000151750               0.000036640               0.000243120               0.000279761               0.000000000               0.000000000               0.000000000               0.000000000               0.000353929               0.000905190              -0.000138097               0.000019574               0.000295202               0.000314777               0.000000000               0.000000000               0.000000000               0.000000000               0.000353555               0.001044723              -0.000126628               0.000001992               0.000347573               0.000349566               0.000000000               0.000000000               0.000000000               0.000000000               0.000355032               0.001176294              -0.000117271              -0.000013900               0.000396727               0.000382827               0.000000000               0.000000000               0.000000000               0.000000000               0.000356339               0.001303847              -0.000108333              -0.000029354               0.000444396               0.000415042               0.000000000               0.000000000               0.000000000               0.000000000               0.000358518               0.001431092              -0.000096254              -0.000044442               0.000491840               0.000447398               0.000000000               0.000000000               0.000000000               0.000000000               0.000361253               0.001546230              -0.000081059              -0.000057809               0.000534674               0.000476866               0.000000000               0.000000000               0.000000000               0.000000000               0.000367182               0.001649324              -0.000065241              -0.000068472               0.000572593               0.000504121               0.000000000               0.000000000               0.000000000               0.000000000               0.000379078               0.001749998              -0.000049798              -0.000076595               0.000608859               0.000532264               0.000000000               0.000000000               0.000000000               0.000000000               0.000394672               0.001849459              -0.000036593              -0.000083180               0.000644207               0.000561027               0.000000000               0.000000000               0.000000000               0.000000000               0.000410366               0.001945083              -0.000026699              -0.000089248               0.000678104               0.000588856               0.000000000               0.000000000               0.000000000               0.000000000               0.000425307               0.002037516              -0.000015269              -0.000095199               0.000710898               0.000615699               0.000000000               0.000000000               0.000000000               0.000000000               0.000429527               0.002081155              -0.000007674              -0.000099071               0.000726735               0.000627664               0.000000000               0.000000000               0.000000000               0.000000000               0.000138726               0.000079718              -0.000048835               0.000042057               0.000012553               0.000054611               0.000000000               0.000000000               0.000000000               0.000000000               0.000258541               0.000196878              -0.000073395               0.000072343               0.000041511               0.000113854               0.000000000               0.000000000               0.000000000               0.000000000               0.000335998               0.000378168              -0.000091854               0.000078728               0.000099812               0.000178540               0.000000000               0.000000000               0.000000000               0.000000000               0.000363472               0.000551534              -0.000089459               0.000067360               0.000161390               0.000228749               0.000000000               0.000000000               0.000000000               0.000000000               0.000375195               0.000705859              -0.000081878               0.000052465               0.000217796               0.000270261               0.000000000               0.000000000               0.000000000               0.000000000               0.000381962               0.000856009              -0.000074891               0.000036234               0.000273255               0.000309490               0.000000000               0.000000000               0.000000000               0.000000000               0.000386313               0.001004227              -0.000069849               0.000019339               0.000328293               0.000347632               0.000000000               0.000000000               0.000000000               0.000000000               0.000387366               0.001138000              -0.000066386               0.000003012               0.000378326               0.000381338               0.000000000               0.000000000               0.000000000               0.000000000               0.000385397               0.001265157              -0.000061132              -0.000013621               0.000426255               0.000412634               0.000000000               0.000000000               0.000000000               0.000000000               0.000384039               0.001390274              -0.000053861              -0.000029770               0.000473343               0.000443574               0.000000000               0.000000000               0.000000000               0.000000000               0.000386495               0.001510697              -0.000045593              -0.000043901               0.000518194               0.000474293               0.000000000               0.000000000               0.000000000               0.000000000               0.000393799               0.001626044              -0.000038695              -0.000055581               0.000560536               0.000504956               0.000000000               0.000000000               0.000000000               0.000000000               0.000405865               0.001734264              -0.000031388              -0.000064584               0.000599610               0.000535026               0.000000000               0.000000000               0.000000000               0.000000000               0.000421698               0.001833226              -0.000023348              -0.000071016               0.000634741               0.000563725               0.000000000               0.000000000               0.000000000               0.000000000               0.000440266               0.001927981              -0.000016752              -0.000075898               0.000667953               0.000592055               0.000000000               0.000000000               0.000000000               0.000000000               0.000463560               0.002028325              -0.000009686              -0.000079705               0.000702670               0.000622965               0.000000000               0.000000000               0.000000000               0.000000000               0.000476173               0.002079903              -0.000005398              -0.000081423               0.000720435               0.000639012               0.000000000               0.000000000               0.000000000               0.000000000               0.000000000               0.000000000               0.000000000               0.000000000               0.000000000               0.000000000               0.000000000               0.000000000               0.000000000               0.000000000               0.000000000               0.000000000               0.000000000               0.000000000               0.000000000               0.000000000               0.000000000               0.000000000               0.000000000               0.000000000               0.000000000               0.000000000               0.000000000               0.000000000               0.000000000               0.000000000               0.000000000               0.000000000               0.000000000               0.000000000               0.000000000               0.000000000               0.000000000               0.000000000               0.000000000               0.000000000               0.000000000               0.000000000               0.000000000               0.000000000               0.000000000               0.000000000               0.000000000               0.000000000               0.000000000               0.000000000               0.000000000               0.000000000               0.000000000               0.000000000               0.000000000               0.000000000               0.000000000               0.000000000               0.000000000               0.000000000               0.000000000               0.000000000               0.000000000               0.000000000               0.000000000               0.000000000               0.000000000               0.000000000               0.000000000               0.000000000               0.000000000               0.000000000               0.000000000               0.000000000               0.000000000               0.000000000               0.000000000               0.000000000               0.000000000               0.000000000               0.000000000               0.000000000               0.000000000               0.000000000               0.000000000               0.000000000               0.000000000               0.000000000               0.000000000               0.000000000               0.000000000               0.000000000               0.000000000               0.000000000               0.000000000               0.000000000               0.000000000               0.000000000               0.000000000               0.000000000               0.000000000               0.000000000               0.000000000               0.000000000               0.000000000               0.000000000               0.000000000               0.000000000               0.000000000               0.000000000               0.000000000               0.000000000               0.000000000               0.000000000               0.000000000               0.000000000               0.000000000               0.000000000               0.000000000               0.000000000               0.000000000               0.000000000               0.000000000               0.000000000               0.000000000               0.000000000               0.000000000               0.000000000               0.000000000               0.000000000               0.000000000               0.000000000               0.000000000               0.000000000               0.000000000               0.000000000               0.000000000               0.000000000               0.000000000               0.000000000               0.000000000               0.000000000               0.000000000               0.000000000               0.000000000               0.000000000               0.000000000               0.000000000               0.000000000               0.000000000               0.000000000               0.000000000               0.000000000               0.000000000               0.000000000               0.000000000               0.000000000               0.000000000               0.000000000               0.000000000               0.000000000               0.000000000               0.000000000               0.000000000               0.000000000               0.000000000               0.000000000               0.000000000               0.000000000               0.000000000               0.000000000               0.000000000               0.000000000               0.000000000               0.000000000               0.000000000               0.000000000               0.000000000               0.000000000               0.000000000               0.000000000               0.000000000               0.000000000               0.000000000               0.000000000               0.000000000               0.000000000               0.000000000               0.000000000               0.000000000               0.000000000               0.000000000               0.000000000               0.000000000               0.000000000               0.000000000               0.000000000               0.000000000               0.000000000               0.000000000               0.000000000               0.000000000               0.000000000               0.000000000               0.000000000               0.000000000               0.000000000               0.000000000               0.000000000               0.000000000               0.000000000               0.000000000               0.000000000               0.000000000               0.000000000               0.000000000               0.000000000               0.000000000               0.000000000               0.000000000               0.000000000               0.000000000               0.000000000               0.000000000               0.000000000               0.000000000               0.000000000               0.000000000               0.000000000               0.000000000               0.000000000               0.000000000               0.000000000               0.000000000               0.000000000               0.000000000               0.000000000               0.000000000               0.000000000               0.000000000               0.000000000               0.000000000               0.000000000               0.000000000               0.000000000               0.000000000               0.000000000               0.000000000               0.000000000               0.000000000               0.000000000               0.000000000               0.000000000               0.000000000               0.000000000               0.000000000               0.000000000               0.000000000               0.000000000               0.000000000               0.000000000               0.000000000               0.000000000               0.000000000               0.000000000               0.000000000               0.000000000               0.000000000               0.000000000               0.000000000               0.000000000               0.000000000               0.000000000               0.000000000               0.000000000               0.000000000               0.000000000               0.000000000               0.000000000               0.000000000               0.000000000               0.000000000               0.000000000               0.000000000               0.000000000               0.000000000               0.000000000               0.000000000               0.000000000               0.000000000               0.000000000               0.000000000               0.000000000               0.000000000               0.000000000               0.000000000               0.000000000               0.000000000               0.000000000               0.000000000               0.000000000               0.000000000               0.000000000               0.000000000               0.000000000               0.000000000               0.000000000               0.000000000               0.000000000               0.000000000               0.000000000               0.000000000               0.000000000               0.000000000               0.000000000               0.000000000               0.000000000               0.000000000               0.000000000               0.000000000               0.000000000               0.000000000               0.000000000               0.000000000               0.000000000               0.000000000               0.000000000               0.000000000               0.000000000               0.000000000               0.000000000               0.000000000               0.000000000               0.000000000               0.000000000               0.000000000               0.000000000               0.000000000               0.000000000               0.000000000               0.000000000               0.000000000               0.000000000               0.000000000               0.000205432               0.002170021               0.000172645              -0.000194215               0.000788072               0.000593856               0.000000000               0.000000000               0.000000000               0.000000000               0.000231311               0.001826062               0.000117426              -0.000141516               0.000655853               0.000514337               0.000000000               0.000000000               0.000000000               0.000000000               0.000327510               0.001549216               0.000061405              -0.000070836               0.000540012               0.000469176               0.000000000               0.000000000               0.000000000               0.000000000               0.000360771               0.001392736               0.000035853              -0.000038803               0.000477175               0.000438372               0.000000000               0.000000000               0.000000000               0.000000000               0.000371205               0.001297868               0.000024671              -0.000023032               0.000440295               0.000417264               0.000000000               0.000000000               0.000000000               0.000000000               0.000371006               0.001238632               0.000019858              -0.000015702               0.000418107               0.000402405               0.000000000               0.000000000               0.000000000               0.000000000               0.000362906               0.001204341               0.000016724              -0.000014453               0.000406261               0.000391808               0.000000000               0.000000000               0.000000000               0.000000000               0.000346604               0.001191212               0.000013235              -0.000018925               0.000403375               0.000384450               0.000000000               0.000000000               0.000000000               0.000000000               0.000320964               0.001196280               0.000010668              -0.000029174               0.000408481               0.000379307               0.000000000               0.000000000               0.000000000               0.000000000               0.000290283               0.001211355               0.000011654              -0.000042563               0.000417968               0.000375406               0.000000000               0.000000000               0.000000000               0.000000000               0.000260083               0.001231084               0.000016631              -0.000056354               0.000429142               0.000372788               0.000000000               0.000000000               0.000000000               0.000000000               0.000226948               0.001249576               0.000019900              -0.000071091               0.000440218               0.000369127               0.000000000               0.000000000               0.000000000               0.000000000               0.000189025               0.001271845               0.000017741              -0.000088096               0.000453309               0.000365213               0.000000000               0.000000000               0.000000000               0.000000000               0.000148292               0.001298743               0.000016074              -0.000106733               0.000468488               0.000361755               0.000000000               0.000000000               0.000000000               0.000000000               0.000102697               0.001326361               0.000014295              -0.000127283               0.000484544               0.000357260               0.000000000               0.000000000               0.000000000               0.000000000               0.000051306               0.001355800               0.000008388              -0.000150235               0.000502007               0.000351772               0.000000000               0.000000000               0.000000000               0.000000000               0.000028414               0.001380927               0.000005068              -0.000161960               0.000514291               0.000352331               0.000000000               0.000000000               0.000000000               0.000000000               0.000243905               0.002071831               0.000327062              -0.000167514               0.000746442               0.000578927               0.000000000               0.000000000               0.000000000               0.000000000               0.000247725               0.001756921               0.000223570              -0.000126718               0.000627874               0.000501156               0.000000000               0.000000000               0.000000000               0.000000000               0.000319397               0.001511778               0.000117736              -0.000069198               0.000526987               0.000457789               0.000000000               0.000000000               0.000000000               0.000000000               0.000341942               0.001377019               0.000070465              -0.000043899               0.000473635               0.000429736               0.000000000               0.000000000               0.000000000               0.000000000               0.000345220               0.001294599               0.000049890              -0.000032367               0.000442318               0.000409951               0.000000000               0.000000000               0.000000000               0.000000000               0.000339951               0.001246098               0.000040829              -0.000028280               0.000424789               0.000396508               0.000000000               0.000000000               0.000000000               0.000000000               0.000328916               0.001220771               0.000034379              -0.000029253               0.000416670               0.000387418               0.000000000               0.000000000               0.000000000               0.000000000               0.000310901               0.001213960               0.000026903              -0.000035157               0.000416368               0.000381211               0.000000000               0.000000000               0.000000000               0.000000000               0.000286043               0.001220724               0.000022334              -0.000045324               0.000422012               0.000376688               0.000000000               0.000000000               0.000000000               0.000000000               0.000260432               0.001232710               0.000024003              -0.000056427               0.000429708               0.000373281               0.000000000               0.000000000               0.000000000               0.000000000               0.000234081               0.001244902               0.000031415              -0.000067832               0.000437574               0.000369742               0.000000000               0.000000000               0.000000000               0.000000000               0.000204984               0.001258106               0.000034480              -0.000080394               0.000446163               0.000365768               0.000000000               0.000000000               0.000000000               0.000000000               0.000172945               0.001276064               0.000028887              -0.000094653               0.000456901               0.000362248               0.000000000               0.000000000               0.000000000               0.000000000               0.000136019               0.001295041               0.000025210              -0.000110873               0.000468634               0.000357761               0.000000000               0.000000000               0.000000000               0.000000000               0.000093335               0.001313091               0.000020448              -0.000129135               0.000480738               0.000351602               0.000000000               0.000000000               0.000000000               0.000000000               0.000046471               0.001330919               0.000010826              -0.000148938               0.000493281               0.000344343               0.000000000               0.000000000               0.000000000               0.000000000               0.000024915               0.001345084               0.000006327              -0.000158792               0.000501287               0.000342496               0.000000000               0.000000000               0.000000000               0.000000000               0.000298019               0.001921933               0.000452140              -0.000128484               0.000683466               0.000554981               0.000000000               0.000000000               0.000000000               0.000000000               0.000270009               0.001649864               0.000310786              -0.000104979               0.000584942               0.000479963               0.000000000               0.000000000               0.000000000               0.000000000               0.000307842               0.001457277               0.000166020              -0.000066719               0.000507994               0.000441275               0.000000000               0.000000000               0.000000000               0.000000000               0.000314687               0.001351659               0.000103540              -0.000050950               0.000467532               0.000416582               0.000000000               0.000000000               0.000000000               0.000000000               0.000309074               0.001288868               0.000076488              -0.000045206               0.000444687               0.000399481               0.000000000               0.000000000               0.000000000               0.000000000               0.000299441               0.001256191               0.000062557              -0.000044734               0.000433637               0.000388904               0.000000000               0.000000000               0.000000000               0.000000000               0.000283205               0.001242764               0.000052285              -0.000049144               0.000430632               0.000381488               0.000000000               0.000000000               0.000000000               0.000000000               0.000261865               0.001246156               0.000041581              -0.000057570               0.000434571               0.000377001               0.000000000               0.000000000               0.000000000               0.000000000               0.000239382               0.001254122               0.000034451              -0.000066997               0.000440369               0.000373372               0.000000000               0.000000000               0.000000000               0.000000000               0.000219964               0.001263502               0.000036517              -0.000075451               0.000446314               0.000370863               0.000000000               0.000000000               0.000000000               0.000000000               0.000200574               0.001269249               0.000043072              -0.000083441               0.000450892               0.000367452               0.000000000               0.000000000               0.000000000               0.000000000               0.000175818               0.001277533               0.000041406              -0.000093759               0.000457093               0.000363334               0.000000000               0.000000000               0.000000000               0.000000000               0.000146997               0.001289966               0.000031857              -0.000106122               0.000465358               0.000359237               0.000000000               0.000000000               0.000000000               0.000000000               0.000116854               0.001302699               0.000025501              -0.000119017               0.000473901               0.000354884               0.000000000               0.000000000               0.000000000               0.000000000               0.000083094               0.001315826               0.000017671              -0.000133318               0.000483043               0.000349726               0.000000000               0.000000000               0.000000000               0.000000000               0.000043305               0.001327596               0.000007300              -0.000149710               0.000492431               0.000342721               0.000000000               0.000000000               0.000000000               0.000000000               0.000024674               0.001337839               0.000004228              -0.000157977               0.000498601               0.000340624               0.000000000               0.000000000               0.000000000               0.000000000               0.000355069               0.001731929               0.000541259              -0.000083340               0.000605084               0.000521744               0.000000000               0.000000000               0.000000000               0.000000000               0.000293025               0.001518020               0.000374150              -0.000079868               0.000532624               0.000452756               0.000000000               0.000000000               0.000000000               0.000000000               0.000293378               0.001389754               0.000205305              -0.000063702               0.000484481               0.000420778               0.000000000               0.000000000               0.000000000               0.000000000               0.000284910               0.001318356               0.000134857              -0.000057953               0.000458765               0.000400812               0.000000000               0.000000000               0.000000000               0.000000000               0.000274382               0.001279505               0.000102194              -0.000057045               0.000445512               0.000388468               0.000000000               0.000000000               0.000000000               0.000000000               0.000258572               0.001263792               0.000084583              -0.000061009               0.000441596               0.000380587               0.000000000               0.000000000               0.000000000               0.000000000               0.000237445               0.001265360               0.000069615              -0.000069128               0.000444825               0.000375697               0.000000000               0.000000000               0.000000000               0.000000000               0.000214774               0.001278920               0.000055311              -0.000079324               0.000452744               0.000373419               0.000000000               0.000000000               0.000000000               0.000000000               0.000193164               0.001291034               0.000047527              -0.000088943               0.000459988               0.000371045               0.000000000               0.000000000               0.000000000               0.000000000               0.000178021               0.001297635               0.000048774              -0.000095446               0.000464356               0.000368910               0.000000000               0.000000000               0.000000000               0.000000000               0.000163760               0.001301946               0.000052779              -0.000101333               0.000467755               0.000366422               0.000000000               0.000000000               0.000000000               0.000000000               0.000144673               0.001311958               0.000045323              -0.000109742               0.000473896               0.000364153               0.000000000               0.000000000               0.000000000               0.000000000               0.000122146               0.001325294               0.000032524              -0.000119857               0.000481712               0.000361856               0.000000000               0.000000000               0.000000000               0.000000000               0.000099665               0.001339602               0.000024419              -0.000130075               0.000489888               0.000359812               0.000000000               0.000000000               0.000000000               0.000000000               0.000072967               0.001356100               0.000016120              -0.000142149               0.000499412               0.000357263               0.000000000               0.000000000               0.000000000               0.000000000               0.000036951               0.001371410               0.000006968              -0.000157569               0.000509655               0.000352086               0.000000000               0.000000000               0.000000000               0.000000000               0.000021198               0.001385333               0.000005126              -0.000165217               0.000516846               0.000351628               0.000000000               0.000000000               0.000000000               0.000000000               0.000408499               0.001520057               0.000589640              -0.000036821               0.000518954               0.000482133               0.000000000               0.000000000               0.000000000               0.000000000               0.000312392               0.001376954               0.000413713              -0.000054973               0.000477304               0.000422332               0.000000000               0.000000000               0.000000000               0.000000000               0.000277441               0.001318741               0.000237032              -0.000060802               0.000459843               0.000399041               0.000000000               0.000000000               0.000000000               0.000000000               0.000259624               0.001281808               0.000162980              -0.000062867               0.000448221               0.000385354               0.000000000               0.000000000               0.000000000               0.000000000               0.000245816               0.001265341               0.000126897              -0.000065986               0.000443772               0.000377785               0.000000000               0.000000000               0.000000000               0.000000000               0.000227002               0.001267010               0.000104460              -0.000073250               0.000446749               0.000373499               0.000000000               0.000000000               0.000000000               0.000000000               0.000202938               0.001284704               0.000084705              -0.000084486               0.000456392               0.000371906               0.000000000               0.000000000               0.000000000               0.000000000               0.000179592               0.001307509               0.000068091              -0.000096092               0.000467862               0.000371771               0.000000000               0.000000000               0.000000000               0.000000000               0.000160015               0.001322411               0.000060111              -0.000105295               0.000475898               0.000370602               0.000000000               0.000000000               0.000000000               0.000000000               0.000146250               0.001332067               0.000060781              -0.000111664               0.000481239               0.000369575               0.000000000               0.000000000               0.000000000               0.000000000               0.000135436               0.001346078               0.000059566              -0.000117471               0.000487845               0.000370374               0.000000000               0.000000000               0.000000000               0.000000000               0.000120914               0.001369119               0.000047448              -0.000125797               0.000498301               0.000372504               0.000000000               0.000000000               0.000000000               0.000000000               0.000100131               0.001394691               0.000034401              -0.000136787               0.000510488               0.000373701               0.000000000               0.000000000               0.000000000               0.000000000               0.000078337               0.001421903               0.000026142              -0.000148361               0.000523417               0.000375056               0.000000000               0.000000000               0.000000000               0.000000000               0.000054486               0.001450175               0.000017630              -0.000160839               0.000537000               0.000376161               0.000000000               0.000000000               0.000000000               0.000000000               0.000025843               0.001478222               0.000008669              -0.000175086               0.000551098               0.000376012               0.000000000               0.000000000               0.000000000               0.000000000               0.000016103               0.001500633               0.000007205              -0.000181540               0.000560719               0.000379179               0.000000000               0.000000000               0.000000000               0.000000000               0.000448328               0.001307324               0.000599463               0.000004707               0.000434201               0.000438908               0.000000000               0.000000000               0.000000000               0.000000000               0.000325666               0.001237085               0.000431828              -0.000032511               0.000423195               0.000390683               0.000000000               0.000000000               0.000000000               0.000000000               0.000261303               0.001248199               0.000261424              -0.000058036               0.000435408               0.000377371               0.000000000               0.000000000               0.000000000               0.000000000               0.000239182               0.001244285               0.000187146              -0.000065842               0.000436705               0.000370863               0.000000000               0.000000000               0.000000000               0.000000000               0.000225516               0.001250549               0.000147591              -0.000071750               0.000440762               0.000369012               0.000000000               0.000000000               0.000000000               0.000000000               0.000205530               0.001269714               0.000120019              -0.000081640               0.000450447               0.000368807               0.000000000               0.000000000               0.000000000               0.000000000               0.000181455               0.001301196               0.000096460              -0.000094604               0.000465262               0.000370659               0.000000000               0.000000000               0.000000000               0.000000000               0.000159710               0.001329775               0.000079492              -0.000106330               0.000478697               0.000372367               0.000000000               0.000000000               0.000000000               0.000000000               0.000145053               0.001350723               0.000070935              -0.000114445               0.000488385               0.000373940               0.000000000               0.000000000               0.000000000               0.000000000               0.000135729               0.001374794               0.000067199              -0.000120951               0.000498577               0.000377626               0.000000000               0.000000000               0.000000000               0.000000000               0.000125569               0.001410587               0.000060237              -0.000129235               0.000513269               0.000384034               0.000000000               0.000000000               0.000000000               0.000000000               0.000110201               0.001457464               0.000044088              -0.000140857               0.000532769               0.000391912               0.000000000               0.000000000               0.000000000               0.000000000               0.000089320               0.001507374               0.000030571              -0.000154926               0.000554095               0.000399169               0.000000000               0.000000000               0.000000000               0.000000000               0.000065576               0.001555287               0.000023593              -0.000169819               0.000575030               0.000405211               0.000000000               0.000000000               0.000000000               0.000000000               0.000041918               0.001601921               0.000016415              -0.000184520               0.000595475               0.000410955               0.000000000               0.000000000               0.000000000               0.000000000               0.000018951               0.001648675               0.000007911              -0.000198977               0.000615879               0.000416901               0.000000000               0.000000000               0.000000000               0.000000000               0.000013924               0.001682035               0.000007362              -0.000205032               0.000629017               0.000423985               0.000000000               0.000000000               0.000000000               0.000000000               0.000470364               0.001101430               0.000578498               0.000038707               0.000354237               0.000392944               0.000000000               0.000000000               0.000000000               0.000000000               0.000331331               0.001104011               0.000432394              -0.000013753               0.000372584               0.000358831               0.000000000               0.000000000               0.000000000               0.000000000               0.000248336               0.001180769               0.000279245              -0.000054470               0.000411742               0.000357272               0.000000000               0.000000000               0.000000000               0.000000000               0.000226417               0.001209908               0.000205783              -0.000066332               0.000425409               0.000359077               0.000000000               0.000000000               0.000000000               0.000000000               0.000212273               0.001238538               0.000162426              -0.000075215               0.000437914               0.000362699               0.000000000               0.000000000               0.000000000               0.000000000               0.000191283               0.001276073               0.000130922              -0.000087778               0.000454613               0.000366835               0.000000000               0.000000000               0.000000000               0.000000000               0.000168224               0.001319875               0.000105932              -0.000101900               0.000473921               0.000372020               0.000000000               0.000000000               0.000000000               0.000000000               0.000152180               0.001355781               0.000087167              -0.000112405               0.000489391               0.000376986               0.000000000               0.000000000               0.000000000               0.000000000               0.000146181               0.001394449               0.000074470              -0.000119488               0.000504641               0.000385153               0.000000000               0.000000000               0.000000000               0.000000000               0.000142521               0.001444457               0.000063307              -0.000127111               0.000523851               0.000396740               0.000000000               0.000000000               0.000000000               0.000000000               0.000133440               0.001512638               0.000049732              -0.000139040               0.000550554               0.000411515               0.000000000               0.000000000               0.000000000               0.000000000               0.000116636               0.001587376               0.000032557              -0.000154683               0.000580681               0.000425998               0.000000000               0.000000000               0.000000000               0.000000000               0.000093957               0.001657705               0.000021857              -0.000171979               0.000609889               0.000437910               0.000000000               0.000000000               0.000000000               0.000000000               0.000065654               0.001722485               0.000017953              -0.000190690               0.000637719               0.000447029               0.000000000               0.000000000               0.000000000               0.000000000               0.000039437               0.001786855               0.000011883              -0.000208567               0.000665135               0.000456567               0.000000000               0.000000000               0.000000000               0.000000000               0.000018335               0.001848516               0.000005207              -0.000224188               0.000690895               0.000466707               0.000000000               0.000000000               0.000000000               0.000000000               0.000013075               0.001887895               0.000006237              -0.000231083               0.000706320               0.000475237               0.000000000               0.000000000               0.000000000               0.000000000               0.000482882               0.000915099               0.000534637               0.000066692               0.000282799               0.000349491               0.000000000               0.000000000               0.000000000               0.000000000               0.000338557               0.000984296               0.000423400               0.000003921               0.000326788               0.000330709               0.000000000               0.000000000               0.000000000               0.000000000               0.000245766               0.001120702               0.000297093              -0.000047925               0.000389539               0.000341613               0.000000000               0.000000000               0.000000000               0.000000000               0.000223435               0.001180163               0.000223296              -0.000063732               0.000414628               0.000350896               0.000000000               0.000000000               0.000000000               0.000000000               0.000207641               0.001228884               0.000175873              -0.000075745               0.000434872               0.000359127               0.000000000               0.000000000               0.000000000               0.000000000               0.000185650               0.001285180               0.000142519              -0.000091029               0.000458732               0.000367703               0.000000000               0.000000000               0.000000000               0.000000000               0.000165925               0.001339909               0.000116452              -0.000105267               0.000481721               0.000376454               0.000000000               0.000000000               0.000000000               0.000000000               0.000156689               0.001390483               0.000093641              -0.000115052               0.000501840               0.000386789               0.000000000               0.000000000               0.000000000               0.000000000               0.000157695               0.001448963               0.000072549              -0.000121984               0.000523644               0.000401660               0.000000000               0.000000000               0.000000000               0.000000000               0.000161142               0.001527830               0.000053131              -0.000130550               0.000552788               0.000422238               0.000000000               0.000000000               0.000000000               0.000000000               0.000153968               0.001619333               0.000036595              -0.000144678               0.000587998               0.000443320               0.000000000               0.000000000               0.000000000               0.000000000               0.000134721               0.001706834               0.000024232              -0.000162834               0.000623217               0.000460383               0.000000000               0.000000000               0.000000000               0.000000000               0.000113312               0.001786833               0.000016041              -0.000180862               0.000655892               0.000475030               0.000000000               0.000000000               0.000000000               0.000000000               0.000089309               0.001863703               0.000010638              -0.000199472               0.000687719               0.000488247               0.000000000               0.000000000               0.000000000               0.000000000               0.000064244               0.001937743               0.000004896              -0.000218126               0.000718617               0.000500491               0.000000000               0.000000000               0.000000000               0.000000000               0.000045393               0.002004840               0.000001055              -0.000233582               0.000746134               0.000512552               0.000000000               0.000000000               0.000000000               0.000000000               0.000035320               0.002038057              -0.000000103              -0.000241512               0.000759849               0.000518338               0.000000000               0.000000000               0.000000000               0.000000000               0.000477368               0.000730436               0.000477327               0.000087707               0.000214240               0.000301947               0.000000000               0.000000000               0.000000000               0.000000000               0.000348532               0.000843698               0.000410254               0.000025237               0.000272817               0.000298054               0.000000000               0.000000000               0.000000000               0.000000000               0.000253478               0.001024145               0.000319003              -0.000032964               0.000352366               0.000319402               0.000000000               0.000000000               0.000000000               0.000000000               0.000228115               0.001114078               0.000247613              -0.000053717               0.000389261               0.000335545               0.000000000               0.000000000               0.000000000               0.000000000               0.000213679               0.001183313               0.000197226              -0.000067784               0.000417029               0.000349244               0.000000000               0.000000000               0.000000000               0.000000000               0.000195236               0.001252577               0.000163221              -0.000083359               0.000445308               0.000361949               0.000000000               0.000000000               0.000000000               0.000000000               0.000176333               0.001320690               0.000136409              -0.000098961               0.000473213               0.000374251               0.000000000               0.000000000               0.000000000               0.000000000               0.000165328               0.001388226               0.000109234              -0.000111530               0.000499914               0.000388384               0.000000000               0.000000000               0.000000000               0.000000000               0.000168395               0.001464581               0.000084867              -0.000119924               0.000528164               0.000408239               0.000000000               0.000000000               0.000000000               0.000000000               0.000181012               0.001555925               0.000063541              -0.000126611               0.000560840               0.000434229               0.000000000               0.000000000               0.000000000               0.000000000               0.000185288               0.001649526               0.000045325              -0.000136707               0.000595406               0.000458698               0.000000000               0.000000000               0.000000000               0.000000000               0.000175063               0.001740505               0.000033277              -0.000151914               0.000630800               0.000478886               0.000000000               0.000000000               0.000000000               0.000000000               0.000160567               0.001832376               0.000023147              -0.000168834               0.000667064               0.000498230               0.000000000               0.000000000               0.000000000               0.000000000               0.000141668               0.001914711               0.000012282              -0.000186213               0.000700302               0.000514089               0.000000000               0.000000000               0.000000000               0.000000000               0.000118777               0.001989972               0.000006979              -0.000204204               0.000731386               0.000527181               0.000000000               0.000000000               0.000000000               0.000000000               0.000098030               0.002061047               0.000004311              -0.000220869               0.000760632               0.000539763               0.000000000               0.000000000               0.000000000               0.000000000               0.000081565               0.002087914              -0.000000857              -0.000230402               0.000772765               0.000542363               0.000000000               0.000000000               0.000000000               0.000000000               0.000448756               0.000554677               0.000407781               0.000098948               0.000151908               0.000250856               0.000000000               0.000000000               0.000000000               0.000000000               0.000355482               0.000700092               0.000384893               0.000045793               0.000218097               0.000263890               0.000000000               0.000000000               0.000000000               0.000000000               0.000270468               0.000911095               0.000332108              -0.000012462               0.000307849               0.000295388               0.000000000               0.000000000               0.000000000               0.000000000               0.000244192               0.001031507               0.000269432              -0.000037366               0.000356288               0.000318921               0.000000000               0.000000000               0.000000000               0.000000000               0.000230025               0.001121081               0.000219947              -0.000053876               0.000391649               0.000337773               0.000000000               0.000000000               0.000000000               0.000000000               0.000214944               0.001203171               0.000184887              -0.000069792               0.000424317               0.000354525               0.000000000               0.000000000               0.000000000               0.000000000               0.000197154               0.001282988               0.000156639              -0.000086441               0.000456472               0.000370031               0.000000000               0.000000000               0.000000000               0.000000000               0.000186241               0.001364119               0.000129703              -0.000100674               0.000488260               0.000387586               0.000000000               0.000000000               0.000000000               0.000000000               0.000192242               0.001455749               0.000107543              -0.000109878               0.000521871               0.000411993               0.000000000               0.000000000               0.000000000               0.000000000               0.000208473               0.001552038               0.000084276              -0.000115827               0.000555950               0.000440123               0.000000000               0.000000000               0.000000000               0.000000000               0.000222138               0.001648242               0.000060832              -0.000122728               0.000590318               0.000467590               0.000000000               0.000000000               0.000000000               0.000000000               0.000224393               0.001743697               0.000045588              -0.000133814               0.000625831               0.000492017               0.000000000               0.000000000               0.000000000               0.000000000               0.000216376               0.001836419               0.000034692              -0.000148411               0.000661604               0.000513193               0.000000000               0.000000000               0.000000000               0.000000000               0.000204446               0.001921237               0.000021057              -0.000163487               0.000694901               0.000531414               0.000000000               0.000000000               0.000000000               0.000000000               0.000187002               0.001999246               0.000010077              -0.000179780               0.000726335               0.000546555               0.000000000               0.000000000               0.000000000               0.000000000               0.000161051               0.002066346               0.000004494              -0.000197899               0.000754741               0.000556843               0.000000000               0.000000000               0.000000000               0.000000000               0.000139147               0.002090656              -0.000000412              -0.000209151               0.000766595               0.000557444               0.000000000               0.000000000               0.000000000               0.000000000               0.000399190               0.000401433               0.000328011               0.000099516               0.000100637               0.000200153               0.000000000               0.000000000               0.000000000               0.000000000               0.000349382               0.000561719               0.000342129               0.000060803               0.000166970               0.000227773               0.000000000               0.000000000               0.000000000               0.000000000               0.000291287               0.000786577               0.000325583               0.000010910               0.000258553               0.000269463               0.000000000               0.000000000               0.000000000               0.000000000               0.000267944               0.000931411               0.000276469              -0.000015948               0.000315783               0.000299835               0.000000000               0.000000000               0.000000000               0.000000000               0.000254194               0.001040911               0.000231734              -0.000034791               0.000358564               0.000323773               0.000000000               0.000000000               0.000000000               0.000000000               0.000241513               0.001136985               0.000198005              -0.000051556               0.000396176               0.000344621               0.000000000               0.000000000               0.000000000               0.000000000               0.000228257               0.001227932               0.000171060              -0.000067895               0.000431938               0.000364043               0.000000000               0.000000000               0.000000000               0.000000000               0.000223184               0.001326167               0.000148763              -0.000082077               0.000469410               0.000387333               0.000000000               0.000000000               0.000000000               0.000000000               0.000226797               0.001431953               0.000128190              -0.000093945               0.000508628               0.000414683               0.000000000               0.000000000               0.000000000               0.000000000               0.000237679               0.001537435               0.000104102              -0.000103049               0.000546823               0.000443774               0.000000000               0.000000000               0.000000000               0.000000000               0.000255359               0.001642252               0.000079775              -0.000109521               0.000583919               0.000474398               0.000000000               0.000000000               0.000000000               0.000000000               0.000268290               0.001742247               0.000060460              -0.000117172               0.000619801               0.000502629               0.000000000               0.000000000               0.000000000               0.000000000               0.000268514               0.001831941               0.000046342              -0.000128299               0.000653407               0.000525108               0.000000000               0.000000000               0.000000000               0.000000000               0.000261646               0.001915487               0.000031868              -0.000141318               0.000685595               0.000544277               0.000000000               0.000000000               0.000000000               0.000000000               0.000250110               0.001994448               0.000015152              -0.000155514               0.000716647               0.000561133               0.000000000               0.000000000               0.000000000               0.000000000               0.000229678               0.002064965               0.000004621              -0.000171991               0.000745645               0.000573654               0.000000000               0.000000000               0.000000000               0.000000000               0.000207027               0.002091302              -0.000001571              -0.000183777               0.000758353               0.000574576               0.000000000               0.000000000               0.000000000               0.000000000               0.000331716               0.000277273               0.000245691               0.000089733               0.000062512               0.000152246               0.000000000               0.000000000               0.000000000               0.000000000               0.000332025               0.000435358               0.000285932               0.000070089               0.000121755               0.000191844               0.000000000               0.000000000               0.000000000               0.000000000               0.000309817               0.000658770               0.000297652               0.000033834               0.000208310               0.000242144               0.000000000               0.000000000               0.000000000               0.000000000               0.000296411               0.000821250               0.000263062               0.000008497               0.000270915               0.000279412               0.000000000               0.000000000               0.000000000               0.000000000               0.000285345               0.000948321               0.000226851              -0.000011536               0.000319949               0.000308413               0.000000000               0.000000000               0.000000000               0.000000000               0.000276366               0.001057186               0.000198490              -0.000028511               0.000361895               0.000333384               0.000000000               0.000000000               0.000000000               0.000000000               0.000268798               0.001163683               0.000176022              -0.000044661               0.000402778               0.000358116               0.000000000               0.000000000               0.000000000               0.000000000               0.000265941               0.001279101               0.000156977              -0.000060160               0.000446416               0.000386256               0.000000000               0.000000000               0.000000000               0.000000000               0.000266479               0.001397614               0.000138042              -0.000074772               0.000490791               0.000416019               0.000000000               0.000000000               0.000000000               0.000000000               0.000274747               0.001514874               0.000118117              -0.000086329               0.000533729               0.000447400               0.000000000               0.000000000               0.000000000               0.000000000               0.000291116               0.001627061               0.000095770              -0.000094214               0.000573753               0.000479539               0.000000000               0.000000000               0.000000000               0.000000000               0.000305111               0.001723648               0.000073615              -0.000101039               0.000608223               0.000507184               0.000000000               0.000000000               0.000000000               0.000000000               0.000312053               0.001810814               0.000055297              -0.000109332               0.000640042               0.000530711               0.000000000               0.000000000               0.000000000               0.000000000               0.000311373               0.001895899               0.000038415              -0.000120222               0.000672034               0.000551812               0.000000000               0.000000000               0.000000000               0.000000000               0.000307298               0.001976941               0.000020775              -0.000131881               0.000702934               0.000571053               0.000000000               0.000000000               0.000000000               0.000000000               0.000300220               0.002054555               0.000007160              -0.000144236               0.000732923               0.000588687               0.000000000               0.000000000               0.000000000               0.000000000               0.000285353               0.002085816              -0.000000911              -0.000153719               0.000746505               0.000592786               0.000000000               0.000000000               0.000000000               0.000000000               0.000256876               0.000180782               0.000169069               0.000073730               0.000035683               0.000109413               0.000000000               0.000000000               0.000000000               0.000000000               0.000308253               0.000328479               0.000219425               0.000074534               0.000084647               0.000159181               0.000000000               0.000000000               0.000000000               0.000000000               0.000322120               0.000539451               0.000246525               0.000053363               0.000162028               0.000215390               0.000000000               0.000000000               0.000000000               0.000000000               0.000324779               0.000710483               0.000226764               0.000032981               0.000225832               0.000258813               0.000000000               0.000000000               0.000000000               0.000000000               0.000321289               0.000852120               0.000200977               0.000013968               0.000279381               0.000293349               0.000000000               0.000000000               0.000000000               0.000000000               0.000315640               0.000975657               0.000179833              -0.000003592               0.000326413               0.000322821               0.000000000               0.000000000               0.000000000               0.000000000               0.000312555               0.001099727               0.000162918              -0.000020258               0.000373325               0.000353067               0.000000000               0.000000000               0.000000000               0.000000000               0.000310124               0.001228307               0.000147312              -0.000037242               0.000421846               0.000384604               0.000000000               0.000000000               0.000000000               0.000000000               0.000312015               0.001354284               0.000133169              -0.000052280               0.000468850               0.000416570               0.000000000               0.000000000               0.000000000               0.000000000               0.000318977               0.001477036               0.000118099              -0.000065013               0.000514011               0.000448998               0.000000000               0.000000000               0.000000000               0.000000000               0.000328291               0.001591003               0.000098657              -0.000075766               0.000555584               0.000479818               0.000000000               0.000000000               0.000000000               0.000000000               0.000338046               0.001687771               0.000077198              -0.000084204               0.000590653               0.000506449               0.000000000               0.000000000               0.000000000               0.000000000               0.000347369               0.001778052               0.000057044              -0.000091993               0.000623342               0.000531350               0.000000000               0.000000000               0.000000000               0.000000000               0.000354867               0.001869568               0.000039473              -0.000100621               0.000656723               0.000556103               0.000000000               0.000000000               0.000000000               0.000000000               0.000362184               0.001960753               0.000025939              -0.000109275               0.000690003               0.000580728               0.000000000               0.000000000               0.000000000               0.000000000               0.000368953               0.002047518               0.000013233              -0.000117582               0.000721693               0.000604111               0.000000000               0.000000000               0.000000000               0.000000000               0.000364712               0.002084370               0.000004603              -0.000123779               0.000736043               0.000612264               0.000000000               0.000000000               0.000000000               0.000000000               0.000187761               0.000116393               0.000103453               0.000055861               0.000020177               0.000076038               0.000000000               0.000000000               0.000000000               0.000000000               0.000280772               0.000247901               0.000147125               0.000074301               0.000057866               0.000132167               0.000000000               0.000000000               0.000000000               0.000000000               0.000330131               0.000441235               0.000176007               0.000068644               0.000124196               0.000192840               0.000000000               0.000000000               0.000000000               0.000000000               0.000348447               0.000615677               0.000167588               0.000053707               0.000187321               0.000241029               0.000000000               0.000000000               0.000000000               0.000000000               0.000353044               0.000766009               0.000151750               0.000036640               0.000243120               0.000279761               0.000000000               0.000000000               0.000000000               0.000000000               0.000353929               0.000905190               0.000138097               0.000019574               0.000295202               0.000314777               0.000000000               0.000000000               0.000000000               0.000000000               0.000353555               0.001044723               0.000126628               0.000001992               0.000347573               0.000349566               0.000000000               0.000000000               0.000000000               0.000000000               0.000355032               0.001176294               0.000117271              -0.000013900               0.000396727               0.000382827               0.000000000               0.000000000               0.000000000               0.000000000               0.000356339               0.001303847               0.000108333              -0.000029354               0.000444396               0.000415042               0.000000000               0.000000000               0.000000000               0.000000000               0.000358518               0.001431092               0.000096254              -0.000044442               0.000491840               0.000447398               0.000000000               0.000000000               0.000000000               0.000000000               0.000361253               0.001546230               0.000081059              -0.000057809               0.000534674               0.000476866               0.000000000               0.000000000               0.000000000               0.000000000               0.000367182               0.001649324               0.000065241              -0.000068472               0.000572593               0.000504121               0.000000000               0.000000000               0.000000000               0.000000000               0.000379078               0.001749998               0.000049798              -0.000076595               0.000608859               0.000532264               0.000000000               0.000000000               0.000000000               0.000000000               0.000394672               0.001849459               0.000036593              -0.000083180               0.000644207               0.000561027               0.000000000               0.000000000               0.000000000               0.000000000               0.000410366               0.001945083               0.000026699              -0.000089248               0.000678104               0.000588856               0.000000000               0.000000000               0.000000000               0.000000000               0.000425307               0.002037516               0.000015269              -0.000095199               0.000710898               0.000615699               0.000000000               0.000000000               0.000000000               0.000000000               0.000429527               0.002081155               0.000007674              -0.000099071               0.000726735               0.000627664               0.000000000               0.000000000               0.000000000               0.000000000               0.000138726               0.000079718               0.000048835               0.000042057               0.000012553               0.000054611               0.000000000               0.000000000               0.000000000               0.000000000               0.000258541               0.000196878               0.000073395               0.000072343               0.000041511               0.000113854               0.000000000               0.000000000               0.000000000               0.000000000               0.000335998               0.000378168               0.000091854               0.000078728               0.000099812               0.000178540               0.000000000               0.000000000               0.000000000               0.000000000               0.000363472               0.000551534               0.000089459               0.000067360               0.000161390               0.000228749               0.000000000               0.000000000               0.000000000               0.000000000               0.000375195               0.000705859               0.000081878               0.000052465               0.000217796               0.000270261               0.000000000               0.000000000               0.000000000               0.000000000               0.000381962               0.000856009               0.000074891               0.000036234               0.000273255               0.000309490               0.000000000               0.000000000               0.000000000               0.000000000               0.000386313               0.001004227               0.000069849               0.000019339               0.000328293               0.000347632               0.000000000               0.000000000               0.000000000               0.000000000               0.000387366               0.001138000               0.000066386               0.000003012               0.000378326               0.000381338               0.000000000               0.000000000               0.000000000               0.000000000               0.000385397               0.001265157               0.000061132              -0.000013621               0.000426255               0.000412634               0.000000000               0.000000000               0.000000000               0.000000000               0.000384039               0.001390274               0.000053861              -0.000029770               0.000473343               0.000443574               0.000000000               0.000000000               0.000000000               0.000000000               0.000386495               0.001510697               0.000045593              -0.000043901               0.000518194               0.000474293               0.000000000               0.000000000               0.000000000               0.000000000               0.000393799               0.001626044               0.000038695              -0.000055581               0.000560536               0.000504956               0.000000000               0.000000000               0.000000000               0.000000000               0.000405865               0.001734264               0.000031388              -0.000064584               0.000599610               0.000535026               0.000000000               0.000000000               0.000000000               0.000000000               0.000421698               0.001833226               0.000023348              -0.000071016               0.000634741               0.000563725               0.000000000               0.000000000               0.000000000               0.000000000               0.000440266               0.001927981               0.000016752              -0.000075898               0.000667953               0.000592055               0.000000000               0.000000000               0.000000000               0.000000000               0.000463560               0.002028325               0.000009686              -0.000079705               0.000702670               0.000622965               0.000000000               0.000000000               0.000000000               0.000000000               0.000476173               0.002079903               0.000005398              -0.000081423               0.000720435               0.000639012               0.000000000               0.000000000               0.000000000               0.000000000               0.000000000               0.000000000               0.000000000               0.000000000               0.000000000               0.000000000               0.000000000               0.000000000               0.000000000               0.000000000               0.000000000               0.000000000               0.000000000               0.000000000               0.000000000               0.000000000               0.000000000               0.000000000               0.000000000               0.000000000               0.000000000               0.000000000               0.000000000               0.000000000               0.000000000               0.000000000               0.000000000               0.000000000               0.000000000               0.000000000               0.000000000               0.000000000               0.000000000               0.000000000               0.000000000               0.000000000               0.000000000               0.000000000               0.000000000               0.000000000               0.000000000               0.000000000               0.000000000               0.000000000               0.000000000               0.000000000               0.000000000               0.000000000               0.000000000               0.000000000               0.000000000               0.000000000               0.000000000               0.000000000               0.000000000               0.000000000               0.000000000               0.000000000               0.000000000               0.000000000               0.000000000               0.000000000               0.000000000               0.000000000               0.000000000               0.000000000               0.000000000               0.000000000               0.000000000               0.000000000               0.000000000               0.000000000               0.000000000               0.000000000               0.000000000               0.000000000               0.000000000               0.000000000               0.000000000               0.000000000               0.000000000               0.000000000               0.000000000               0.000000000               0.000000000               0.000000000               0.000000000               0.000000000               0.000000000               0.000000000               0.000000000               0.000000000               0.000000000               0.000000000               0.000000000               0.000000000               0.000000000               0.000000000               0.000000000               0.000000000               0.000000000               0.000000000               0.000000000               0.000000000               0.000000000               0.000000000               0.000000000               0.000000000               0.000000000               0.000000000               0.000000000               0.000000000               0.000000000               0.000000000               0.000000000               0.000000000               0.000000000               0.000000000               0.000000000               0.000000000               0.000000000               0.000000000               0.000000000               0.000000000               0.000000000               0.000000000               0.000000000               0.000000000               0.000000000               0.000000000               0.000000000               0.000000000               0.000000000               0.000000000               0.000000000               0.000000000               0.000000000               0.000000000               0.000000000               0.000000000               0.000000000               0.000000000               0.000000000               0.000000000               0.000000000               0.000000000               0.000000000               0.000000000               0.000000000               0.000000000               0.000000000               0.000000000               0.000000000               0.000000000               0.000000000               0.000000000               0.000000000               0.000000000               0.000000000               0.000000000               0.000000000               0.000000000               0.000000000               0.000000000               0.000000000               0.000000000               0.000000000               0.000000000               0.000000000               0.000000000 </DataArray>
</PointData>
</Piece>
</UnstructuredGrid> </VTKFile>
