<?xml version="1.0"?>
<VTKFile type="UnstructuredGrid" version="0.1">
<UnstructuredGrid>
<Piece NumberOfPoints="      1156" NumberOfCells="      1024">
<Points>
<DataArray type="Float64"                                    Name="coordinates"                                                      NumberOfComponents=" 3" format="ascii">
              0.133000000               0.000000000               0.000000000               0.155937500               0.000000000               0.000000000               0.178875000               0.000000000               0.000000000               0.201812500               0.000000000               0.000000000               0.224750000               0.000000000               0.000000000               0.247687500               0.000000000               0.000000000               0.270625000               0.000000000               0.000000000               0.293562500               0.000000000               0.000000000               0.316500000               0.000000000               0.000000000               0.339437500               0.000000000               0.000000000               0.362375000               0.000000000               0.000000000               0.385312500               0.000000000               0.000000000               0.408250000               0.000000000               0.000000000               0.431187500               0.000000000               0.000000000               0.454125000               0.000000000               0.000000000               0.477062500               0.000000000               0.000000000               0.500000000               0.000000000               0.000000000               0.132359569               0.013036280               0.000000000               0.155337096               0.016127762               0.000000000               0.178314623               0.019219245               0.000000000               0.201292150               0.022310727               0.000000000               0.224269676               0.025402210               0.000000000               0.247247203               0.028493692               0.000000000               0.270224730               0.031585175               0.000000000               0.293202257               0.034676657               0.000000000               0.316179784               0.037768140               0.000000000               0.339157311               0.040859622               0.000000000               0.362134838               0.043951105               0.000000000               0.385112365               0.047042587               0.000000000               0.408089892               0.050134070               0.000000000               0.431067419               0.053225552               0.000000000               0.454044946               0.056317035               0.000000000               0.477022473               0.059408517               0.000000000               0.500000000               0.062500000               0.000000000               0.130444442               0.025947013               0.000000000               0.153541665               0.032137825               0.000000000               0.176638887               0.038328636               0.000000000               0.199736109               0.044519448               0.000000000               0.222833332               0.050710260               0.000000000               0.245930554               0.056901071               0.000000000               0.269027776               0.063091883               0.000000000               0.292124999               0.069282695               0.000000000               0.315222221               0.075473506               0.000000000               0.338319444               0.081664318               0.000000000               0.361416666               0.087855130               0.000000000               0.384513888               0.094045942               0.000000000               0.407611111               0.100236753               0.000000000               0.430708333               0.106427565               0.000000000               0.453805555               0.112618377               0.000000000               0.476902778               0.118809188               0.000000000               0.500000000               0.125000000               0.000000000               0.127273065               0.038607862               0.000000000               0.150568498               0.047913621               0.000000000               0.173863932               0.057219379               0.000000000               0.197159365               0.066525138               0.000000000               0.220454798               0.075830897               0.000000000               0.243750232               0.085136655               0.000000000               0.267045665               0.094442414               0.000000000               0.290341099               0.103748172               0.000000000               0.313636532               0.113053931               0.000000000               0.336931966               0.122359690               0.000000000               0.360227399               0.131665448               0.000000000               0.383522833               0.140971207               0.000000000               0.406818266               0.150276966               0.000000000               0.430113700               0.159582724               0.000000000               0.453409133               0.168888483               0.000000000               0.476704567               0.178194241               0.000000000               0.500000000               0.187500000               0.000000000               0.122875978               0.050896897               0.000000000               0.146446229               0.063340840               0.000000000               0.170016481               0.075784784               0.000000000               0.193586732               0.088228728               0.000000000               0.217156983               0.100672672               0.000000000               0.240727235               0.113116616               0.000000000               0.264297486               0.125560560               0.000000000               0.287867738               0.138004504               0.000000000               0.311437989               0.150448448               0.000000000               0.335008240               0.162892392               0.000000000               0.358578492               0.175336336               0.000000000               0.382148743               0.187780280               0.000000000               0.405718994               0.200224224               0.000000000               0.429289246               0.212668168               0.000000000               0.452859497               0.225112112               0.000000000               0.476429749               0.237556056               0.000000000               0.500000000               0.250000000               0.000000000               0.117295528               0.062695766               0.000000000               0.141214558               0.078308531               0.000000000               0.165133587               0.093921295               0.000000000               0.189052617               0.109534060               0.000000000               0.212971646               0.125146824               0.000000000               0.236890676               0.140759589               0.000000000               0.260809705               0.156372354               0.000000000               0.284728735               0.171985118               0.000000000               0.308647764               0.187597883               0.000000000               0.332566794               0.203210648               0.000000000               0.356485823               0.218823412               0.000000000               0.380404853               0.234436177               0.000000000               0.404323882               0.250048941               0.000000000               0.428242912               0.265661706               0.000000000               0.452161941               0.281274471               0.000000000               0.476080971               0.296887235               0.000000000               0.500000000               0.312500000               0.000000000               0.110585458               0.073890841               0.000000000               0.134923867               0.092710163               0.000000000               0.159262276               0.111529486               0.000000000               0.183600685               0.130348808               0.000000000               0.207939094               0.149168131               0.000000000               0.232277503               0.167987453               0.000000000               0.256615912               0.186806776               0.000000000               0.280954320               0.205626098               0.000000000               0.305292729               0.224445420               0.000000000               0.329631138               0.243264743               0.000000000               0.353969547               0.262084065               0.000000000               0.378307956               0.280903388               0.000000000               0.402646365               0.299722710               0.000000000               0.426984773               0.318542033               0.000000000               0.451323182               0.337361355               0.000000000               0.475661591               0.356180678               0.000000000               0.500000000               0.375000000               0.000000000               0.102810390               0.084374307               0.000000000               0.127634741               0.106444663               0.000000000               0.152459092               0.128515018               0.000000000               0.177283442               0.150585374               0.000000000               0.202107793               0.172655730               0.000000000               0.226932143               0.194726086               0.000000000               0.251756494               0.216796442               0.000000000               0.276580845               0.238866798               0.000000000               0.301405195               0.260937153               0.000000000               0.326229546               0.283007509               0.000000000               0.351053896               0.305077865               0.000000000               0.375878247               0.327148221               0.000000000               0.400702598               0.349218577               0.000000000               0.425526948               0.371288933               0.000000000               0.450351299               0.393359288               0.000000000               0.475175649               0.415429644               0.000000000               0.500000000               0.437500000               0.000000000               0.094045202               0.094045202               0.000000000               0.119417377               0.119417377               0.000000000               0.144789552               0.144789552               0.000000000               0.170161727               0.170161727               0.000000000               0.195533901               0.195533901               0.000000000               0.220906076               0.220906076               0.000000000               0.246278251               0.246278251               0.000000000               0.271650426               0.271650426               0.000000000               0.297022601               0.297022601               0.000000000               0.322394776               0.322394776               0.000000000               0.347766951               0.347766951               0.000000000               0.373139126               0.373139126               0.000000000               0.398511300               0.398511300               0.000000000               0.423883475               0.423883475               0.000000000               0.449255650               0.449255650               0.000000000               0.474627825               0.474627825               0.000000000               0.500000000               0.500000000               0.000000000               0.084374307               0.102810390               0.000000000               0.106444663               0.127634741               0.000000000               0.128515018               0.152459092               0.000000000               0.150585374               0.177283442               0.000000000               0.172655730               0.202107793               0.000000000               0.194726086               0.226932143               0.000000000               0.216796442               0.251756494               0.000000000               0.238866798               0.276580845               0.000000000               0.260937153               0.301405195               0.000000000               0.283007509               0.326229546               0.000000000               0.305077865               0.351053896               0.000000000               0.327148221               0.375878247               0.000000000               0.349218577               0.400702598               0.000000000               0.371288933               0.425526948               0.000000000               0.393359288               0.450351299               0.000000000               0.415429644               0.475175649               0.000000000               0.437500000               0.500000000               0.000000000               0.073890841               0.110585458               0.000000000               0.092710163               0.134923867               0.000000000               0.111529486               0.159262276               0.000000000               0.130348808               0.183600685               0.000000000               0.149168131               0.207939094               0.000000000               0.167987453               0.232277503               0.000000000               0.186806776               0.256615912               0.000000000               0.205626098               0.280954320               0.000000000               0.224445420               0.305292729               0.000000000               0.243264743               0.329631138               0.000000000               0.262084065               0.353969547               0.000000000               0.280903388               0.378307956               0.000000000               0.299722710               0.402646365               0.000000000               0.318542033               0.426984773               0.000000000               0.337361355               0.451323182               0.000000000               0.356180678               0.475661591               0.000000000               0.375000000               0.500000000               0.000000000               0.062695766               0.117295528               0.000000000               0.078308531               0.141214558               0.000000000               0.093921295               0.165133587               0.000000000               0.109534060               0.189052617               0.000000000               0.125146824               0.212971646               0.000000000               0.140759589               0.236890676               0.000000000               0.156372354               0.260809705               0.000000000               0.171985118               0.284728735               0.000000000               0.187597883               0.308647764               0.000000000               0.203210648               0.332566794               0.000000000               0.218823412               0.356485823               0.000000000               0.234436177               0.380404853               0.000000000               0.250048941               0.404323882               0.000000000               0.265661706               0.428242912               0.000000000               0.281274471               0.452161941               0.000000000               0.296887235               0.476080971               0.000000000               0.312500000               0.500000000               0.000000000               0.050896897               0.122875978               0.000000000               0.063340840               0.146446229               0.000000000               0.075784784               0.170016481               0.000000000               0.088228728               0.193586732               0.000000000               0.100672672               0.217156983               0.000000000               0.113116616               0.240727235               0.000000000               0.125560560               0.264297486               0.000000000               0.138004504               0.287867738               0.000000000               0.150448448               0.311437989               0.000000000               0.162892392               0.335008240               0.000000000               0.175336336               0.358578492               0.000000000               0.187780280               0.382148743               0.000000000               0.200224224               0.405718994               0.000000000               0.212668168               0.429289246               0.000000000               0.225112112               0.452859497               0.000000000               0.237556056               0.476429749               0.000000000               0.250000000               0.500000000               0.000000000               0.038607862               0.127273065               0.000000000               0.047913621               0.150568498               0.000000000               0.057219379               0.173863932               0.000000000               0.066525138               0.197159365               0.000000000               0.075830897               0.220454798               0.000000000               0.085136655               0.243750232               0.000000000               0.094442414               0.267045665               0.000000000               0.103748172               0.290341099               0.000000000               0.113053931               0.313636532               0.000000000               0.122359690               0.336931966               0.000000000               0.131665448               0.360227399               0.000000000               0.140971207               0.383522833               0.000000000               0.150276966               0.406818266               0.000000000               0.159582724               0.430113700               0.000000000               0.168888483               0.453409133               0.000000000               0.178194241               0.476704567               0.000000000               0.187500000               0.500000000               0.000000000               0.025947013               0.130444442               0.000000000               0.032137825               0.153541665               0.000000000               0.038328636               0.176638887               0.000000000               0.044519448               0.199736109               0.000000000               0.050710260               0.222833332               0.000000000               0.056901071               0.245930554               0.000000000               0.063091883               0.269027776               0.000000000               0.069282695               0.292124999               0.000000000               0.075473506               0.315222221               0.000000000               0.081664318               0.338319444               0.000000000               0.087855130               0.361416666               0.000000000               0.094045942               0.384513888               0.000000000               0.100236753               0.407611111               0.000000000               0.106427565               0.430708333               0.000000000               0.112618377               0.453805555               0.000000000               0.118809188               0.476902778               0.000000000               0.125000000               0.500000000               0.000000000               0.013036280               0.132359569               0.000000000               0.016127762               0.155337096               0.000000000               0.019219245               0.178314623               0.000000000               0.022310727               0.201292150               0.000000000               0.025402210               0.224269676               0.000000000               0.028493692               0.247247203               0.000000000               0.031585175               0.270224730               0.000000000               0.034676657               0.293202257               0.000000000               0.037768140               0.316179784               0.000000000               0.040859622               0.339157311               0.000000000               0.043951105               0.362134838               0.000000000               0.047042587               0.385112365               0.000000000               0.050134070               0.408089892               0.000000000               0.053225552               0.431067419               0.000000000               0.056317035               0.454044946               0.000000000               0.059408517               0.477022473               0.000000000               0.062500000               0.500000000               0.000000000               0.000000000               0.133000000               0.000000000               0.000000000               0.155937500               0.000000000               0.000000000               0.178875000               0.000000000               0.000000000               0.201812500               0.000000000               0.000000000               0.224750000               0.000000000               0.000000000               0.247687500               0.000000000               0.000000000               0.270625000               0.000000000               0.000000000               0.293562500               0.000000000               0.000000000               0.316500000               0.000000000               0.000000000               0.339437500               0.000000000               0.000000000               0.362375000               0.000000000               0.000000000               0.385312500               0.000000000               0.000000000               0.408250000               0.000000000               0.000000000               0.431187500               0.000000000               0.000000000               0.454125000               0.000000000               0.000000000               0.477062500               0.000000000               0.000000000               0.500000000               0.000000000               0.133000000               0.000000000               0.000000000               0.155937500               0.000000000               0.000000000               0.178875000               0.000000000               0.000000000               0.201812500               0.000000000               0.000000000               0.224750000               0.000000000               0.000000000               0.247687500               0.000000000               0.000000000               0.270625000               0.000000000               0.000000000               0.293562500               0.000000000               0.000000000               0.316500000               0.000000000               0.000000000               0.339437500               0.000000000               0.000000000               0.362375000               0.000000000               0.000000000               0.385312500               0.000000000               0.000000000               0.408250000               0.000000000               0.000000000               0.431187500               0.000000000               0.000000000               0.454125000               0.000000000               0.000000000               0.477062500               0.000000000               0.000000000               0.500000000               0.000000000               0.000000000               0.132359569              -0.013036280               0.000000000               0.155337096              -0.016127762               0.000000000               0.178314623              -0.019219245               0.000000000               0.201292150              -0.022310727               0.000000000               0.224269676              -0.025402210               0.000000000               0.247247203              -0.028493692               0.000000000               0.270224730              -0.031585175               0.000000000               0.293202257              -0.034676657               0.000000000               0.316179784              -0.037768140               0.000000000               0.339157311              -0.040859622               0.000000000               0.362134838              -0.043951105               0.000000000               0.385112365              -0.047042587               0.000000000               0.408089892              -0.050134070               0.000000000               0.431067419              -0.053225552               0.000000000               0.454044946              -0.056317035               0.000000000               0.477022473              -0.059408517               0.000000000               0.500000000              -0.062500000               0.000000000               0.130444442              -0.025947013               0.000000000               0.153541665              -0.032137825               0.000000000               0.176638887              -0.038328636               0.000000000               0.199736109              -0.044519448               0.000000000               0.222833332              -0.050710260               0.000000000               0.245930554              -0.056901071               0.000000000               0.269027776              -0.063091883               0.000000000               0.292124999              -0.069282695               0.000000000               0.315222221              -0.075473506               0.000000000               0.338319444              -0.081664318               0.000000000               0.361416666              -0.087855130               0.000000000               0.384513888              -0.094045942               0.000000000               0.407611111              -0.100236753               0.000000000               0.430708333              -0.106427565               0.000000000               0.453805555              -0.112618377               0.000000000               0.476902778              -0.118809188               0.000000000               0.500000000              -0.125000000               0.000000000               0.127273065              -0.038607862               0.000000000               0.150568498              -0.047913621               0.000000000               0.173863932              -0.057219379               0.000000000               0.197159365              -0.066525138               0.000000000               0.220454798              -0.075830897               0.000000000               0.243750232              -0.085136655               0.000000000               0.267045665              -0.094442414               0.000000000               0.290341099              -0.103748172               0.000000000               0.313636532              -0.113053931               0.000000000               0.336931966              -0.122359690               0.000000000               0.360227399              -0.131665448               0.000000000               0.383522833              -0.140971207               0.000000000               0.406818266              -0.150276966               0.000000000               0.430113700              -0.159582724               0.000000000               0.453409133              -0.168888483               0.000000000               0.476704567              -0.178194241               0.000000000               0.500000000              -0.187500000               0.000000000               0.122875978              -0.050896897               0.000000000               0.146446229              -0.063340840               0.000000000               0.170016481              -0.075784784               0.000000000               0.193586732              -0.088228728               0.000000000               0.217156983              -0.100672672               0.000000000               0.240727235              -0.113116616               0.000000000               0.264297486              -0.125560560               0.000000000               0.287867738              -0.138004504               0.000000000               0.311437989              -0.150448448               0.000000000               0.335008240              -0.162892392               0.000000000               0.358578492              -0.175336336               0.000000000               0.382148743              -0.187780280               0.000000000               0.405718994              -0.200224224               0.000000000               0.429289246              -0.212668168               0.000000000               0.452859497              -0.225112112               0.000000000               0.476429749              -0.237556056               0.000000000               0.500000000              -0.250000000               0.000000000               0.117295528              -0.062695766               0.000000000               0.141214558              -0.078308531               0.000000000               0.165133587              -0.093921295               0.000000000               0.189052617              -0.109534060               0.000000000               0.212971646              -0.125146824               0.000000000               0.236890676              -0.140759589               0.000000000               0.260809705              -0.156372354               0.000000000               0.284728735              -0.171985118               0.000000000               0.308647764              -0.187597883               0.000000000               0.332566794              -0.203210648               0.000000000               0.356485823              -0.218823412               0.000000000               0.380404853              -0.234436177               0.000000000               0.404323882              -0.250048941               0.000000000               0.428242912              -0.265661706               0.000000000               0.452161941              -0.281274471               0.000000000               0.476080971              -0.296887235               0.000000000               0.500000000              -0.312500000               0.000000000               0.110585458              -0.073890841               0.000000000               0.134923867              -0.092710163               0.000000000               0.159262276              -0.111529486               0.000000000               0.183600685              -0.130348808               0.000000000               0.207939094              -0.149168131               0.000000000               0.232277503              -0.167987453               0.000000000               0.256615912              -0.186806776               0.000000000               0.280954320              -0.205626098               0.000000000               0.305292729              -0.224445420               0.000000000               0.329631138              -0.243264743               0.000000000               0.353969547              -0.262084065               0.000000000               0.378307956              -0.280903388               0.000000000               0.402646365              -0.299722710               0.000000000               0.426984773              -0.318542033               0.000000000               0.451323182              -0.337361355               0.000000000               0.475661591              -0.356180678               0.000000000               0.500000000              -0.375000000               0.000000000               0.102810390              -0.084374307               0.000000000               0.127634741              -0.106444663               0.000000000               0.152459092              -0.128515018               0.000000000               0.177283442              -0.150585374               0.000000000               0.202107793              -0.172655730               0.000000000               0.226932143              -0.194726086               0.000000000               0.251756494              -0.216796442               0.000000000               0.276580845              -0.238866798               0.000000000               0.301405195              -0.260937153               0.000000000               0.326229546              -0.283007509               0.000000000               0.351053896              -0.305077865               0.000000000               0.375878247              -0.327148221               0.000000000               0.400702598              -0.349218577               0.000000000               0.425526948              -0.371288933               0.000000000               0.450351299              -0.393359288               0.000000000               0.475175649              -0.415429644               0.000000000               0.500000000              -0.437500000               0.000000000               0.094045202              -0.094045202               0.000000000               0.119417377              -0.119417377               0.000000000               0.144789552              -0.144789552               0.000000000               0.170161727              -0.170161727               0.000000000               0.195533901              -0.195533901               0.000000000               0.220906076              -0.220906076               0.000000000               0.246278251              -0.246278251               0.000000000               0.271650426              -0.271650426               0.000000000               0.297022601              -0.297022601               0.000000000               0.322394776              -0.322394776               0.000000000               0.347766951              -0.347766951               0.000000000               0.373139126              -0.373139126               0.000000000               0.398511300              -0.398511300               0.000000000               0.423883475              -0.423883475               0.000000000               0.449255650              -0.449255650               0.000000000               0.474627825              -0.474627825               0.000000000               0.500000000              -0.500000000               0.000000000               0.084374307              -0.102810390               0.000000000               0.106444663              -0.127634741               0.000000000               0.128515018              -0.152459092               0.000000000               0.150585374              -0.177283442               0.000000000               0.172655730              -0.202107793               0.000000000               0.194726086              -0.226932143               0.000000000               0.216796442              -0.251756494               0.000000000               0.238866798              -0.276580845               0.000000000               0.260937153              -0.301405195               0.000000000               0.283007509              -0.326229546               0.000000000               0.305077865              -0.351053896               0.000000000               0.327148221              -0.375878247               0.000000000               0.349218577              -0.400702598               0.000000000               0.371288933              -0.425526948               0.000000000               0.393359288              -0.450351299               0.000000000               0.415429644              -0.475175649               0.000000000               0.437500000              -0.500000000               0.000000000               0.073890841              -0.110585458               0.000000000               0.092710163              -0.134923867               0.000000000               0.111529486              -0.159262276               0.000000000               0.130348808              -0.183600685               0.000000000               0.149168131              -0.207939094               0.000000000               0.167987453              -0.232277503               0.000000000               0.186806776              -0.256615912               0.000000000               0.205626098              -0.280954320               0.000000000               0.224445420              -0.305292729               0.000000000               0.243264743              -0.329631138               0.000000000               0.262084065              -0.353969547               0.000000000               0.280903388              -0.378307956               0.000000000               0.299722710              -0.402646365               0.000000000               0.318542033              -0.426984773               0.000000000               0.337361355              -0.451323182               0.000000000               0.356180678              -0.475661591               0.000000000               0.375000000              -0.500000000               0.000000000               0.062695766              -0.117295528               0.000000000               0.078308531              -0.141214558               0.000000000               0.093921295              -0.165133587               0.000000000               0.109534060              -0.189052617               0.000000000               0.125146824              -0.212971646               0.000000000               0.140759589              -0.236890676               0.000000000               0.156372354              -0.260809705               0.000000000               0.171985118              -0.284728735               0.000000000               0.187597883              -0.308647764               0.000000000               0.203210648              -0.332566794               0.000000000               0.218823412              -0.356485823               0.000000000               0.234436177              -0.380404853               0.000000000               0.250048941              -0.404323882               0.000000000               0.265661706              -0.428242912               0.000000000               0.281274471              -0.452161941               0.000000000               0.296887235              -0.476080971               0.000000000               0.312500000              -0.500000000               0.000000000               0.050896897              -0.122875978               0.000000000               0.063340840              -0.146446229               0.000000000               0.075784784              -0.170016481               0.000000000               0.088228728              -0.193586732               0.000000000               0.100672672              -0.217156983               0.000000000               0.113116616              -0.240727235               0.000000000               0.125560560              -0.264297486               0.000000000               0.138004504              -0.287867738               0.000000000               0.150448448              -0.311437989               0.000000000               0.162892392              -0.335008240               0.000000000               0.175336336              -0.358578492               0.000000000               0.187780280              -0.382148743               0.000000000               0.200224224              -0.405718994               0.000000000               0.212668168              -0.429289246               0.000000000               0.225112112              -0.452859497               0.000000000               0.237556056              -0.476429749               0.000000000               0.250000000              -0.500000000               0.000000000               0.038607862              -0.127273065               0.000000000               0.047913621              -0.150568498               0.000000000               0.057219379              -0.173863932               0.000000000               0.066525138              -0.197159365               0.000000000               0.075830897              -0.220454798               0.000000000               0.085136655              -0.243750232               0.000000000               0.094442414              -0.267045665               0.000000000               0.103748172              -0.290341099               0.000000000               0.113053931              -0.313636532               0.000000000               0.122359690              -0.336931966               0.000000000               0.131665448              -0.360227399               0.000000000               0.140971207              -0.383522833               0.000000000               0.150276966              -0.406818266               0.000000000               0.159582724              -0.430113700               0.000000000               0.168888483              -0.453409133               0.000000000               0.178194241              -0.476704567               0.000000000               0.187500000              -0.500000000               0.000000000               0.025947013              -0.130444442               0.000000000               0.032137825              -0.153541665               0.000000000               0.038328636              -0.176638887               0.000000000               0.044519448              -0.199736109               0.000000000               0.050710260              -0.222833332               0.000000000               0.056901071              -0.245930554               0.000000000               0.063091883              -0.269027776               0.000000000               0.069282695              -0.292124999               0.000000000               0.075473506              -0.315222221               0.000000000               0.081664318              -0.338319444               0.000000000               0.087855130              -0.361416666               0.000000000               0.094045942              -0.384513888               0.000000000               0.100236753              -0.407611111               0.000000000               0.106427565              -0.430708333               0.000000000               0.112618377              -0.453805555               0.000000000               0.118809188              -0.476902778               0.000000000               0.125000000              -0.500000000               0.000000000               0.013036280              -0.132359569               0.000000000               0.016127762              -0.155337096               0.000000000               0.019219245              -0.178314623               0.000000000               0.022310727              -0.201292150               0.000000000               0.025402210              -0.224269676               0.000000000               0.028493692              -0.247247203               0.000000000               0.031585175              -0.270224730               0.000000000               0.034676657              -0.293202257               0.000000000               0.037768140              -0.316179784               0.000000000               0.040859622              -0.339157311               0.000000000               0.043951105              -0.362134838               0.000000000               0.047042587              -0.385112365               0.000000000               0.050134070              -0.408089892               0.000000000               0.053225552              -0.431067419               0.000000000               0.056317035              -0.454044946               0.000000000               0.059408517              -0.477022473               0.000000000               0.062500000              -0.500000000               0.000000000               0.000000000              -0.133000000               0.000000000               0.000000000              -0.155937500               0.000000000               0.000000000              -0.178875000               0.000000000               0.000000000              -0.201812500               0.000000000               0.000000000              -0.224750000               0.000000000               0.000000000              -0.247687500               0.000000000               0.000000000              -0.270625000               0.000000000               0.000000000              -0.293562500               0.000000000               0.000000000              -0.316500000               0.000000000               0.000000000              -0.339437500               0.000000000               0.000000000              -0.362375000               0.000000000               0.000000000              -0.385312500               0.000000000               0.000000000              -0.408250000               0.000000000               0.000000000              -0.431187500               0.000000000               0.000000000              -0.454125000               0.000000000               0.000000000              -0.477062500               0.000000000               0.000000000              -0.500000000               0.000000000              -0.133000000               0.000000000               0.000000000              -0.155937500               0.000000000               0.000000000              -0.178875000               0.000000000               0.000000000              -0.201812500               0.000000000               0.000000000              -0.224750000               0.000000000               0.000000000              -0.247687500               0.000000000               0.000000000              -0.270625000               0.000000000               0.000000000              -0.293562500               0.000000000               0.000000000              -0.316500000               0.000000000               0.000000000              -0.339437500               0.000000000               0.000000000              -0.362375000               0.000000000               0.000000000              -0.385312500               0.000000000               0.000000000              -0.408250000               0.000000000               0.000000000              -0.431187500               0.000000000               0.000000000              -0.454125000               0.000000000               0.000000000              -0.477062500               0.000000000               0.000000000              -0.500000000               0.000000000               0.000000000              -0.132359569              -0.013036280               0.000000000              -0.155337096              -0.016127762               0.000000000              -0.178314623              -0.019219245               0.000000000              -0.201292150              -0.022310727               0.000000000              -0.224269676              -0.025402210               0.000000000              -0.247247203              -0.028493692               0.000000000              -0.270224730              -0.031585175               0.000000000              -0.293202257              -0.034676657               0.000000000              -0.316179784              -0.037768140               0.000000000              -0.339157311              -0.040859622               0.000000000              -0.362134838              -0.043951105               0.000000000              -0.385112365              -0.047042587               0.000000000              -0.408089892              -0.050134070               0.000000000              -0.431067419              -0.053225552               0.000000000              -0.454044946              -0.056317035               0.000000000              -0.477022473              -0.059408517               0.000000000              -0.500000000              -0.062500000               0.000000000              -0.130444442              -0.025947013               0.000000000              -0.153541665              -0.032137825               0.000000000              -0.176638887              -0.038328636               0.000000000              -0.199736109              -0.044519448               0.000000000              -0.222833332              -0.050710260               0.000000000              -0.245930554              -0.056901071               0.000000000              -0.269027776              -0.063091883               0.000000000              -0.292124999              -0.069282695               0.000000000              -0.315222221              -0.075473506               0.000000000              -0.338319444              -0.081664318               0.000000000              -0.361416666              -0.087855130               0.000000000              -0.384513888              -0.094045942               0.000000000              -0.407611111              -0.100236753               0.000000000              -0.430708333              -0.106427565               0.000000000              -0.453805555              -0.112618377               0.000000000              -0.476902778              -0.118809188               0.000000000              -0.500000000              -0.125000000               0.000000000              -0.127273065              -0.038607862               0.000000000              -0.150568498              -0.047913621               0.000000000              -0.173863932              -0.057219379               0.000000000              -0.197159365              -0.066525138               0.000000000              -0.220454798              -0.075830897               0.000000000              -0.243750232              -0.085136655               0.000000000              -0.267045665              -0.094442414               0.000000000              -0.290341099              -0.103748172               0.000000000              -0.313636532              -0.113053931               0.000000000              -0.336931966              -0.122359690               0.000000000              -0.360227399              -0.131665448               0.000000000              -0.383522833              -0.140971207               0.000000000              -0.406818266              -0.150276966               0.000000000              -0.430113700              -0.159582724               0.000000000              -0.453409133              -0.168888483               0.000000000              -0.476704567              -0.178194241               0.000000000              -0.500000000              -0.187500000               0.000000000              -0.122875978              -0.050896897               0.000000000              -0.146446229              -0.063340840               0.000000000              -0.170016481              -0.075784784               0.000000000              -0.193586732              -0.088228728               0.000000000              -0.217156983              -0.100672672               0.000000000              -0.240727235              -0.113116616               0.000000000              -0.264297486              -0.125560560               0.000000000              -0.287867738              -0.138004504               0.000000000              -0.311437989              -0.150448448               0.000000000              -0.335008240              -0.162892392               0.000000000              -0.358578492              -0.175336336               0.000000000              -0.382148743              -0.187780280               0.000000000              -0.405718994              -0.200224224               0.000000000              -0.429289246              -0.212668168               0.000000000              -0.452859497              -0.225112112               0.000000000              -0.476429749              -0.237556056               0.000000000              -0.500000000              -0.250000000               0.000000000              -0.117295528              -0.062695766               0.000000000              -0.141214558              -0.078308531               0.000000000              -0.165133587              -0.093921295               0.000000000              -0.189052617              -0.109534060               0.000000000              -0.212971646              -0.125146824               0.000000000              -0.236890676              -0.140759589               0.000000000              -0.260809705              -0.156372354               0.000000000              -0.284728735              -0.171985118               0.000000000              -0.308647764              -0.187597883               0.000000000              -0.332566794              -0.203210648               0.000000000              -0.356485823              -0.218823412               0.000000000              -0.380404853              -0.234436177               0.000000000              -0.404323882              -0.250048941               0.000000000              -0.428242912              -0.265661706               0.000000000              -0.452161941              -0.281274471               0.000000000              -0.476080971              -0.296887235               0.000000000              -0.500000000              -0.312500000               0.000000000              -0.110585458              -0.073890841               0.000000000              -0.134923867              -0.092710163               0.000000000              -0.159262276              -0.111529486               0.000000000              -0.183600685              -0.130348808               0.000000000              -0.207939094              -0.149168131               0.000000000              -0.232277503              -0.167987453               0.000000000              -0.256615912              -0.186806776               0.000000000              -0.280954320              -0.205626098               0.000000000              -0.305292729              -0.224445420               0.000000000              -0.329631138              -0.243264743               0.000000000              -0.353969547              -0.262084065               0.000000000              -0.378307956              -0.280903388               0.000000000              -0.402646365              -0.299722710               0.000000000              -0.426984773              -0.318542033               0.000000000              -0.451323182              -0.337361355               0.000000000              -0.475661591              -0.356180678               0.000000000              -0.500000000              -0.375000000               0.000000000              -0.102810390              -0.084374307               0.000000000              -0.127634741              -0.106444663               0.000000000              -0.152459092              -0.128515018               0.000000000              -0.177283442              -0.150585374               0.000000000              -0.202107793              -0.172655730               0.000000000              -0.226932143              -0.194726086               0.000000000              -0.251756494              -0.216796442               0.000000000              -0.276580845              -0.238866798               0.000000000              -0.301405195              -0.260937153               0.000000000              -0.326229546              -0.283007509               0.000000000              -0.351053896              -0.305077865               0.000000000              -0.375878247              -0.327148221               0.000000000              -0.400702598              -0.349218577               0.000000000              -0.425526948              -0.371288933               0.000000000              -0.450351299              -0.393359288               0.000000000              -0.475175649              -0.415429644               0.000000000              -0.500000000              -0.437500000               0.000000000              -0.094045202              -0.094045202               0.000000000              -0.119417377              -0.119417377               0.000000000              -0.144789552              -0.144789552               0.000000000              -0.170161727              -0.170161727               0.000000000              -0.195533901              -0.195533901               0.000000000              -0.220906076              -0.220906076               0.000000000              -0.246278251              -0.246278251               0.000000000              -0.271650426              -0.271650426               0.000000000              -0.297022601              -0.297022601               0.000000000              -0.322394776              -0.322394776               0.000000000              -0.347766951              -0.347766951               0.000000000              -0.373139126              -0.373139126               0.000000000              -0.398511300              -0.398511300               0.000000000              -0.423883475              -0.423883475               0.000000000              -0.449255650              -0.449255650               0.000000000              -0.474627825              -0.474627825               0.000000000              -0.500000000              -0.500000000               0.000000000              -0.084374307              -0.102810390               0.000000000              -0.106444663              -0.127634741               0.000000000              -0.128515018              -0.152459092               0.000000000              -0.150585374              -0.177283442               0.000000000              -0.172655730              -0.202107793               0.000000000              -0.194726086              -0.226932143               0.000000000              -0.216796442              -0.251756494               0.000000000              -0.238866798              -0.276580845               0.000000000              -0.260937153              -0.301405195               0.000000000              -0.283007509              -0.326229546               0.000000000              -0.305077865              -0.351053896               0.000000000              -0.327148221              -0.375878247               0.000000000              -0.349218577              -0.400702598               0.000000000              -0.371288933              -0.425526948               0.000000000              -0.393359288              -0.450351299               0.000000000              -0.415429644              -0.475175649               0.000000000              -0.437500000              -0.500000000               0.000000000              -0.073890841              -0.110585458               0.000000000              -0.092710163              -0.134923867               0.000000000              -0.111529486              -0.159262276               0.000000000              -0.130348808              -0.183600685               0.000000000              -0.149168131              -0.207939094               0.000000000              -0.167987453              -0.232277503               0.000000000              -0.186806776              -0.256615912               0.000000000              -0.205626098              -0.280954320               0.000000000              -0.224445420              -0.305292729               0.000000000              -0.243264743              -0.329631138               0.000000000              -0.262084065              -0.353969547               0.000000000              -0.280903388              -0.378307956               0.000000000              -0.299722710              -0.402646365               0.000000000              -0.318542033              -0.426984773               0.000000000              -0.337361355              -0.451323182               0.000000000              -0.356180678              -0.475661591               0.000000000              -0.375000000              -0.500000000               0.000000000              -0.062695766              -0.117295528               0.000000000              -0.078308531              -0.141214558               0.000000000              -0.093921295              -0.165133587               0.000000000              -0.109534060              -0.189052617               0.000000000              -0.125146824              -0.212971646               0.000000000              -0.140759589              -0.236890676               0.000000000              -0.156372354              -0.260809705               0.000000000              -0.171985118              -0.284728735               0.000000000              -0.187597883              -0.308647764               0.000000000              -0.203210648              -0.332566794               0.000000000              -0.218823412              -0.356485823               0.000000000              -0.234436177              -0.380404853               0.000000000              -0.250048941              -0.404323882               0.000000000              -0.265661706              -0.428242912               0.000000000              -0.281274471              -0.452161941               0.000000000              -0.296887235              -0.476080971               0.000000000              -0.312500000              -0.500000000               0.000000000              -0.050896897              -0.122875978               0.000000000              -0.063340840              -0.146446229               0.000000000              -0.075784784              -0.170016481               0.000000000              -0.088228728              -0.193586732               0.000000000              -0.100672672              -0.217156983               0.000000000              -0.113116616              -0.240727235               0.000000000              -0.125560560              -0.264297486               0.000000000              -0.138004504              -0.287867738               0.000000000              -0.150448448              -0.311437989               0.000000000              -0.162892392              -0.335008240               0.000000000              -0.175336336              -0.358578492               0.000000000              -0.187780280              -0.382148743               0.000000000              -0.200224224              -0.405718994               0.000000000              -0.212668168              -0.429289246               0.000000000              -0.225112112              -0.452859497               0.000000000              -0.237556056              -0.476429749               0.000000000              -0.250000000              -0.500000000               0.000000000              -0.038607862              -0.127273065               0.000000000              -0.047913621              -0.150568498               0.000000000              -0.057219379              -0.173863932               0.000000000              -0.066525138              -0.197159365               0.000000000              -0.075830897              -0.220454798               0.000000000              -0.085136655              -0.243750232               0.000000000              -0.094442414              -0.267045665               0.000000000              -0.103748172              -0.290341099               0.000000000              -0.113053931              -0.313636532               0.000000000              -0.122359690              -0.336931966               0.000000000              -0.131665448              -0.360227399               0.000000000              -0.140971207              -0.383522833               0.000000000              -0.150276966              -0.406818266               0.000000000              -0.159582724              -0.430113700               0.000000000              -0.168888483              -0.453409133               0.000000000              -0.178194241              -0.476704567               0.000000000              -0.187500000              -0.500000000               0.000000000              -0.025947013              -0.130444442               0.000000000              -0.032137825              -0.153541665               0.000000000              -0.038328636              -0.176638887               0.000000000              -0.044519448              -0.199736109               0.000000000              -0.050710260              -0.222833332               0.000000000              -0.056901071              -0.245930554               0.000000000              -0.063091883              -0.269027776               0.000000000              -0.069282695              -0.292124999               0.000000000              -0.075473506              -0.315222221               0.000000000              -0.081664318              -0.338319444               0.000000000              -0.087855130              -0.361416666               0.000000000              -0.094045942              -0.384513888               0.000000000              -0.100236753              -0.407611111               0.000000000              -0.106427565              -0.430708333               0.000000000              -0.112618377              -0.453805555               0.000000000              -0.118809188              -0.476902778               0.000000000              -0.125000000              -0.500000000               0.000000000              -0.013036280              -0.132359569               0.000000000              -0.016127762              -0.155337096               0.000000000              -0.019219245              -0.178314623               0.000000000              -0.022310727              -0.201292150               0.000000000              -0.025402210              -0.224269676               0.000000000              -0.028493692              -0.247247203               0.000000000              -0.031585175              -0.270224730               0.000000000              -0.034676657              -0.293202257               0.000000000              -0.037768140              -0.316179784               0.000000000              -0.040859622              -0.339157311               0.000000000              -0.043951105              -0.362134838               0.000000000              -0.047042587              -0.385112365               0.000000000              -0.050134070              -0.408089892               0.000000000              -0.053225552              -0.431067419               0.000000000              -0.056317035              -0.454044946               0.000000000              -0.059408517              -0.477022473               0.000000000              -0.062500000              -0.500000000               0.000000000               0.000000000              -0.133000000               0.000000000               0.000000000              -0.155937500               0.000000000               0.000000000              -0.178875000               0.000000000               0.000000000              -0.201812500               0.000000000               0.000000000              -0.224750000               0.000000000               0.000000000              -0.247687500               0.000000000               0.000000000              -0.270625000               0.000000000               0.000000000              -0.293562500               0.000000000               0.000000000              -0.316500000               0.000000000               0.000000000              -0.339437500               0.000000000               0.000000000              -0.362375000               0.000000000               0.000000000              -0.385312500               0.000000000               0.000000000              -0.408250000               0.000000000               0.000000000              -0.431187500               0.000000000               0.000000000              -0.454125000               0.000000000               0.000000000              -0.477062500               0.000000000               0.000000000              -0.500000000               0.000000000              -0.133000000               0.000000000               0.000000000              -0.155937500               0.000000000               0.000000000              -0.178875000               0.000000000               0.000000000              -0.201812500               0.000000000               0.000000000              -0.224750000               0.000000000               0.000000000              -0.247687500               0.000000000               0.000000000              -0.270625000               0.000000000               0.000000000              -0.293562500               0.000000000               0.000000000              -0.316500000               0.000000000               0.000000000              -0.339437500               0.000000000               0.000000000              -0.362375000               0.000000000               0.000000000              -0.385312500               0.000000000               0.000000000              -0.408250000               0.000000000               0.000000000              -0.431187500               0.000000000               0.000000000              -0.454125000               0.000000000               0.000000000              -0.477062500               0.000000000               0.000000000              -0.500000000               0.000000000               0.000000000              -0.132359569               0.013036280               0.000000000              -0.155337096               0.016127762               0.000000000              -0.178314623               0.019219245               0.000000000              -0.201292150               0.022310727               0.000000000              -0.224269676               0.025402210               0.000000000              -0.247247203               0.028493692               0.000000000              -0.270224730               0.031585175               0.000000000              -0.293202257               0.034676657               0.000000000              -0.316179784               0.037768140               0.000000000              -0.339157311               0.040859622               0.000000000              -0.362134838               0.043951105               0.000000000              -0.385112365               0.047042587               0.000000000              -0.408089892               0.050134070               0.000000000              -0.431067419               0.053225552               0.000000000              -0.454044946               0.056317035               0.000000000              -0.477022473               0.059408517               0.000000000              -0.500000000               0.062500000               0.000000000              -0.130444442               0.025947013               0.000000000              -0.153541665               0.032137825               0.000000000              -0.176638887               0.038328636               0.000000000              -0.199736109               0.044519448               0.000000000              -0.222833332               0.050710260               0.000000000              -0.245930554               0.056901071               0.000000000              -0.269027776               0.063091883               0.000000000              -0.292124999               0.069282695               0.000000000              -0.315222221               0.075473506               0.000000000              -0.338319444               0.081664318               0.000000000              -0.361416666               0.087855130               0.000000000              -0.384513888               0.094045942               0.000000000              -0.407611111               0.100236753               0.000000000              -0.430708333               0.106427565               0.000000000              -0.453805555               0.112618377               0.000000000              -0.476902778               0.118809188               0.000000000              -0.500000000               0.125000000               0.000000000              -0.127273065               0.038607862               0.000000000              -0.150568498               0.047913621               0.000000000              -0.173863932               0.057219379               0.000000000              -0.197159365               0.066525138               0.000000000              -0.220454798               0.075830897               0.000000000              -0.243750232               0.085136655               0.000000000              -0.267045665               0.094442414               0.000000000              -0.290341099               0.103748172               0.000000000              -0.313636532               0.113053931               0.000000000              -0.336931966               0.122359690               0.000000000              -0.360227399               0.131665448               0.000000000              -0.383522833               0.140971207               0.000000000              -0.406818266               0.150276966               0.000000000              -0.430113700               0.159582724               0.000000000              -0.453409133               0.168888483               0.000000000              -0.476704567               0.178194241               0.000000000              -0.500000000               0.187500000               0.000000000              -0.122875978               0.050896897               0.000000000              -0.146446229               0.063340840               0.000000000              -0.170016481               0.075784784               0.000000000              -0.193586732               0.088228728               0.000000000              -0.217156983               0.100672672               0.000000000              -0.240727235               0.113116616               0.000000000              -0.264297486               0.125560560               0.000000000              -0.287867738               0.138004504               0.000000000              -0.311437989               0.150448448               0.000000000              -0.335008240               0.162892392               0.000000000              -0.358578492               0.175336336               0.000000000              -0.382148743               0.187780280               0.000000000              -0.405718994               0.200224224               0.000000000              -0.429289246               0.212668168               0.000000000              -0.452859497               0.225112112               0.000000000              -0.476429749               0.237556056               0.000000000              -0.500000000               0.250000000               0.000000000              -0.117295528               0.062695766               0.000000000              -0.141214558               0.078308531               0.000000000              -0.165133587               0.093921295               0.000000000              -0.189052617               0.109534060               0.000000000              -0.212971646               0.125146824               0.000000000              -0.236890676               0.140759589               0.000000000              -0.260809705               0.156372354               0.000000000              -0.284728735               0.171985118               0.000000000              -0.308647764               0.187597883               0.000000000              -0.332566794               0.203210648               0.000000000              -0.356485823               0.218823412               0.000000000              -0.380404853               0.234436177               0.000000000              -0.404323882               0.250048941               0.000000000              -0.428242912               0.265661706               0.000000000              -0.452161941               0.281274471               0.000000000              -0.476080971               0.296887235               0.000000000              -0.500000000               0.312500000               0.000000000              -0.110585458               0.073890841               0.000000000              -0.134923867               0.092710163               0.000000000              -0.159262276               0.111529486               0.000000000              -0.183600685               0.130348808               0.000000000              -0.207939094               0.149168131               0.000000000              -0.232277503               0.167987453               0.000000000              -0.256615912               0.186806776               0.000000000              -0.280954320               0.205626098               0.000000000              -0.305292729               0.224445420               0.000000000              -0.329631138               0.243264743               0.000000000              -0.353969547               0.262084065               0.000000000              -0.378307956               0.280903388               0.000000000              -0.402646365               0.299722710               0.000000000              -0.426984773               0.318542033               0.000000000              -0.451323182               0.337361355               0.000000000              -0.475661591               0.356180678               0.000000000              -0.500000000               0.375000000               0.000000000              -0.102810390               0.084374307               0.000000000              -0.127634741               0.106444663               0.000000000              -0.152459092               0.128515018               0.000000000              -0.177283442               0.150585374               0.000000000              -0.202107793               0.172655730               0.000000000              -0.226932143               0.194726086               0.000000000              -0.251756494               0.216796442               0.000000000              -0.276580845               0.238866798               0.000000000              -0.301405195               0.260937153               0.000000000              -0.326229546               0.283007509               0.000000000              -0.351053896               0.305077865               0.000000000              -0.375878247               0.327148221               0.000000000              -0.400702598               0.349218577               0.000000000              -0.425526948               0.371288933               0.000000000              -0.450351299               0.393359288               0.000000000              -0.475175649               0.415429644               0.000000000              -0.500000000               0.437500000               0.000000000              -0.094045202               0.094045202               0.000000000              -0.119417377               0.119417377               0.000000000              -0.144789552               0.144789552               0.000000000              -0.170161727               0.170161727               0.000000000              -0.195533901               0.195533901               0.000000000              -0.220906076               0.220906076               0.000000000              -0.246278251               0.246278251               0.000000000              -0.271650426               0.271650426               0.000000000              -0.297022601               0.297022601               0.000000000              -0.322394776               0.322394776               0.000000000              -0.347766951               0.347766951               0.000000000              -0.373139126               0.373139126               0.000000000              -0.398511300               0.398511300               0.000000000              -0.423883475               0.423883475               0.000000000              -0.449255650               0.449255650               0.000000000              -0.474627825               0.474627825               0.000000000              -0.500000000               0.500000000               0.000000000              -0.084374307               0.102810390               0.000000000              -0.106444663               0.127634741               0.000000000              -0.128515018               0.152459092               0.000000000              -0.150585374               0.177283442               0.000000000              -0.172655730               0.202107793               0.000000000              -0.194726086               0.226932143               0.000000000              -0.216796442               0.251756494               0.000000000              -0.238866798               0.276580845               0.000000000              -0.260937153               0.301405195               0.000000000              -0.283007509               0.326229546               0.000000000              -0.305077865               0.351053896               0.000000000              -0.327148221               0.375878247               0.000000000              -0.349218577               0.400702598               0.000000000              -0.371288933               0.425526948               0.000000000              -0.393359288               0.450351299               0.000000000              -0.415429644               0.475175649               0.000000000              -0.437500000               0.500000000               0.000000000              -0.073890841               0.110585458               0.000000000              -0.092710163               0.134923867               0.000000000              -0.111529486               0.159262276               0.000000000              -0.130348808               0.183600685               0.000000000              -0.149168131               0.207939094               0.000000000              -0.167987453               0.232277503               0.000000000              -0.186806776               0.256615912               0.000000000              -0.205626098               0.280954320               0.000000000              -0.224445420               0.305292729               0.000000000              -0.243264743               0.329631138               0.000000000              -0.262084065               0.353969547               0.000000000              -0.280903388               0.378307956               0.000000000              -0.299722710               0.402646365               0.000000000              -0.318542033               0.426984773               0.000000000              -0.337361355               0.451323182               0.000000000              -0.356180678               0.475661591               0.000000000              -0.375000000               0.500000000               0.000000000              -0.062695766               0.117295528               0.000000000              -0.078308531               0.141214558               0.000000000              -0.093921295               0.165133587               0.000000000              -0.109534060               0.189052617               0.000000000              -0.125146824               0.212971646               0.000000000              -0.140759589               0.236890676               0.000000000              -0.156372354               0.260809705               0.000000000              -0.171985118               0.284728735               0.000000000              -0.187597883               0.308647764               0.000000000              -0.203210648               0.332566794               0.000000000              -0.218823412               0.356485823               0.000000000              -0.234436177               0.380404853               0.000000000              -0.250048941               0.404323882               0.000000000              -0.265661706               0.428242912               0.000000000              -0.281274471               0.452161941               0.000000000              -0.296887235               0.476080971               0.000000000              -0.312500000               0.500000000               0.000000000              -0.050896897               0.122875978               0.000000000              -0.063340840               0.146446229               0.000000000              -0.075784784               0.170016481               0.000000000              -0.088228728               0.193586732               0.000000000              -0.100672672               0.217156983               0.000000000              -0.113116616               0.240727235               0.000000000              -0.125560560               0.264297486               0.000000000              -0.138004504               0.287867738               0.000000000              -0.150448448               0.311437989               0.000000000              -0.162892392               0.335008240               0.000000000              -0.175336336               0.358578492               0.000000000              -0.187780280               0.382148743               0.000000000              -0.200224224               0.405718994               0.000000000              -0.212668168               0.429289246               0.000000000              -0.225112112               0.452859497               0.000000000              -0.237556056               0.476429749               0.000000000              -0.250000000               0.500000000               0.000000000              -0.038607862               0.127273065               0.000000000              -0.047913621               0.150568498               0.000000000              -0.057219379               0.173863932               0.000000000              -0.066525138               0.197159365               0.000000000              -0.075830897               0.220454798               0.000000000              -0.085136655               0.243750232               0.000000000              -0.094442414               0.267045665               0.000000000              -0.103748172               0.290341099               0.000000000              -0.113053931               0.313636532               0.000000000              -0.122359690               0.336931966               0.000000000              -0.131665448               0.360227399               0.000000000              -0.140971207               0.383522833               0.000000000              -0.150276966               0.406818266               0.000000000              -0.159582724               0.430113700               0.000000000              -0.168888483               0.453409133               0.000000000              -0.178194241               0.476704567               0.000000000              -0.187500000               0.500000000               0.000000000              -0.025947013               0.130444442               0.000000000              -0.032137825               0.153541665               0.000000000              -0.038328636               0.176638887               0.000000000              -0.044519448               0.199736109               0.000000000              -0.050710260               0.222833332               0.000000000              -0.056901071               0.245930554               0.000000000              -0.063091883               0.269027776               0.000000000              -0.069282695               0.292124999               0.000000000              -0.075473506               0.315222221               0.000000000              -0.081664318               0.338319444               0.000000000              -0.087855130               0.361416666               0.000000000              -0.094045942               0.384513888               0.000000000              -0.100236753               0.407611111               0.000000000              -0.106427565               0.430708333               0.000000000              -0.112618377               0.453805555               0.000000000              -0.118809188               0.476902778               0.000000000              -0.125000000               0.500000000               0.000000000              -0.013036280               0.132359569               0.000000000              -0.016127762               0.155337096               0.000000000              -0.019219245               0.178314623               0.000000000              -0.022310727               0.201292150               0.000000000              -0.025402210               0.224269676               0.000000000              -0.028493692               0.247247203               0.000000000              -0.031585175               0.270224730               0.000000000              -0.034676657               0.293202257               0.000000000              -0.037768140               0.316179784               0.000000000              -0.040859622               0.339157311               0.000000000              -0.043951105               0.362134838               0.000000000              -0.047042587               0.385112365               0.000000000              -0.050134070               0.408089892               0.000000000              -0.053225552               0.431067419               0.000000000              -0.056317035               0.454044946               0.000000000              -0.059408517               0.477022473               0.000000000              -0.062500000               0.500000000               0.000000000               0.000000000               0.133000000               0.000000000               0.000000000               0.155937500               0.000000000               0.000000000               0.178875000               0.000000000               0.000000000               0.201812500               0.000000000               0.000000000               0.224750000               0.000000000               0.000000000               0.247687500               0.000000000               0.000000000               0.270625000               0.000000000               0.000000000               0.293562500               0.000000000               0.000000000               0.316500000               0.000000000               0.000000000               0.339437500               0.000000000               0.000000000               0.362375000               0.000000000               0.000000000               0.385312500               0.000000000               0.000000000               0.408250000               0.000000000               0.000000000               0.431187500               0.000000000               0.000000000               0.454125000               0.000000000               0.000000000               0.477062500               0.000000000               0.000000000               0.500000000               0.000000000 </DataArray>
</Points>
<Cells>
<DataArray type="Int32"                                    Name="connectivity"                                                      NumberOfComponents=" 1" format="ascii">
         0          1         18         17          1          2         19         18          2          3         20         19          3          4         21         20          4          5         22         21          5          6         23         22          6          7         24         23          7          8         25         24          8          9         26         25          9         10         27         26         10         11         28         27         11         12         29         28         12         13         30         29         13         14         31         30         14         15         32         31         15         16         33         32         17         18         35         34         18         19         36         35         19         20         37         36         20         21         38         37         21         22         39         38         22         23         40         39         23         24         41         40         24         25         42         41         25         26         43         42         26         27         44         43         27         28         45         44         28         29         46         45         29         30         47         46         30         31         48         47         31         32         49         48         32         33         50         49         34         35         52         51         35         36         53         52         36         37         54         53         37         38         55         54         38         39         56         55         39         40         57         56         40         41         58         57         41         42         59         58         42         43         60         59         43         44         61         60         44         45         62         61         45         46         63         62         46         47         64         63         47         48         65         64         48         49         66         65         49         50         67         66         51         52         69         68         52         53         70         69         53         54         71         70         54         55         72         71         55         56         73         72         56         57         74         73         57         58         75         74         58         59         76         75         59         60         77         76         60         61         78         77         61         62         79         78         62         63         80         79         63         64         81         80         64         65         82         81         65         66         83         82         66         67         84         83         68         69         86         85         69         70         87         86         70         71         88         87         71         72         89         88         72         73         90         89         73         74         91         90         74         75         92         91         75         76         93         92         76         77         94         93         77         78         95         94         78         79         96         95         79         80         97         96         80         81         98         97         81         82         99         98         82         83        100         99         83         84        101        100         85         86        103        102         86         87        104        103         87         88        105        104         88         89        106        105         89         90        107        106         90         91        108        107         91         92        109        108         92         93        110        109         93         94        111        110         94         95        112        111         95         96        113        112         96         97        114        113         97         98        115        114         98         99        116        115         99        100        117        116        100        101        118        117        102        103        120        119        103        104        121        120        104        105        122        121        105        106        123        122        106        107        124        123        107        108        125        124        108        109        126        125        109        110        127        126        110        111        128        127        111        112        129        128        112        113        130        129        113        114        131        130        114        115        132        131        115        116        133        132        116        117        134        133        117        118        135        134        119        120        137        136        120        121        138        137        121        122        139        138        122        123        140        139        123        124        141        140        124        125        142        141        125        126        143        142        126        127        144        143        127        128        145        144        128        129        146        145        129        130        147        146        130        131        148        147        131        132        149        148        132        133        150        149        133        134        151        150        134        135        152        151        136        137        154        153        137        138        155        154        138        139        156        155        139        140        157        156        140        141        158        157        141        142        159        158        142        143        160        159        143        144        161        160        144        145        162        161        145        146        163        162        146        147        164        163        147        148        165        164        148        149        166        165        149        150        167        166        150        151        168        167        151        152        169        168        153        154        171        170        154        155        172        171        155        156        173        172        156        157        174        173        157        158        175        174        158        159        176        175        159        160        177        176        160        161        178        177        161        162        179        178        162        163        180        179        163        164        181        180        164        165        182        181        165        166        183        182        166        167        184        183        167        168        185        184        168        169        186        185        170        171        188        187        171        172        189        188        172        173        190        189        173        174        191        190        174        175        192        191        175        176        193        192        176        177        194        193        177        178        195        194        178        179        196        195        179        180        197        196        180        181        198        197        181        182        199        198        182        183        200        199        183        184        201        200        184        185        202        201        185        186        203        202        187        188        205        204        188        189        206        205        189        190        207        206        190        191        208        207        191        192        209        208        192        193        210        209        193        194        211        210        194        195        212        211        195        196        213        212        196        197        214        213        197        198        215        214        198        199        216        215        199        200        217        216        200        201        218        217        201        202        219        218        202        203        220        219        204        205        222        221        205        206        223        222        206        207        224        223        207        208        225        224        208        209        226        225        209        210        227        226        210        211        228        227        211        212        229        228        212        213        230        229        213        214        231        230        214        215        232        231        215        216        233        232        216        217        234        233        217        218        235        234        218        219        236        235        219        220        237        236        221        222        239        238        222        223        240        239        223        224        241        240        224        225        242        241        225        226        243        242        226        227        244        243        227        228        245        244        228        229        246        245        229        230        247        246        230        231        248        247        231        232        249        248        232        233        250        249        233        234        251        250        234        235        252        251        235        236        253        252        236        237        254        253        238        239        256        255        239        240        257        256        240        241        258        257        241        242        259        258        242        243        260        259        243        244        261        260        244        245        262        261        245        246        263        262        246        247        264        263        247        248        265        264        248        249        266        265        249        250        267        266        250        251        268        267        251        252        269        268        252        253        270        269        253        254        271        270        255        256        273        272        256        257        274        273        257        258        275        274        258        259        276        275        259        260        277        276        260        261        278        277        261        262        279        278        262        263        280        279        263        264        281        280        264        265        282        281        265        266        283        282        266        267        284        283        267        268        285        284        268        269        286        285        269        270        287        286        270        271        288        287        306        307          1          0        307        308          2          1        308        309          3          2        309        310          4          3        310        311          5          4        311        312          6          5        312        313          7          6        313        314          8          7        314        315          9          8        315        316         10          9        316        317         11         10        317        318         12         11        318        319         13         12        319        320         14         13        320        321         15         14        321        322         16         15        323        324        307        306        324        325        308        307        325        326        309        308        326        327        310        309        327        328        311        310        328        329        312        311        329        330        313        312        330        331        314        313        331        332        315        314        332        333        316        315        333        334        317        316        334        335        318        317        335        336        319        318        336        337        320        319        337        338        321        320        338        339        322        321        340        341        324        323        341        342        325        324        342        343        326        325        343        344        327        326        344        345        328        327        345        346        329        328        346        347        330        329        347        348        331        330        348        349        332        331        349        350        333        332        350        351        334        333        351        352        335        334        352        353        336        335        353        354        337        336        354        355        338        337        355        356        339        338        357        358        341        340        358        359        342        341        359        360        343        342        360        361        344        343        361        362        345        344        362        363        346        345        363        364        347        346        364        365        348        347        365        366        349        348        366        367        350        349        367        368        351        350        368        369        352        351        369        370        353        352        370        371        354        353        371        372        355        354        372        373        356        355        374        375        358        357        375        376        359        358        376        377        360        359        377        378        361        360        378        379        362        361        379        380        363        362        380        381        364        363        381        382        365        364        382        383        366        365        383        384        367        366        384        385        368        367        385        386        369        368        386        387        370        369        387        388        371        370        388        389        372        371        389        390        373        372        391        392        375        374        392        393        376        375        393        394        377        376        394        395        378        377        395        396        379        378        396        397        380        379        397        398        381        380        398        399        382        381        399        400        383        382        400        401        384        383        401        402        385        384        402        403        386        385        403        404        387        386        404        405        388        387        405        406        389        388        406        407        390        389        408        409        392        391        409        410        393        392        410        411        394        393        411        412        395        394        412        413        396        395        413        414        397        396        414        415        398        397        415        416        399        398        416        417        400        399        417        418        401        400        418        419        402        401        419        420        403        402        420        421        404        403        421        422        405        404        422        423        406        405        423        424        407        406        425        426        409        408        426        427        410        409        427        428        411        410        428        429        412        411        429        430        413        412        430        431        414        413        431        432        415        414        432        433        416        415        433        434        417        416        434        435        418        417        435        436        419        418        436        437        420        419        437        438        421        420        438        439        422        421        439        440        423        422        440        441        424        423        442        443        426        425        443        444        427        426        444        445        428        427        445        446        429        428        446        447        430        429        447        448        431        430        448        449        432        431        449        450        433        432        450        451        434        433        451        452        435        434        452        453        436        435        453        454        437        436        454        455        438        437        455        456        439        438        456        457        440        439        457        458        441        440        459        460        443        442        460        461        444        443        461        462        445        444        462        463        446        445        463        464        447        446        464        465        448        447        465        466        449        448        466        467        450        449        467        468        451        450        468        469        452        451        469        470        453        452        470        471        454        453        471        472        455        454        472        473        456        455        473        474        457        456        474        475        458        457        476        477        460        459        477        478        461        460        478        479        462        461        479        480        463        462        480        481        464        463        481        482        465        464        482        483        466        465        483        484        467        466        484        485        468        467        485        486        469        468        486        487        470        469        487        488        471        470        488        489        472        471        489        490        473        472        490        491        474        473        491        492        475        474        493        494        477        476        494        495        478        477        495        496        479        478        496        497        480        479        497        498        481        480        498        499        482        481        499        500        483        482        500        501        484        483        501        502        485        484        502        503        486        485        503        504        487        486        504        505        488        487        505        506        489        488        506        507        490        489        507        508        491        490        508        509        492        491        510        511        494        493        511        512        495        494        512        513        496        495        513        514        497        496        514        515        498        497        515        516        499        498        516        517        500        499        517        518        501        500        518        519        502        501        519        520        503        502        520        521        504        503        521        522        505        504        522        523        506        505        523        524        507        506        524        525        508        507        525        526        509        508        527        528        511        510        528        529        512        511        529        530        513        512        530        531        514        513        531        532        515        514        532        533        516        515        533        534        517        516        534        535        518        517        535        536        519        518        536        537        520        519        537        538        521        520        538        539        522        521        539        540        523        522        540        541        524        523        541        542        525        524        542        543        526        525        544        545        528        527        545        546        529        528        546        547        530        529        547        548        531        530        548        549        532        531        549        550        533        532        550        551        534        533        551        552        535        534        552        553        536        535        553        554        537        536        554        555        538        537        555        556        539        538        556        557        540        539        557        558        541        540        558        559        542        541        559        560        543        542        561        562        545        544        562        563        546        545        563        564        547        546        564        565        548        547        565        566        549        548        566        567        550        549        567        568        551        550        568        569        552        551        569        570        553        552        570        571        554        553        571        572        555        554        572        573        556        555        573        574        557        556        574        575        558        557        575        576        559        558        576        577        560        559        578        579        596        595        579        580        597        596        580        581        598        597        581        582        599        598        582        583        600        599        583        584        601        600        584        585        602        601        585        586        603        602        586        587        604        603        587        588        605        604        588        589        606        605        589        590        607        606        590        591        608        607        591        592        609        608        592        593        610        609        593        594        611        610        595        596        613        612        596        597        614        613        597        598        615        614        598        599        616        615        599        600        617        616        600        601        618        617        601        602        619        618        602        603        620        619        603        604        621        620        604        605        622        621        605        606        623        622        606        607        624        623        607        608        625        624        608        609        626        625        609        610        627        626        610        611        628        627        612        613        630        629        613        614        631        630        614        615        632        631        615        616        633        632        616        617        634        633        617        618        635        634        618        619        636        635        619        620        637        636        620        621        638        637        621        622        639        638        622        623        640        639        623        624        641        640        624        625        642        641        625        626        643        642        626        627        644        643        627        628        645        644        629        630        647        646        630        631        648        647        631        632        649        648        632        633        650        649        633        634        651        650        634        635        652        651        635        636        653        652        636        637        654        653        637        638        655        654        638        639        656        655        639        640        657        656        640        641        658        657        641        642        659        658        642        643        660        659        643        644        661        660        644        645        662        661        646        647        664        663        647        648        665        664        648        649        666        665        649        650        667        666        650        651        668        667        651        652        669        668        652        653        670        669        653        654        671        670        654        655        672        671        655        656        673        672        656        657        674        673        657        658        675        674        658        659        676        675        659        660        677        676        660        661        678        677        661        662        679        678        663        664        681        680        664        665        682        681        665        666        683        682        666        667        684        683        667        668        685        684        668        669        686        685        669        670        687        686        670        671        688        687        671        672        689        688        672        673        690        689        673        674        691        690        674        675        692        691        675        676        693        692        676        677        694        693        677        678        695        694        678        679        696        695        680        681        698        697        681        682        699        698        682        683        700        699        683        684        701        700        684        685        702        701        685        686        703        702        686        687        704        703        687        688        705        704        688        689        706        705        689        690        707        706        690        691        708        707        691        692        709        708        692        693        710        709        693        694        711        710        694        695        712        711        695        696        713        712        697        698        715        714        698        699        716        715        699        700        717        716        700        701        718        717        701        702        719        718        702        703        720        719        703        704        721        720        704        705        722        721        705        706        723        722        706        707        724        723        707        708        725        724        708        709        726        725        709        710        727        726        710        711        728        727        711        712        729        728        712        713        730        729        714        715        732        731        715        716        733        732        716        717        734        733        717        718        735        734        718        719        736        735        719        720        737        736        720        721        738        737        721        722        739        738        722        723        740        739        723        724        741        740        724        725        742        741        725        726        743        742        726        727        744        743        727        728        745        744        728        729        746        745        729        730        747        746        731        732        749        748        732        733        750        749        733        734        751        750        734        735        752        751        735        736        753        752        736        737        754        753        737        738        755        754        738        739        756        755        739        740        757        756        740        741        758        757        741        742        759        758        742        743        760        759        743        744        761        760        744        745        762        761        745        746        763        762        746        747        764        763        748        749        766        765        749        750        767        766        750        751        768        767        751        752        769        768        752        753        770        769        753        754        771        770        754        755        772        771        755        756        773        772        756        757        774        773        757        758        775        774        758        759        776        775        759        760        777        776        760        761        778        777        761        762        779        778        762        763        780        779        763        764        781        780        765        766        783        782        766        767        784        783        767        768        785        784        768        769        786        785        769        770        787        786        770        771        788        787        771        772        789        788        772        773        790        789        773        774        791        790        774        775        792        791        775        776        793        792        776        777        794        793        777        778        795        794        778        779        796        795        779        780        797        796        780        781        798        797        782        783        800        799        783        784        801        800        784        785        802        801        785        786        803        802        786        787        804        803        787        788        805        804        788        789        806        805        789        790        807        806        790        791        808        807        791        792        809        808        792        793        810        809        793        794        811        810        794        795        812        811        795        796        813        812        796        797        814        813        797        798        815        814        799        800        817        816        800        801        818        817        801        802        819        818        802        803        820        819        803        804        821        820        804        805        822        821        805        806        823        822        806        807        824        823        807        808        825        824        808        809        826        825        809        810        827        826        810        811        828        827        811        812        829        828        812        813        830        829        813        814        831        830        814        815        832        831        816        817        834        833        817        818        835        834        818        819        836        835        819        820        837        836        820        821        838        837        821        822        839        838        822        823        840        839        823        824        841        840        824        825        842        841        825        826        843        842        826        827        844        843        827        828        845        844        828        829        846        845        829        830        847        846        830        831        848        847        831        832        849        848        833        834        562        561        834        835        563        562        835        836        564        563        836        837        565        564        837        838        566        565        838        839        567        566        839        840        568        567        840        841        569        568        841        842        570        569        842        843        571        570        843        844        572        571        844        845        573        572        845        846        574        573        846        847        575        574        847        848        576        575        848        849        577        576        884        885        579        578        885        886        580        579        886        887        581        580        887        888        582        581        888        889        583        582        889        890        584        583        890        891        585        584        891        892        586        585        892        893        587        586        893        894        588        587        894        895        589        588        895        896        590        589        896        897        591        590        897        898        592        591        898        899        593        592        899        900        594        593        901        902        885        884        902        903        886        885        903        904        887        886        904        905        888        887        905        906        889        888        906        907        890        889        907        908        891        890        908        909        892        891        909        910        893        892        910        911        894        893        911        912        895        894        912        913        896        895        913        914        897        896        914        915        898        897        915        916        899        898        916        917        900        899        918        919        902        901        919        920        903        902        920        921        904        903        921        922        905        904        922        923        906        905        923        924        907        906        924        925        908        907        925        926        909        908        926        927        910        909        927        928        911        910        928        929        912        911        929        930        913        912        930        931        914        913        931        932        915        914        932        933        916        915        933        934        917        916        935        936        919        918        936        937        920        919        937        938        921        920        938        939        922        921        939        940        923        922        940        941        924        923        941        942        925        924        942        943        926        925        943        944        927        926        944        945        928        927        945        946        929        928        946        947        930        929        947        948        931        930        948        949        932        931        949        950        933        932        950        951        934        933        952        953        936        935        953        954        937        936        954        955        938        937        955        956        939        938        956        957        940        939        957        958        941        940        958        959        942        941        959        960        943        942        960        961        944        943        961        962        945        944        962        963        946        945        963        964        947        946        964        965        948        947        965        966        949        948        966        967        950        949        967        968        951        950        969        970        953        952        970        971        954        953        971        972        955        954        972        973        956        955        973        974        957        956        974        975        958        957        975        976        959        958        976        977        960        959        977        978        961        960        978        979        962        961        979        980        963        962        980        981        964        963        981        982        965        964        982        983        966        965        983        984        967        966        984        985        968        967        986        987        970        969        987        988        971        970        988        989        972        971        989        990        973        972        990        991        974        973        991        992        975        974        992        993        976        975        993        994        977        976        994        995        978        977        995        996        979        978        996        997        980        979        997        998        981        980        998        999        982        981        999       1000        983        982       1000       1001        984        983       1001       1002        985        984       1003       1004        987        986       1004       1005        988        987       1005       1006        989        988       1006       1007        990        989       1007       1008        991        990       1008       1009        992        991       1009       1010        993        992       1010       1011        994        993       1011       1012        995        994       1012       1013        996        995       1013       1014        997        996       1014       1015        998        997       1015       1016        999        998       1016       1017       1000        999       1017       1018       1001       1000       1018       1019       1002       1001       1020       1021       1004       1003       1021       1022       1005       1004       1022       1023       1006       1005       1023       1024       1007       1006       1024       1025       1008       1007       1025       1026       1009       1008       1026       1027       1010       1009       1027       1028       1011       1010       1028       1029       1012       1011       1029       1030       1013       1012       1030       1031       1014       1013       1031       1032       1015       1014       1032       1033       1016       1015       1033       1034       1017       1016       1034       1035       1018       1017       1035       1036       1019       1018       1037       1038       1021       1020       1038       1039       1022       1021       1039       1040       1023       1022       1040       1041       1024       1023       1041       1042       1025       1024       1042       1043       1026       1025       1043       1044       1027       1026       1044       1045       1028       1027       1045       1046       1029       1028       1046       1047       1030       1029       1047       1048       1031       1030       1048       1049       1032       1031       1049       1050       1033       1032       1050       1051       1034       1033       1051       1052       1035       1034       1052       1053       1036       1035       1054       1055       1038       1037       1055       1056       1039       1038       1056       1057       1040       1039       1057       1058       1041       1040       1058       1059       1042       1041       1059       1060       1043       1042       1060       1061       1044       1043       1061       1062       1045       1044       1062       1063       1046       1045       1063       1064       1047       1046       1064       1065       1048       1047       1065       1066       1049       1048       1066       1067       1050       1049       1067       1068       1051       1050       1068       1069       1052       1051       1069       1070       1053       1052       1071       1072       1055       1054       1072       1073       1056       1055       1073       1074       1057       1056       1074       1075       1058       1057       1075       1076       1059       1058       1076       1077       1060       1059       1077       1078       1061       1060       1078       1079       1062       1061       1079       1080       1063       1062       1080       1081       1064       1063       1081       1082       1065       1064       1082       1083       1066       1065       1083       1084       1067       1066       1084       1085       1068       1067       1085       1086       1069       1068       1086       1087       1070       1069       1088       1089       1072       1071       1089       1090       1073       1072       1090       1091       1074       1073       1091       1092       1075       1074       1092       1093       1076       1075       1093       1094       1077       1076       1094       1095       1078       1077       1095       1096       1079       1078       1096       1097       1080       1079       1097       1098       1081       1080       1098       1099       1082       1081       1099       1100       1083       1082       1100       1101       1084       1083       1101       1102       1085       1084       1102       1103       1086       1085       1103       1104       1087       1086       1105       1106       1089       1088       1106       1107       1090       1089       1107       1108       1091       1090       1108       1109       1092       1091       1109       1110       1093       1092       1110       1111       1094       1093       1111       1112       1095       1094       1112       1113       1096       1095       1113       1114       1097       1096       1114       1115       1098       1097       1115       1116       1099       1098       1116       1117       1100       1099       1117       1118       1101       1100       1118       1119       1102       1101       1119       1120       1103       1102       1120       1121       1104       1103       1122       1123       1106       1105       1123       1124       1107       1106       1124       1125       1108       1107       1125       1126       1109       1108       1126       1127       1110       1109       1127       1128       1111       1110       1128       1129       1112       1111       1129       1130       1113       1112       1130       1131       1114       1113       1131       1132       1115       1114       1132       1133       1116       1115       1133       1134       1117       1116       1134       1135       1118       1117       1135       1136       1119       1118       1136       1137       1120       1119       1137       1138       1121       1120        272        273       1123       1122        273        274       1124       1123        274        275       1125       1124        275        276       1126       1125        276        277       1127       1126        277        278       1128       1127        278        279       1129       1128        279        280       1130       1129        280        281       1131       1130        281        282       1132       1131        282        283       1133       1132        283        284       1134       1133        284        285       1135       1134        285        286       1136       1135        286        287       1137       1136        287        288       1138       1137 </DataArray>
<DataArray type="Int32"                                    Name="offsets"                                                      NumberOfComponents=" 1" format="ascii">
         4          8         12         16         20         24         28         32         36         40         44         48         52         56         60         64         68         72         76         80         84         88         92         96        100        104        108        112        116        120        124        128        132        136        140        144        148        152        156        160        164        168        172        176        180        184        188        192        196        200        204        208        212        216        220        224        228        232        236        240        244        248        252        256        260        264        268        272        276        280        284        288        292        296        300        304        308        312        316        320        324        328        332        336        340        344        348        352        356        360        364        368        372        376        380        384        388        392        396        400        404        408        412        416        420        424        428        432        436        440        444        448        452        456        460        464        468        472        476        480        484        488        492        496        500        504        508        512        516        520        524        528        532        536        540        544        548        552        556        560        564        568        572        576        580        584        588        592        596        600        604        608        612        616        620        624        628        632        636        640        644        648        652        656        660        664        668        672        676        680        684        688        692        696        700        704        708        712        716        720        724        728        732        736        740        744        748        752        756        760        764        768        772        776        780        784        788        792        796        800        804        808        812        816        820        824        828        832        836        840        844        848        852        856        860        864        868        872        876        880        884        888        892        896        900        904        908        912        916        920        924        928        932        936        940        944        948        952        956        960        964        968        972        976        980        984        988        992        996       1000       1004       1008       1012       1016       1020       1024       1028       1032       1036       1040       1044       1048       1052       1056       1060       1064       1068       1072       1076       1080       1084       1088       1092       1096       1100       1104       1108       1112       1116       1120       1124       1128       1132       1136       1140       1144       1148       1152       1156       1160       1164       1168       1172       1176       1180       1184       1188       1192       1196       1200       1204       1208       1212       1216       1220       1224       1228       1232       1236       1240       1244       1248       1252       1256       1260       1264       1268       1272       1276       1280       1284       1288       1292       1296       1300       1304       1308       1312       1316       1320       1324       1328       1332       1336       1340       1344       1348       1352       1356       1360       1364       1368       1372       1376       1380       1384       1388       1392       1396       1400       1404       1408       1412       1416       1420       1424       1428       1432       1436       1440       1444       1448       1452       1456       1460       1464       1468       1472       1476       1480       1484       1488       1492       1496       1500       1504       1508       1512       1516       1520       1524       1528       1532       1536       1540       1544       1548       1552       1556       1560       1564       1568       1572       1576       1580       1584       1588       1592       1596       1600       1604       1608       1612       1616       1620       1624       1628       1632       1636       1640       1644       1648       1652       1656       1660       1664       1668       1672       1676       1680       1684       1688       1692       1696       1700       1704       1708       1712       1716       1720       1724       1728       1732       1736       1740       1744       1748       1752       1756       1760       1764       1768       1772       1776       1780       1784       1788       1792       1796       1800       1804       1808       1812       1816       1820       1824       1828       1832       1836       1840       1844       1848       1852       1856       1860       1864       1868       1872       1876       1880       1884       1888       1892       1896       1900       1904       1908       1912       1916       1920       1924       1928       1932       1936       1940       1944       1948       1952       1956       1960       1964       1968       1972       1976       1980       1984       1988       1992       1996       2000       2004       2008       2012       2016       2020       2024       2028       2032       2036       2040       2044       2048       2052       2056       2060       2064       2068       2072       2076       2080       2084       2088       2092       2096       2100       2104       2108       2112       2116       2120       2124       2128       2132       2136       2140       2144       2148       2152       2156       2160       2164       2168       2172       2176       2180       2184       2188       2192       2196       2200       2204       2208       2212       2216       2220       2224       2228       2232       2236       2240       2244       2248       2252       2256       2260       2264       2268       2272       2276       2280       2284       2288       2292       2296       2300       2304       2308       2312       2316       2320       2324       2328       2332       2336       2340       2344       2348       2352       2356       2360       2364       2368       2372       2376       2380       2384       2388       2392       2396       2400       2404       2408       2412       2416       2420       2424       2428       2432       2436       2440       2444       2448       2452       2456       2460       2464       2468       2472       2476       2480       2484       2488       2492       2496       2500       2504       2508       2512       2516       2520       2524       2528       2532       2536       2540       2544       2548       2552       2556       2560       2564       2568       2572       2576       2580       2584       2588       2592       2596       2600       2604       2608       2612       2616       2620       2624       2628       2632       2636       2640       2644       2648       2652       2656       2660       2664       2668       2672       2676       2680       2684       2688       2692       2696       2700       2704       2708       2712       2716       2720       2724       2728       2732       2736       2740       2744       2748       2752       2756       2760       2764       2768       2772       2776       2780       2784       2788       2792       2796       2800       2804       2808       2812       2816       2820       2824       2828       2832       2836       2840       2844       2848       2852       2856       2860       2864       2868       2872       2876       2880       2884       2888       2892       2896       2900       2904       2908       2912       2916       2920       2924       2928       2932       2936       2940       2944       2948       2952       2956       2960       2964       2968       2972       2976       2980       2984       2988       2992       2996       3000       3004       3008       3012       3016       3020       3024       3028       3032       3036       3040       3044       3048       3052       3056       3060       3064       3068       3072       3076       3080       3084       3088       3092       3096       3100       3104       3108       3112       3116       3120       3124       3128       3132       3136       3140       3144       3148       3152       3156       3160       3164       3168       3172       3176       3180       3184       3188       3192       3196       3200       3204       3208       3212       3216       3220       3224       3228       3232       3236       3240       3244       3248       3252       3256       3260       3264       3268       3272       3276       3280       3284       3288       3292       3296       3300       3304       3308       3312       3316       3320       3324       3328       3332       3336       3340       3344       3348       3352       3356       3360       3364       3368       3372       3376       3380       3384       3388       3392       3396       3400       3404       3408       3412       3416       3420       3424       3428       3432       3436       3440       3444       3448       3452       3456       3460       3464       3468       3472       3476       3480       3484       3488       3492       3496       3500       3504       3508       3512       3516       3520       3524       3528       3532       3536       3540       3544       3548       3552       3556       3560       3564       3568       3572       3576       3580       3584       3588       3592       3596       3600       3604       3608       3612       3616       3620       3624       3628       3632       3636       3640       3644       3648       3652       3656       3660       3664       3668       3672       3676       3680       3684       3688       3692       3696       3700       3704       3708       3712       3716       3720       3724       3728       3732       3736       3740       3744       3748       3752       3756       3760       3764       3768       3772       3776       3780       3784       3788       3792       3796       3800       3804       3808       3812       3816       3820       3824       3828       3832       3836       3840       3844       3848       3852       3856       3860       3864       3868       3872       3876       3880       3884       3888       3892       3896       3900       3904       3908       3912       3916       3920       3924       3928       3932       3936       3940       3944       3948       3952       3956       3960       3964       3968       3972       3976       3980       3984       3988       3992       3996       4000       4004       4008       4012       4016       4020       4024       4028       4032       4036       4040       4044       4048       4052       4056       4060       4064       4068       4072       4076       4080       4084       4088       4092       4096 </DataArray>
<DataArray type="UInt8"                                    Name="types"                                                      NumberOfComponents=" 1" format="ascii">
         9          9          9          9          9          9          9          9          9          9          9          9          9          9          9          9          9          9          9          9          9          9          9          9          9          9          9          9          9          9          9          9          9          9          9          9          9          9          9          9          9          9          9          9          9          9          9          9          9          9          9          9          9          9          9          9          9          9          9          9          9          9          9          9          9          9          9          9          9          9          9          9          9          9          9          9          9          9          9          9          9          9          9          9          9          9          9          9          9          9          9          9          9          9          9          9          9          9          9          9          9          9          9          9          9          9          9          9          9          9          9          9          9          9          9          9          9          9          9          9          9          9          9          9          9          9          9          9          9          9          9          9          9          9          9          9          9          9          9          9          9          9          9          9          9          9          9          9          9          9          9          9          9          9          9          9          9          9          9          9          9          9          9          9          9          9          9          9          9          9          9          9          9          9          9          9          9          9          9          9          9          9          9          9          9          9          9          9          9          9          9          9          9          9          9          9          9          9          9          9          9          9          9          9          9          9          9          9          9          9          9          9          9          9          9          9          9          9          9          9          9          9          9          9          9          9          9          9          9          9          9          9          9          9          9          9          9          9          9          9          9          9          9          9          9          9          9          9          9          9          9          9          9          9          9          9          9          9          9          9          9          9          9          9          9          9          9          9          9          9          9          9          9          9          9          9          9          9          9          9          9          9          9          9          9          9          9          9          9          9          9          9          9          9          9          9          9          9          9          9          9          9          9          9          9          9          9          9          9          9          9          9          9          9          9          9          9          9          9          9          9          9          9          9          9          9          9          9          9          9          9          9          9          9          9          9          9          9          9          9          9          9          9          9          9          9          9          9          9          9          9          9          9          9          9          9          9          9          9          9          9          9          9          9          9          9          9          9          9          9          9          9          9          9          9          9          9          9          9          9          9          9          9          9          9          9          9          9          9          9          9          9          9          9          9          9          9          9          9          9          9          9          9          9          9          9          9          9          9          9          9          9          9          9          9          9          9          9          9          9          9          9          9          9          9          9          9          9          9          9          9          9          9          9          9          9          9          9          9          9          9          9          9          9          9          9          9          9          9          9          9          9          9          9          9          9          9          9          9          9          9          9          9          9          9          9          9          9          9          9          9          9          9          9          9          9          9          9          9          9          9          9          9          9          9          9          9          9          9          9          9          9          9          9          9          9          9          9          9          9          9          9          9          9          9          9          9          9          9          9          9          9          9          9          9          9          9          9          9          9          9          9          9          9          9          9          9          9          9          9          9          9          9          9          9          9          9          9          9          9          9          9          9          9          9          9          9          9          9          9          9          9          9          9          9          9          9          9          9          9          9          9          9          9          9          9          9          9          9          9          9          9          9          9          9          9          9          9          9          9          9          9          9          9          9          9          9          9          9          9          9          9          9          9          9          9          9          9          9          9          9          9          9          9          9          9          9          9          9          9          9          9          9          9          9          9          9          9          9          9          9          9          9          9          9          9          9          9          9          9          9          9          9          9          9          9          9          9          9          9          9          9          9          9          9          9          9          9          9          9          9          9          9          9          9          9          9          9          9          9          9          9          9          9          9          9          9          9          9          9          9          9          9          9          9          9          9          9          9          9          9          9          9          9          9          9          9          9          9          9          9          9          9          9          9          9          9          9          9          9          9          9          9          9          9          9          9          9          9          9          9          9          9          9          9          9          9          9          9          9          9          9          9          9          9          9          9          9          9          9          9          9          9          9          9          9          9          9          9          9          9          9          9          9          9          9          9          9          9          9          9          9          9          9          9          9          9          9          9          9          9          9          9          9          9          9          9          9          9          9          9          9          9          9          9          9          9          9          9          9          9          9          9          9          9          9          9          9          9          9          9          9          9          9          9          9          9          9          9          9          9          9          9          9          9          9          9          9          9          9          9          9          9          9          9          9          9          9          9          9          9          9          9          9          9          9          9          9          9          9          9          9          9          9          9          9          9          9          9          9          9          9          9          9          9          9          9          9          9          9          9          9          9          9          9          9          9          9          9          9          9          9          9          9          9          9          9          9          9          9          9          9          9          9          9          9          9          9          9          9          9          9          9          9          9          9          9          9          9          9          9          9          9          9          9          9          9          9          9          9          9          9          9          9          9          9          9          9          9          9          9          9          9          9          9          9          9          9          9          9          9          9          9          9          9          9          9          9          9          9          9          9          9          9          9          9          9          9          9          9          9          9          9          9          9          9          9          9          9          9          9          9          9          9          9          9          9          9          9          9          9          9          9          9          9          9          9          9          9          9          9          9          9          9          9          9          9          9          9          9          9          9          9          9          9          9          9          9          9          9          9          9          9          9          9          9          9          9          9          9          9          9          9          9          9          9          9          9          9          9          9          9          9          9          9          9          9          9          9          9          9          9          9          9 </DataArray>
</Cells>
<CellData>
<DataArray type="Int32"                                    Name="material"                                                      NumberOfComponents=" 1" format="ascii">
         1          1          1          1          1          1          1          1          1          1          1          1          1          1          1          1          1          1          1          1          1          1          1          1          1          1          1          1          1          1          1          1          1          1          1          1          1          1          1          1          1          1          1          1          1          1          1          1          1          1          1          1          1          1          1          1          1          1          1          1          1          1          1          1          1          1          1          1          1          1          1          1          1          1          1          1          1          1          1          1          1          1          1          1          1          1          1          1          1          1          1          1          1          1          1          1          1          1          1          1          1          1          1          1          1          1          1          1          1          1          1          1          1          1          1          1          1          1          1          1          1          1          1          1          1          1          1          1          1          1          1          1          1          1          1          1          1          1          1          1          1          1          1          1          1          1          1          1          1          1          1          1          1          1          1          1          1          1          1          1          1          1          1          1          1          1          1          1          1          1          1          1          1          1          1          1          1          1          1          1          1          1          1          1          1          1          1          1          1          1          1          1          1          1          1          1          1          1          1          1          1          1          1          1          1          1          1          1          1          1          1          1          1          1          1          1          1          1          1          1          1          1          1          1          1          1          1          1          1          1          1          1          1          1          1          1          1          1          1          1          1          1          1          1          1          1          1          1          1          1          1          1          1          1          1          1          1          1          1          1          1          1          1          1          1          1          1          1          1          1          1          1          1          1          1          1          1          1          1          1          1          1          1          1          1          1          1          1          1          1          1          1          1          1          1          1          1          1          1          1          1          1          1          1          1          1          1          1          1          1          1          1          1          1          1          1          1          1          1          1          1          1          1          1          1          1          1          1          1          1          1          1          1          1          1          1          1          1          1          1          1          1          1          1          1          1          1          1          1          1          1          1          1          1          1          1          1          1          1          1          1          1          1          1          1          1          1          1          1          1          1          1          1          1          1          1          1          1          1          1          1          1          1          1          1          1          1          1          1          1          1          1          1          1          1          1          1          1          1          1          1          1          1          1          1          1          1          1          1          1          1          1          1          1          1          1          1          1          1          1          1          1          1          1          1          1          1          1          1          1          1          1          1          1          1          1          1          1          1          1          1          1          1          1          1          1          1          1          1          1          1          1          1          1          1          1          1          1          1          1          1          1          1          1          1          1          1          1          1          1          1          1          1          1          1          1          1          1          1          1          1          1          1          1          1          1          1          1          1          1          1          1          1          1          1          1          1          1          1          1          1          1          1          1          1          1          1          1          1          1          1          1          1          1          1          1          1          1          1          1          1          1          1          1          1          1          1          1          1          1          1          1          1          1          1          1          1          1          1          1          1          1          1          1          1          1          1          1          1          1          1          1          1          1          1          1          1          1          1          1          1          1          1          1          1          1          1          1          1          1          1          1          1          1          1          1          1          1          1          1          1          1          1          1          1          1          1          1          1          1          1          1          1          1          1          1          1          1          1          1          1          1          1          1          1          1          1          1          1          1          1          1          1          1          1          1          1          1          1          1          1          1          1          1          1          1          1          1          1          1          1          1          1          1          1          1          1          1          1          1          1          1          1          1          1          1          1          1          1          1          1          1          1          1          1          1          1          1          1          1          1          1          1          1          1          1          1          1          1          1          1          1          1          1          1          1          1          1          1          1          1          1          1          1          1          1          1          1          1          1          1          1          1          1          1          1          1          1          1          1          1          1          1          1          1          1          1          1          1          1          1          1          1          1          1          1          1          1          1          1          1          1          1          1          1          1          1          1          1          1          1          1          1          1          1          1          1          1          1          1          1          1          1          1          1          1          1          1          1          1          1          1          1          1          1          1          1          1          1          1          1          1          1          1          1          1          1          1          1          1          1          1          1          1          1          1          1          1          1          1          1          1          1          1          1          1          1          1          1          1          1          1          1          1          1          1          1          1          1          1          1          1          1          1          1          1          1          1          1          1          1          1          1          1          1          1          1          1          1          1          1          1          1          1          1          1          1          1          1          1          1          1          1          1          1          1          1          1          1          1          1          1          1          1          1          1          1          1          1          1          1          1          1          1          1          1          1          1          1          1          1          1          1          1          1          1          1          1          1          1          1          1          1          1          1          1          1          1          1          1          1          1          1          1          1          1          1          1          1          1          1          1          1          1          1          1          1          1          1          1          1          1          1          1          1          1          1          1          1          1          1          1          1          1          1          1          1          1          1          1          1          1          1          1          1          1          1          1          1          1          1          1          1          1          1          1          1          1          1          1          1          1          1          1          1          1          1          1          1          1          1          1          1          1          1          1          1          1          1          1          1          1          1          1          1          1          1          1          1          1          1          1          1          1          1          1          1          1          1          1          1          1          1          1          1          1          1          1          1          1          1          1          1          1          1          1          1          1          1          1          1          1          1          1          1          1          1          1          1          1          1          1          1          1          1          1          1          1          1          1          1          1          1          1 </DataArray>
</CellData>
<PointData>
<DataArray type="Float64"                                    Name="u"                                                      NumberOfComponents=" 3" format="ascii">
             -0.000522338              -0.000000000               0.999999984              -0.000566791              -0.000000000               0.999999984              -0.000586826              -0.000000000               0.999999984              -0.000598390              -0.000000000               0.999999984              -0.000607510              -0.000000000               0.999999984              -0.000616666              -0.000000000               0.999999984              -0.000626661               0.000000000               0.999999984              -0.000637744               0.000000000               0.999999984              -0.000649995               0.000000000               0.999999984              -0.000663221               0.000000000               0.999999984              -0.000677283              -0.000000000               0.999999984              -0.000691855              -0.000000000               0.999999984              -0.000706703               0.000000000               0.999999984              -0.000721577              -0.000000000               0.999999984              -0.000736268               0.000000000               0.999999984              -0.000750452               0.000000000               0.999999984              -0.000763433               0.000000000               0.999999984              -0.000519413               0.000113759               0.999999984              -0.000560789               0.000094223               0.999999984              -0.000578893               0.000086382               0.999999984              -0.000589362               0.000084369               0.999999984              -0.000597813               0.000085442               0.999999984              -0.000606435               0.000088323               0.999999984              -0.000616044               0.000092079               0.999999984              -0.000626773               0.000096130               0.999999984              -0.000638572               0.000100272               0.999999984              -0.000651238               0.000104086               0.999999984              -0.000664522               0.000107370               0.999999984              -0.000678159               0.000109824               0.999999984              -0.000691888               0.000111256               0.999999984              -0.000705448               0.000111550               0.999999984              -0.000718735               0.000110254               0.999999984              -0.000731409               0.000106436               0.999999984              -0.000742973               0.000099166               0.999999984              -0.000510678               0.000226352               0.999999984              -0.000543160               0.000187767               0.999999984              -0.000555955               0.000173010               0.999999984              -0.000563327               0.000169862               0.999999984              -0.000569956               0.000172666               0.999999984              -0.000577370               0.000178729               0.999999984              -0.000585978               0.000186387               0.999999984              -0.000595605               0.000194680               0.999999984              -0.000606110               0.000202929               0.999999984              -0.000617209               0.000210475               0.999999984              -0.000628598               0.000217023               0.999999984              -0.000639972               0.000222102               0.999999984              -0.000651089               0.000225267               0.999999984              -0.000661758               0.000226250               0.999999984              -0.000671713               0.000224424               0.999999984              -0.000680809               0.000218676               0.999999984              -0.000689036               0.000208088               0.999999984              -0.000496304               0.000336632               0.999999984              -0.000514809               0.000280145               0.999999984              -0.000520004               0.000260165               0.999999984              -0.000523280               0.000257227               0.999999984              -0.000527654               0.000262696               0.999999984              -0.000533664               0.000272508               0.999999984              -0.000541014               0.000284355               0.999999984              -0.000549223               0.000296890               0.999999984              -0.000558088               0.000309249               0.999999984              -0.000567128               0.000320494               0.999999984              -0.000575881               0.000330082               0.999999984              -0.000584086               0.000337688               0.999999984              -0.000591580               0.000343059               0.999999984              -0.000598205               0.000345787               0.999999984              -0.000603969               0.000345193               0.999999984              -0.000608972               0.000340609               0.999999984              -0.000613357               0.000331710               0.999999984              -0.000476594               0.000443488               0.999999984              -0.000477223               0.000371019               0.999999984              -0.000473946               0.000347920               0.999999984              -0.000473284               0.000346667               0.999999984              -0.000475751               0.000355748               0.999999984              -0.000480607               0.000369750               0.999999984              -0.000486969               0.000385856               0.999999984              -0.000494107               0.000402548               0.999999984              -0.000501239               0.000418772               0.999999984              -0.000507916               0.000433459               0.999999984              -0.000513814               0.000446193               0.999999984              -0.000518796               0.000456720               0.999999984              -0.000522595               0.000464803               0.999999984              -0.000525250               0.000470223               0.999999984              -0.000526927               0.000472672               0.999999984              -0.000527845               0.000472001               0.999999984              -0.000528353               0.000468495               0.999999984              -0.000451890               0.000545864               0.999999984              -0.000432375               0.000460209               0.999999984              -0.000421346               0.000436044               0.999999984              -0.000417918               0.000437647               0.999999984              -0.000419529               0.000450848               0.999999984              -0.000424094               0.000469295               0.999999984              -0.000429992               0.000489716               0.999999984              -0.000436004               0.000510439               0.999999984              -0.000441470               0.000530266               0.999999984              -0.000446000               0.000548338               0.999999984              -0.000449149               0.000564301               0.999999984              -0.000450860               0.000577879               0.999999984              -0.000451014               0.000588819               0.999999984              -0.000449770               0.000597412               0.999999984              -0.000447447               0.000603761               0.999999984              -0.000444301               0.000607897               0.999999984              -0.000440383               0.000609946               0.999999984              -0.000422727               0.000642671               0.999999984              -0.000382701               0.000547546               0.999999984              -0.000365941               0.000524004               0.999999984              -0.000361644               0.000529001               0.999999984              -0.000363743               0.000546507               0.999999984              -0.000368713               0.000569436               0.999999984              -0.000374334               0.000593975               0.999999984              -0.000379478               0.000618522               0.999999984              -0.000383329               0.000641980               0.999999984              -0.000385319               0.000663408               0.999999984              -0.000385420               0.000682321               0.999999984              -0.000383528               0.000698519               0.999999984              -0.000379775               0.000712191               0.999999984              -0.000374437               0.000723860               0.999999984              -0.000367700               0.000733747               0.999999984              -0.000359585               0.000741842               0.999999984              -0.000350085               0.000747789               0.999999984              -0.000389785               0.000732822               0.999999984              -0.000330776               0.000632728               0.999999984              -0.000311046               0.000610989               0.999999984              -0.000307962               0.000619435               0.999999984              -0.000311604               0.000640970               0.999999984              -0.000317369               0.000668063               0.999999984              -0.000322902               0.000696663               0.999999984              -0.000326888               0.000725155               0.999999984              -0.000328619               0.000751958               0.999999984              -0.000327887               0.000775991               0.999999984              -0.000324439               0.000797017               0.999999984              -0.000318357               0.000815269               0.999999984              -0.000309889               0.000831260               0.999999984              -0.000299256               0.000845711               0.999999984              -0.000286743               0.000858662               0.999999984              -0.000272440               0.000869740               0.999999984              -0.000256618               0.000878572               0.999999984              -0.000354356               0.000814727               0.999999984              -0.000278527               0.000715596               0.999999984              -0.000259574               0.000695937               0.999999984              -0.000259093               0.000707480               0.999999984              -0.000264813               0.000732711               0.999999984              -0.000271467               0.000763750               0.999999984              -0.000276577               0.000796504               0.999999984              -0.000279059               0.000828380               0.999999984              -0.000278268               0.000857748               0.999999984              -0.000273806               0.000883806               0.999999984              -0.000265599               0.000906459               0.999999984              -0.000253918               0.000926513               0.999999984              -0.000239380               0.000944685               0.999999984              -0.000222608               0.000961376               0.999999984              -0.000203941               0.000976595               0.999999984              -0.000183776               0.000990134               0.999999984              -0.000162857               0.001002165               0.999999984              -0.000318216               0.000891606               0.999999984              -0.000235617               0.000805872               0.999999984              -0.000213571               0.000781559               0.999999984              -0.000211759               0.000787219               0.999999984              -0.000216855               0.000807569               0.999999984              -0.000223421               0.000835439               0.999999984              -0.000229041               0.000866614               0.999999984              -0.000232328               0.000898319               0.999999984              -0.000232590               0.000928853               0.999999984              -0.000229558               0.000956859               0.999999984              -0.000222574               0.000981983               0.999999984              -0.000211619               0.001004362               0.999999984              -0.000197252               0.001024659               0.999999984              -0.000180277               0.001043445               0.999999984              -0.000161555               0.001061109               0.999999984              -0.000141243               0.001077778               0.999999984              -0.000120331               0.001093186               0.999999984              -0.000278671               0.000961163               0.999999984              -0.000195525               0.000892553               0.999999984              -0.000170517               0.000868673               0.999999984              -0.000166565               0.000870483               0.999999984              -0.000170356               0.000886924               0.999999984              -0.000176263               0.000911836               0.999999984              -0.000181843               0.000941350               0.999999984              -0.000185672               0.000972504               0.999999984              -0.000186901               0.001003727               0.999999984              -0.000184906               0.001033606               0.999999984              -0.000179204               0.001061346               0.999999984              -0.000169367               0.001086469               0.999999984              -0.000155659               0.001109141               0.999999984              -0.000138470               0.001129936               0.999999984              -0.000118699               0.001149501               0.999999984              -0.000097057               0.001168280               0.999999984              -0.000074232               0.001186485               0.999999984              -0.000236534               0.001021898               0.999999984              -0.000158093               0.000973231               0.999999984              -0.000131578               0.000953492               0.999999984              -0.000125318               0.000954159               0.999999984              -0.000127273               0.000968235               0.999999984              -0.000132030               0.000990968               0.999999984              -0.000136982               0.001018969               0.999999984              -0.000140763               0.001049777               0.999999984              -0.000142554               0.001081467               0.999999984              -0.000141444               0.001112844               0.999999984              -0.000136961               0.001143127               0.999999984              -0.000128513               0.001171414               0.999999984              -0.000115855               0.001197448               0.999999984              -0.000099054               0.001221277               0.999999984              -0.000078403               0.001243396               0.999999984              -0.000054390               0.001264289               0.999999984              -0.000027778               0.001284657               0.999999984              -0.000192115               0.001072874               0.999999984              -0.000123258               0.001044740               0.999999984              -0.000097347               0.001031969               0.999999984              -0.000089451               0.001033927               0.999999984              -0.000089489               0.001047317               0.999999984              -0.000092700               0.001069110               0.999999984              -0.000096553               0.001096315               0.999999984              -0.000099830               0.001126916               0.999999984              -0.000101621               0.001159404               0.999999984              -0.000101022               0.001192339               0.999999984              -0.000097504               0.001224958               0.999999984              -0.000090474               0.001256521               0.999999984              -0.000079538               0.001286440               0.999999984              -0.000064222               0.001314333               0.999999984              -0.000044020               0.001340275               0.999999984              -0.000018722               0.001364521               0.999999984               0.000011578               0.001387692               0.999999984              -0.000145785               0.001113342               0.999999984              -0.000090624               0.001104024               0.999999984              -0.000067929               0.001099512               0.999999984              -0.000059752               0.001104559               0.999999984              -0.000058348               0.001118789               0.999999984              -0.000059960               0.001140570               0.999999984              -0.000062568               0.001167802               0.999999984              -0.000064944               0.001198724               0.999999984              -0.000066384               0.001232002               0.999999984              -0.000066087               0.001266596               0.999999984              -0.000063371               0.001301582               0.999999984              -0.000057789               0.001336270               0.999999984              -0.000049055               0.001370062               0.999999984              -0.000036376               0.001402427               0.999999984              -0.000018539               0.001433119               0.999999984               0.000005166               0.001461933               0.999999984               0.000035580               0.001489081               0.999999984              -0.000098001               0.001142689               0.999999984              -0.000059604               0.001148394               0.999999984              -0.000042690               0.001151653               0.999999984              -0.000035917               0.001160458               0.999999984              -0.000034032               0.001176349               0.999999984              -0.000034520               0.001198803               0.999999984              -0.000035944               0.001226433               0.999999984              -0.000037444               0.001257904               0.999999984              -0.000038402               0.001292040               0.999999984              -0.000038136               0.001328031               0.999999984              -0.000036270               0.001365048               0.999999984              -0.000032455               0.001402389               0.999999984              -0.000026383               0.001439527               0.999999984              -0.000017209               0.001475915               0.999999984              -0.000003892               0.001511157               0.999999984               0.000014669               0.001544765               0.999999984               0.000039639               0.001576368               0.999999984              -0.000049250               0.001160480               0.999999984              -0.000029572               0.001175846               0.999999984              -0.000020507               0.001184583               0.999999984              -0.000016689               0.001196428               0.999999984              -0.000015382               0.001213925               0.999999984              -0.000015398               0.001237198               0.999999984              -0.000015983               0.001265298               0.999999984              -0.000016704               0.001297230               0.999999984              -0.000017152               0.001332035               0.999999984              -0.000016998               0.001368975               0.999999984              -0.000015995               0.001407350               0.999999984              -0.000014149               0.001446551               0.999999984              -0.000011036               0.001486051               0.999999984              -0.000006169               0.001525321               0.999999984               0.000000960               0.001563827               0.999999984               0.000011295               0.001600957               0.999999984               0.000025564               0.001636045               0.999999984              -0.000000000               0.001166448               0.999999984              -0.000000000               0.001185154               0.999999984              -0.000000000               0.001195823               0.999999984              -0.000000000               0.001208789               0.999999984              -0.000000000               0.001227006               0.999999984              -0.000000000               0.001250699               0.999999984               0.000000000               0.001278968               0.999999984               0.000000000               0.001311014               0.999999984               0.000000000               0.001346035               0.999999984              -0.000000000               0.001383332               0.999999984               0.000000000               0.001422184               0.999999984               0.000000000               0.001462049               0.999999984               0.000000000               0.001502413               0.999999984              -0.000000000               0.001542786               0.999999984              -0.000000000               0.001582567               0.999999984               0.000000000               0.001621009               0.999999984              -0.000000000               0.001657399               0.999999984              -0.000522338              -0.000000000               0.999999984              -0.000566791              -0.000000000               0.999999984              -0.000586826              -0.000000000               0.999999984              -0.000598390              -0.000000000               0.999999984              -0.000607510              -0.000000000               0.999999984              -0.000616666              -0.000000000               0.999999984              -0.000626661               0.000000000               0.999999984              -0.000637744               0.000000000               0.999999984              -0.000649995               0.000000000               0.999999984              -0.000663221               0.000000000               0.999999984              -0.000677283              -0.000000000               0.999999984              -0.000691855              -0.000000000               0.999999984              -0.000706703               0.000000000               0.999999984              -0.000721577              -0.000000000               0.999999984              -0.000736268               0.000000000               0.999999984              -0.000750452               0.000000000               0.999999984              -0.000763433               0.000000000               0.999999984              -0.000519413              -0.000113759               0.999999984              -0.000560789              -0.000094223               0.999999984              -0.000578893              -0.000086382               0.999999984              -0.000589362              -0.000084369               0.999999984              -0.000597813              -0.000085442               0.999999984              -0.000606435              -0.000088323               0.999999984              -0.000616044              -0.000092079               0.999999984              -0.000626773              -0.000096130               0.999999984              -0.000638572              -0.000100272               0.999999984              -0.000651238              -0.000104086               0.999999984              -0.000664522              -0.000107370               0.999999984              -0.000678159              -0.000109824               0.999999984              -0.000691888              -0.000111256               0.999999984              -0.000705448              -0.000111550               0.999999984              -0.000718735              -0.000110254               0.999999984              -0.000731409              -0.000106436               0.999999984              -0.000742973              -0.000099166               0.999999984              -0.000510678              -0.000226352               0.999999984              -0.000543160              -0.000187767               0.999999984              -0.000555955              -0.000173010               0.999999984              -0.000563327              -0.000169862               0.999999984              -0.000569956              -0.000172666               0.999999984              -0.000577370              -0.000178729               0.999999984              -0.000585978              -0.000186387               0.999999984              -0.000595605              -0.000194680               0.999999984              -0.000606110              -0.000202929               0.999999984              -0.000617209              -0.000210475               0.999999984              -0.000628598              -0.000217023               0.999999984              -0.000639972              -0.000222102               0.999999984              -0.000651089              -0.000225267               0.999999984              -0.000661758              -0.000226250               0.999999984              -0.000671713              -0.000224424               0.999999984              -0.000680809              -0.000218676               0.999999984              -0.000689036              -0.000208088               0.999999984              -0.000496304              -0.000336632               0.999999984              -0.000514809              -0.000280145               0.999999984              -0.000520004              -0.000260165               0.999999984              -0.000523280              -0.000257227               0.999999984              -0.000527654              -0.000262696               0.999999984              -0.000533664              -0.000272508               0.999999984              -0.000541014              -0.000284355               0.999999984              -0.000549223              -0.000296890               0.999999984              -0.000558088              -0.000309249               0.999999984              -0.000567128              -0.000320494               0.999999984              -0.000575881              -0.000330082               0.999999984              -0.000584086              -0.000337688               0.999999984              -0.000591580              -0.000343059               0.999999984              -0.000598205              -0.000345787               0.999999984              -0.000603969              -0.000345193               0.999999984              -0.000608972              -0.000340609               0.999999984              -0.000613357              -0.000331710               0.999999984              -0.000476594              -0.000443488               0.999999984              -0.000477223              -0.000371019               0.999999984              -0.000473946              -0.000347920               0.999999984              -0.000473284              -0.000346667               0.999999984              -0.000475751              -0.000355748               0.999999984              -0.000480607              -0.000369750               0.999999984              -0.000486969              -0.000385856               0.999999984              -0.000494107              -0.000402548               0.999999984              -0.000501239              -0.000418772               0.999999984              -0.000507916              -0.000433459               0.999999984              -0.000513814              -0.000446193               0.999999984              -0.000518796              -0.000456720               0.999999984              -0.000522595              -0.000464803               0.999999984              -0.000525250              -0.000470223               0.999999984              -0.000526927              -0.000472672               0.999999984              -0.000527845              -0.000472001               0.999999984              -0.000528353              -0.000468495               0.999999984              -0.000451890              -0.000545864               0.999999984              -0.000432375              -0.000460209               0.999999984              -0.000421346              -0.000436044               0.999999984              -0.000417918              -0.000437647               0.999999984              -0.000419529              -0.000450848               0.999999984              -0.000424094              -0.000469295               0.999999984              -0.000429992              -0.000489716               0.999999984              -0.000436004              -0.000510439               0.999999984              -0.000441470              -0.000530266               0.999999984              -0.000446000              -0.000548338               0.999999984              -0.000449149              -0.000564301               0.999999984              -0.000450860              -0.000577879               0.999999984              -0.000451014              -0.000588819               0.999999984              -0.000449770              -0.000597412               0.999999984              -0.000447447              -0.000603761               0.999999984              -0.000444301              -0.000607897               0.999999984              -0.000440383              -0.000609946               0.999999984              -0.000422727              -0.000642671               0.999999984              -0.000382701              -0.000547546               0.999999984              -0.000365941              -0.000524004               0.999999984              -0.000361644              -0.000529001               0.999999984              -0.000363743              -0.000546507               0.999999984              -0.000368713              -0.000569436               0.999999984              -0.000374334              -0.000593975               0.999999984              -0.000379478              -0.000618522               0.999999984              -0.000383329              -0.000641980               0.999999984              -0.000385319              -0.000663408               0.999999984              -0.000385420              -0.000682321               0.999999984              -0.000383528              -0.000698519               0.999999984              -0.000379775              -0.000712191               0.999999984              -0.000374437              -0.000723860               0.999999984              -0.000367700              -0.000733747               0.999999984              -0.000359585              -0.000741842               0.999999984              -0.000350085              -0.000747789               0.999999984              -0.000389785              -0.000732822               0.999999984              -0.000330776              -0.000632728               0.999999984              -0.000311046              -0.000610989               0.999999984              -0.000307962              -0.000619435               0.999999984              -0.000311604              -0.000640970               0.999999984              -0.000317369              -0.000668063               0.999999984              -0.000322902              -0.000696663               0.999999984              -0.000326888              -0.000725155               0.999999984              -0.000328619              -0.000751958               0.999999984              -0.000327887              -0.000775991               0.999999984              -0.000324439              -0.000797017               0.999999984              -0.000318357              -0.000815269               0.999999984              -0.000309889              -0.000831260               0.999999984              -0.000299256              -0.000845711               0.999999984              -0.000286743              -0.000858662               0.999999984              -0.000272440              -0.000869740               0.999999984              -0.000256618              -0.000878572               0.999999984              -0.000354356              -0.000814727               0.999999984              -0.000278527              -0.000715596               0.999999984              -0.000259574              -0.000695937               0.999999984              -0.000259093              -0.000707480               0.999999984              -0.000264813              -0.000732711               0.999999984              -0.000271467              -0.000763750               0.999999984              -0.000276577              -0.000796504               0.999999984              -0.000279059              -0.000828380               0.999999984              -0.000278268              -0.000857748               0.999999984              -0.000273806              -0.000883806               0.999999984              -0.000265599              -0.000906459               0.999999984              -0.000253918              -0.000926513               0.999999984              -0.000239380              -0.000944685               0.999999984              -0.000222608              -0.000961376               0.999999984              -0.000203941              -0.000976595               0.999999984              -0.000183776              -0.000990134               0.999999984              -0.000162857              -0.001002165               0.999999984              -0.000318216              -0.000891606               0.999999984              -0.000235617              -0.000805872               0.999999984              -0.000213571              -0.000781559               0.999999984              -0.000211759              -0.000787219               0.999999984              -0.000216855              -0.000807569               0.999999984              -0.000223421              -0.000835439               0.999999984              -0.000229041              -0.000866614               0.999999984              -0.000232328              -0.000898319               0.999999984              -0.000232590              -0.000928853               0.999999984              -0.000229558              -0.000956859               0.999999984              -0.000222574              -0.000981983               0.999999984              -0.000211619              -0.001004362               0.999999984              -0.000197252              -0.001024659               0.999999984              -0.000180277              -0.001043445               0.999999984              -0.000161555              -0.001061109               0.999999984              -0.000141243              -0.001077778               0.999999984              -0.000120331              -0.001093186               0.999999984              -0.000278671              -0.000961163               0.999999984              -0.000195525              -0.000892553               0.999999984              -0.000170517              -0.000868673               0.999999984              -0.000166565              -0.000870483               0.999999984              -0.000170356              -0.000886924               0.999999984              -0.000176263              -0.000911836               0.999999984              -0.000181843              -0.000941350               0.999999984              -0.000185672              -0.000972504               0.999999984              -0.000186901              -0.001003727               0.999999984              -0.000184906              -0.001033606               0.999999984              -0.000179204              -0.001061346               0.999999984              -0.000169367              -0.001086469               0.999999984              -0.000155659              -0.001109141               0.999999984              -0.000138470              -0.001129936               0.999999984              -0.000118699              -0.001149501               0.999999984              -0.000097057              -0.001168280               0.999999984              -0.000074232              -0.001186485               0.999999984              -0.000236534              -0.001021898               0.999999984              -0.000158093              -0.000973231               0.999999984              -0.000131578              -0.000953492               0.999999984              -0.000125318              -0.000954159               0.999999984              -0.000127273              -0.000968235               0.999999984              -0.000132030              -0.000990968               0.999999984              -0.000136982              -0.001018969               0.999999984              -0.000140763              -0.001049777               0.999999984              -0.000142554              -0.001081467               0.999999984              -0.000141444              -0.001112844               0.999999984              -0.000136961              -0.001143127               0.999999984              -0.000128513              -0.001171414               0.999999984              -0.000115855              -0.001197448               0.999999984              -0.000099054              -0.001221277               0.999999984              -0.000078403              -0.001243396               0.999999984              -0.000054390              -0.001264289               0.999999984              -0.000027778              -0.001284657               0.999999984              -0.000192115              -0.001072874               0.999999984              -0.000123258              -0.001044740               0.999999984              -0.000097347              -0.001031969               0.999999984              -0.000089451              -0.001033927               0.999999984              -0.000089489              -0.001047317               0.999999984              -0.000092700              -0.001069110               0.999999984              -0.000096553              -0.001096315               0.999999984              -0.000099830              -0.001126916               0.999999984              -0.000101621              -0.001159404               0.999999984              -0.000101022              -0.001192339               0.999999984              -0.000097504              -0.001224958               0.999999984              -0.000090474              -0.001256521               0.999999984              -0.000079538              -0.001286440               0.999999984              -0.000064222              -0.001314333               0.999999984              -0.000044020              -0.001340275               0.999999984              -0.000018722              -0.001364521               0.999999984               0.000011578              -0.001387692               0.999999984              -0.000145785              -0.001113342               0.999999984              -0.000090624              -0.001104024               0.999999984              -0.000067929              -0.001099512               0.999999984              -0.000059752              -0.001104559               0.999999984              -0.000058348              -0.001118789               0.999999984              -0.000059960              -0.001140570               0.999999984              -0.000062568              -0.001167802               0.999999984              -0.000064944              -0.001198724               0.999999984              -0.000066384              -0.001232002               0.999999984              -0.000066087              -0.001266596               0.999999984              -0.000063371              -0.001301582               0.999999984              -0.000057789              -0.001336270               0.999999984              -0.000049055              -0.001370062               0.999999984              -0.000036376              -0.001402427               0.999999984              -0.000018539              -0.001433119               0.999999984               0.000005166              -0.001461933               0.999999984               0.000035580              -0.001489081               0.999999984              -0.000098001              -0.001142689               0.999999984              -0.000059604              -0.001148394               0.999999984              -0.000042690              -0.001151653               0.999999984              -0.000035917              -0.001160458               0.999999984              -0.000034032              -0.001176349               0.999999984              -0.000034520              -0.001198803               0.999999984              -0.000035944              -0.001226433               0.999999984              -0.000037444              -0.001257904               0.999999984              -0.000038402              -0.001292040               0.999999984              -0.000038136              -0.001328031               0.999999984              -0.000036270              -0.001365048               0.999999984              -0.000032455              -0.001402389               0.999999984              -0.000026383              -0.001439527               0.999999984              -0.000017209              -0.001475915               0.999999984              -0.000003892              -0.001511157               0.999999984               0.000014669              -0.001544765               0.999999984               0.000039639              -0.001576368               0.999999984              -0.000049250              -0.001160480               0.999999984              -0.000029572              -0.001175846               0.999999984              -0.000020507              -0.001184583               0.999999984              -0.000016689              -0.001196428               0.999999984              -0.000015382              -0.001213925               0.999999984              -0.000015398              -0.001237198               0.999999984              -0.000015983              -0.001265298               0.999999984              -0.000016704              -0.001297230               0.999999984              -0.000017152              -0.001332035               0.999999984              -0.000016998              -0.001368975               0.999999984              -0.000015995              -0.001407350               0.999999984              -0.000014149              -0.001446551               0.999999984              -0.000011036              -0.001486051               0.999999984              -0.000006169              -0.001525321               0.999999984               0.000000960              -0.001563827               0.999999984               0.000011295              -0.001600957               0.999999984               0.000025564              -0.001636045               0.999999984               0.000000000              -0.001166448               0.999999984              -0.000000000              -0.001185154               0.999999984              -0.000000000              -0.001195823               0.999999984              -0.000000000              -0.001208789               0.999999984               0.000000000              -0.001227006               0.999999984               0.000000000              -0.001250699               0.999999984              -0.000000000              -0.001278968               0.999999984              -0.000000000              -0.001311014               0.999999984              -0.000000000              -0.001346035               0.999999984              -0.000000000              -0.001383332               0.999999984               0.000000000              -0.001422184               0.999999984              -0.000000000              -0.001462049               0.999999984              -0.000000000              -0.001502413               0.999999984               0.000000000              -0.001542786               0.999999984               0.000000000              -0.001582567               0.999999984              -0.000000000              -0.001621009               0.999999984               0.000000000              -0.001657399               0.999999984               0.000522338               0.000000000               0.999999984               0.000566791               0.000000000               0.999999984               0.000586826              -0.000000000               0.999999984               0.000598390               0.000000000               0.999999984               0.000607510              -0.000000000               0.999999984               0.000616666               0.000000000               0.999999984               0.000626661               0.000000000               0.999999984               0.000637744               0.000000000               0.999999984               0.000649995               0.000000000               0.999999984               0.000663221              -0.000000000               0.999999984               0.000677283              -0.000000000               0.999999984               0.000691855              -0.000000000               0.999999984               0.000706703               0.000000000               0.999999984               0.000721577              -0.000000000               0.999999984               0.000736268               0.000000000               0.999999984               0.000750452              -0.000000000               0.999999984               0.000763433              -0.000000000               0.999999984               0.000519413              -0.000113759               0.999999984               0.000560789              -0.000094223               0.999999984               0.000578893              -0.000086382               0.999999984               0.000589362              -0.000084369               0.999999984               0.000597813              -0.000085442               0.999999984               0.000606435              -0.000088323               0.999999984               0.000616044              -0.000092079               0.999999984               0.000626773              -0.000096130               0.999999984               0.000638572              -0.000100272               0.999999984               0.000651238              -0.000104086               0.999999984               0.000664522              -0.000107370               0.999999984               0.000678159              -0.000109824               0.999999984               0.000691888              -0.000111256               0.999999984               0.000705448              -0.000111550               0.999999984               0.000718735              -0.000110254               0.999999984               0.000731409              -0.000106436               0.999999984               0.000742973              -0.000099166               0.999999984               0.000510678              -0.000226352               0.999999984               0.000543160              -0.000187767               0.999999984               0.000555955              -0.000173010               0.999999984               0.000563327              -0.000169862               0.999999984               0.000569956              -0.000172666               0.999999984               0.000577370              -0.000178729               0.999999984               0.000585978              -0.000186387               0.999999984               0.000595605              -0.000194680               0.999999984               0.000606110              -0.000202929               0.999999984               0.000617209              -0.000210475               0.999999984               0.000628598              -0.000217023               0.999999984               0.000639972              -0.000222102               0.999999984               0.000651089              -0.000225267               0.999999984               0.000661758              -0.000226250               0.999999984               0.000671713              -0.000224424               0.999999984               0.000680809              -0.000218676               0.999999984               0.000689036              -0.000208088               0.999999984               0.000496304              -0.000336632               0.999999984               0.000514809              -0.000280145               0.999999984               0.000520004              -0.000260165               0.999999984               0.000523280              -0.000257227               0.999999984               0.000527654              -0.000262696               0.999999984               0.000533664              -0.000272508               0.999999984               0.000541014              -0.000284355               0.999999984               0.000549223              -0.000296890               0.999999984               0.000558088              -0.000309249               0.999999984               0.000567128              -0.000320494               0.999999984               0.000575881              -0.000330082               0.999999984               0.000584086              -0.000337688               0.999999984               0.000591580              -0.000343059               0.999999984               0.000598205              -0.000345787               0.999999984               0.000603969              -0.000345193               0.999999984               0.000608972              -0.000340609               0.999999984               0.000613357              -0.000331710               0.999999984               0.000476594              -0.000443488               0.999999984               0.000477223              -0.000371019               0.999999984               0.000473946              -0.000347920               0.999999984               0.000473284              -0.000346667               0.999999984               0.000475751              -0.000355748               0.999999984               0.000480607              -0.000369750               0.999999984               0.000486969              -0.000385856               0.999999984               0.000494107              -0.000402548               0.999999984               0.000501239              -0.000418772               0.999999984               0.000507916              -0.000433459               0.999999984               0.000513814              -0.000446193               0.999999984               0.000518796              -0.000456720               0.999999984               0.000522595              -0.000464803               0.999999984               0.000525250              -0.000470223               0.999999984               0.000526927              -0.000472672               0.999999984               0.000527845              -0.000472001               0.999999984               0.000528353              -0.000468495               0.999999984               0.000451890              -0.000545864               0.999999984               0.000432375              -0.000460209               0.999999984               0.000421346              -0.000436044               0.999999984               0.000417918              -0.000437647               0.999999984               0.000419529              -0.000450848               0.999999984               0.000424094              -0.000469295               0.999999984               0.000429992              -0.000489716               0.999999984               0.000436004              -0.000510439               0.999999984               0.000441470              -0.000530266               0.999999984               0.000446000              -0.000548338               0.999999984               0.000449149              -0.000564301               0.999999984               0.000450860              -0.000577879               0.999999984               0.000451014              -0.000588819               0.999999984               0.000449770              -0.000597412               0.999999984               0.000447447              -0.000603761               0.999999984               0.000444301              -0.000607897               0.999999984               0.000440383              -0.000609946               0.999999984               0.000422727              -0.000642671               0.999999984               0.000382701              -0.000547546               0.999999984               0.000365941              -0.000524004               0.999999984               0.000361644              -0.000529001               0.999999984               0.000363743              -0.000546507               0.999999984               0.000368713              -0.000569436               0.999999984               0.000374334              -0.000593975               0.999999984               0.000379478              -0.000618522               0.999999984               0.000383329              -0.000641980               0.999999984               0.000385319              -0.000663408               0.999999984               0.000385420              -0.000682321               0.999999984               0.000383528              -0.000698519               0.999999984               0.000379775              -0.000712191               0.999999984               0.000374437              -0.000723860               0.999999984               0.000367700              -0.000733747               0.999999984               0.000359585              -0.000741842               0.999999984               0.000350085              -0.000747789               0.999999984               0.000389785              -0.000732822               0.999999984               0.000330776              -0.000632728               0.999999984               0.000311046              -0.000610989               0.999999984               0.000307962              -0.000619435               0.999999984               0.000311604              -0.000640970               0.999999984               0.000317369              -0.000668063               0.999999984               0.000322902              -0.000696663               0.999999984               0.000326888              -0.000725155               0.999999984               0.000328619              -0.000751958               0.999999984               0.000327887              -0.000775991               0.999999984               0.000324439              -0.000797017               0.999999984               0.000318357              -0.000815269               0.999999984               0.000309889              -0.000831260               0.999999984               0.000299256              -0.000845711               0.999999984               0.000286743              -0.000858662               0.999999984               0.000272440              -0.000869740               0.999999984               0.000256618              -0.000878572               0.999999984               0.000354356              -0.000814727               0.999999984               0.000278527              -0.000715596               0.999999984               0.000259574              -0.000695937               0.999999984               0.000259093              -0.000707480               0.999999984               0.000264813              -0.000732711               0.999999984               0.000271467              -0.000763750               0.999999984               0.000276577              -0.000796504               0.999999984               0.000279059              -0.000828380               0.999999984               0.000278268              -0.000857748               0.999999984               0.000273806              -0.000883806               0.999999984               0.000265599              -0.000906459               0.999999984               0.000253918              -0.000926513               0.999999984               0.000239380              -0.000944685               0.999999984               0.000222608              -0.000961376               0.999999984               0.000203941              -0.000976595               0.999999984               0.000183776              -0.000990134               0.999999984               0.000162857              -0.001002165               0.999999984               0.000318216              -0.000891606               0.999999984               0.000235617              -0.000805872               0.999999984               0.000213571              -0.000781559               0.999999984               0.000211759              -0.000787219               0.999999984               0.000216855              -0.000807569               0.999999984               0.000223421              -0.000835439               0.999999984               0.000229041              -0.000866614               0.999999984               0.000232328              -0.000898319               0.999999984               0.000232590              -0.000928853               0.999999984               0.000229558              -0.000956859               0.999999984               0.000222574              -0.000981983               0.999999984               0.000211619              -0.001004362               0.999999984               0.000197252              -0.001024659               0.999999984               0.000180277              -0.001043445               0.999999984               0.000161555              -0.001061109               0.999999984               0.000141243              -0.001077778               0.999999984               0.000120331              -0.001093186               0.999999984               0.000278671              -0.000961163               0.999999984               0.000195525              -0.000892553               0.999999984               0.000170517              -0.000868673               0.999999984               0.000166565              -0.000870483               0.999999984               0.000170356              -0.000886924               0.999999984               0.000176263              -0.000911836               0.999999984               0.000181843              -0.000941350               0.999999984               0.000185672              -0.000972504               0.999999984               0.000186901              -0.001003727               0.999999984               0.000184906              -0.001033606               0.999999984               0.000179204              -0.001061346               0.999999984               0.000169367              -0.001086469               0.999999984               0.000155659              -0.001109141               0.999999984               0.000138470              -0.001129936               0.999999984               0.000118699              -0.001149501               0.999999984               0.000097057              -0.001168280               0.999999984               0.000074232              -0.001186485               0.999999984               0.000236534              -0.001021898               0.999999984               0.000158093              -0.000973231               0.999999984               0.000131578              -0.000953492               0.999999984               0.000125318              -0.000954159               0.999999984               0.000127273              -0.000968235               0.999999984               0.000132030              -0.000990968               0.999999984               0.000136982              -0.001018969               0.999999984               0.000140763              -0.001049777               0.999999984               0.000142554              -0.001081467               0.999999984               0.000141444              -0.001112844               0.999999984               0.000136961              -0.001143127               0.999999984               0.000128513              -0.001171414               0.999999984               0.000115855              -0.001197448               0.999999984               0.000099054              -0.001221277               0.999999984               0.000078403              -0.001243396               0.999999984               0.000054390              -0.001264289               0.999999984               0.000027778              -0.001284657               0.999999984               0.000192115              -0.001072874               0.999999984               0.000123258              -0.001044740               0.999999984               0.000097347              -0.001031969               0.999999984               0.000089451              -0.001033927               0.999999984               0.000089489              -0.001047317               0.999999984               0.000092700              -0.001069110               0.999999984               0.000096553              -0.001096315               0.999999984               0.000099830              -0.001126916               0.999999984               0.000101621              -0.001159404               0.999999984               0.000101022              -0.001192339               0.999999984               0.000097504              -0.001224958               0.999999984               0.000090474              -0.001256521               0.999999984               0.000079538              -0.001286440               0.999999984               0.000064222              -0.001314333               0.999999984               0.000044020              -0.001340275               0.999999984               0.000018722              -0.001364521               0.999999984              -0.000011578              -0.001387692               0.999999984               0.000145785              -0.001113342               0.999999984               0.000090624              -0.001104024               0.999999984               0.000067929              -0.001099512               0.999999984               0.000059752              -0.001104559               0.999999984               0.000058348              -0.001118789               0.999999984               0.000059960              -0.001140570               0.999999984               0.000062568              -0.001167802               0.999999984               0.000064944              -0.001198724               0.999999984               0.000066384              -0.001232002               0.999999984               0.000066087              -0.001266596               0.999999984               0.000063371              -0.001301582               0.999999984               0.000057789              -0.001336270               0.999999984               0.000049055              -0.001370062               0.999999984               0.000036376              -0.001402427               0.999999984               0.000018539              -0.001433119               0.999999984              -0.000005166              -0.001461933               0.999999984              -0.000035580              -0.001489081               0.999999984               0.000098001              -0.001142689               0.999999984               0.000059604              -0.001148394               0.999999984               0.000042690              -0.001151653               0.999999984               0.000035917              -0.001160458               0.999999984               0.000034032              -0.001176349               0.999999984               0.000034520              -0.001198803               0.999999984               0.000035944              -0.001226433               0.999999984               0.000037444              -0.001257904               0.999999984               0.000038402              -0.001292040               0.999999984               0.000038136              -0.001328031               0.999999984               0.000036270              -0.001365048               0.999999984               0.000032455              -0.001402389               0.999999984               0.000026383              -0.001439527               0.999999984               0.000017209              -0.001475915               0.999999984               0.000003892              -0.001511157               0.999999984              -0.000014669              -0.001544765               0.999999984              -0.000039639              -0.001576368               0.999999984               0.000049250              -0.001160480               0.999999984               0.000029572              -0.001175846               0.999999984               0.000020507              -0.001184583               0.999999984               0.000016689              -0.001196428               0.999999984               0.000015382              -0.001213925               0.999999984               0.000015398              -0.001237198               0.999999984               0.000015983              -0.001265298               0.999999984               0.000016704              -0.001297230               0.999999984               0.000017152              -0.001332035               0.999999984               0.000016998              -0.001368975               0.999999984               0.000015995              -0.001407350               0.999999984               0.000014149              -0.001446551               0.999999984               0.000011036              -0.001486051               0.999999984               0.000006169              -0.001525321               0.999999984              -0.000000960              -0.001563827               0.999999984              -0.000011295              -0.001600957               0.999999984              -0.000025564              -0.001636045               0.999999984               0.000000000              -0.001166448               0.999999984              -0.000000000              -0.001185154               0.999999984              -0.000000000              -0.001195823               0.999999984              -0.000000000              -0.001208789               0.999999984               0.000000000              -0.001227006               0.999999984               0.000000000              -0.001250699               0.999999984              -0.000000000              -0.001278968               0.999999984              -0.000000000              -0.001311014               0.999999984              -0.000000000              -0.001346035               0.999999984              -0.000000000              -0.001383332               0.999999984               0.000000000              -0.001422184               0.999999984              -0.000000000              -0.001462049               0.999999984              -0.000000000              -0.001502413               0.999999984               0.000000000              -0.001542786               0.999999984               0.000000000              -0.001582567               0.999999984              -0.000000000              -0.001621009               0.999999984               0.000000000              -0.001657399               0.999999984               0.000522338               0.000000000               0.999999984               0.000566791               0.000000000               0.999999984               0.000586826              -0.000000000               0.999999984               0.000598390               0.000000000               0.999999984               0.000607510              -0.000000000               0.999999984               0.000616666               0.000000000               0.999999984               0.000626661               0.000000000               0.999999984               0.000637744               0.000000000               0.999999984               0.000649995               0.000000000               0.999999984               0.000663221              -0.000000000               0.999999984               0.000677283              -0.000000000               0.999999984               0.000691855              -0.000000000               0.999999984               0.000706703               0.000000000               0.999999984               0.000721577              -0.000000000               0.999999984               0.000736268               0.000000000               0.999999984               0.000750452              -0.000000000               0.999999984               0.000763433              -0.000000000               0.999999984               0.000519413               0.000113759               0.999999984               0.000560789               0.000094223               0.999999984               0.000578893               0.000086382               0.999999984               0.000589362               0.000084369               0.999999984               0.000597813               0.000085442               0.999999984               0.000606435               0.000088323               0.999999984               0.000616044               0.000092079               0.999999984               0.000626773               0.000096130               0.999999984               0.000638572               0.000100272               0.999999984               0.000651238               0.000104086               0.999999984               0.000664522               0.000107370               0.999999984               0.000678159               0.000109824               0.999999984               0.000691888               0.000111256               0.999999984               0.000705448               0.000111550               0.999999984               0.000718735               0.000110254               0.999999984               0.000731409               0.000106436               0.999999984               0.000742973               0.000099166               0.999999984               0.000510678               0.000226352               0.999999984               0.000543160               0.000187767               0.999999984               0.000555955               0.000173010               0.999999984               0.000563327               0.000169862               0.999999984               0.000569956               0.000172666               0.999999984               0.000577370               0.000178729               0.999999984               0.000585978               0.000186387               0.999999984               0.000595605               0.000194680               0.999999984               0.000606110               0.000202929               0.999999984               0.000617209               0.000210475               0.999999984               0.000628598               0.000217023               0.999999984               0.000639972               0.000222102               0.999999984               0.000651089               0.000225267               0.999999984               0.000661758               0.000226250               0.999999984               0.000671713               0.000224424               0.999999984               0.000680809               0.000218676               0.999999984               0.000689036               0.000208088               0.999999984               0.000496304               0.000336632               0.999999984               0.000514809               0.000280145               0.999999984               0.000520004               0.000260165               0.999999984               0.000523280               0.000257227               0.999999984               0.000527654               0.000262696               0.999999984               0.000533664               0.000272508               0.999999984               0.000541014               0.000284355               0.999999984               0.000549223               0.000296890               0.999999984               0.000558088               0.000309249               0.999999984               0.000567128               0.000320494               0.999999984               0.000575881               0.000330082               0.999999984               0.000584086               0.000337688               0.999999984               0.000591580               0.000343059               0.999999984               0.000598205               0.000345787               0.999999984               0.000603969               0.000345193               0.999999984               0.000608972               0.000340609               0.999999984               0.000613357               0.000331710               0.999999984               0.000476594               0.000443488               0.999999984               0.000477223               0.000371019               0.999999984               0.000473946               0.000347920               0.999999984               0.000473284               0.000346667               0.999999984               0.000475751               0.000355748               0.999999984               0.000480607               0.000369750               0.999999984               0.000486969               0.000385856               0.999999984               0.000494107               0.000402548               0.999999984               0.000501239               0.000418772               0.999999984               0.000507916               0.000433459               0.999999984               0.000513814               0.000446193               0.999999984               0.000518796               0.000456720               0.999999984               0.000522595               0.000464803               0.999999984               0.000525250               0.000470223               0.999999984               0.000526927               0.000472672               0.999999984               0.000527845               0.000472001               0.999999984               0.000528353               0.000468495               0.999999984               0.000451890               0.000545864               0.999999984               0.000432375               0.000460209               0.999999984               0.000421346               0.000436044               0.999999984               0.000417918               0.000437647               0.999999984               0.000419529               0.000450848               0.999999984               0.000424094               0.000469295               0.999999984               0.000429992               0.000489716               0.999999984               0.000436004               0.000510439               0.999999984               0.000441470               0.000530266               0.999999984               0.000446000               0.000548338               0.999999984               0.000449149               0.000564301               0.999999984               0.000450860               0.000577879               0.999999984               0.000451014               0.000588819               0.999999984               0.000449770               0.000597412               0.999999984               0.000447447               0.000603761               0.999999984               0.000444301               0.000607897               0.999999984               0.000440383               0.000609946               0.999999984               0.000422727               0.000642671               0.999999984               0.000382701               0.000547546               0.999999984               0.000365941               0.000524004               0.999999984               0.000361644               0.000529001               0.999999984               0.000363743               0.000546507               0.999999984               0.000368713               0.000569436               0.999999984               0.000374334               0.000593975               0.999999984               0.000379478               0.000618522               0.999999984               0.000383329               0.000641980               0.999999984               0.000385319               0.000663408               0.999999984               0.000385420               0.000682321               0.999999984               0.000383528               0.000698519               0.999999984               0.000379775               0.000712191               0.999999984               0.000374437               0.000723860               0.999999984               0.000367700               0.000733747               0.999999984               0.000359585               0.000741842               0.999999984               0.000350085               0.000747789               0.999999984               0.000389785               0.000732822               0.999999984               0.000330776               0.000632728               0.999999984               0.000311046               0.000610989               0.999999984               0.000307962               0.000619435               0.999999984               0.000311604               0.000640970               0.999999984               0.000317369               0.000668063               0.999999984               0.000322902               0.000696663               0.999999984               0.000326888               0.000725155               0.999999984               0.000328619               0.000751958               0.999999984               0.000327887               0.000775991               0.999999984               0.000324439               0.000797017               0.999999984               0.000318357               0.000815269               0.999999984               0.000309889               0.000831260               0.999999984               0.000299256               0.000845711               0.999999984               0.000286743               0.000858662               0.999999984               0.000272440               0.000869740               0.999999984               0.000256618               0.000878572               0.999999984               0.000354356               0.000814727               0.999999984               0.000278527               0.000715596               0.999999984               0.000259574               0.000695937               0.999999984               0.000259093               0.000707480               0.999999984               0.000264813               0.000732711               0.999999984               0.000271467               0.000763750               0.999999984               0.000276577               0.000796504               0.999999984               0.000279059               0.000828380               0.999999984               0.000278268               0.000857748               0.999999984               0.000273806               0.000883806               0.999999984               0.000265599               0.000906459               0.999999984               0.000253918               0.000926513               0.999999984               0.000239380               0.000944685               0.999999984               0.000222608               0.000961376               0.999999984               0.000203941               0.000976595               0.999999984               0.000183776               0.000990134               0.999999984               0.000162857               0.001002165               0.999999984               0.000318216               0.000891606               0.999999984               0.000235617               0.000805872               0.999999984               0.000213571               0.000781559               0.999999984               0.000211759               0.000787219               0.999999984               0.000216855               0.000807569               0.999999984               0.000223421               0.000835439               0.999999984               0.000229041               0.000866614               0.999999984               0.000232328               0.000898319               0.999999984               0.000232590               0.000928853               0.999999984               0.000229558               0.000956859               0.999999984               0.000222574               0.000981983               0.999999984               0.000211619               0.001004362               0.999999984               0.000197252               0.001024659               0.999999984               0.000180277               0.001043445               0.999999984               0.000161555               0.001061109               0.999999984               0.000141243               0.001077778               0.999999984               0.000120331               0.001093186               0.999999984               0.000278671               0.000961163               0.999999984               0.000195525               0.000892553               0.999999984               0.000170517               0.000868673               0.999999984               0.000166565               0.000870483               0.999999984               0.000170356               0.000886924               0.999999984               0.000176263               0.000911836               0.999999984               0.000181843               0.000941350               0.999999984               0.000185672               0.000972504               0.999999984               0.000186901               0.001003727               0.999999984               0.000184906               0.001033606               0.999999984               0.000179204               0.001061346               0.999999984               0.000169367               0.001086469               0.999999984               0.000155659               0.001109141               0.999999984               0.000138470               0.001129936               0.999999984               0.000118699               0.001149501               0.999999984               0.000097057               0.001168280               0.999999984               0.000074232               0.001186485               0.999999984               0.000236534               0.001021898               0.999999984               0.000158093               0.000973231               0.999999984               0.000131578               0.000953492               0.999999984               0.000125318               0.000954159               0.999999984               0.000127273               0.000968235               0.999999984               0.000132030               0.000990968               0.999999984               0.000136982               0.001018969               0.999999984               0.000140763               0.001049777               0.999999984               0.000142554               0.001081467               0.999999984               0.000141444               0.001112844               0.999999984               0.000136961               0.001143127               0.999999984               0.000128513               0.001171414               0.999999984               0.000115855               0.001197448               0.999999984               0.000099054               0.001221277               0.999999984               0.000078403               0.001243396               0.999999984               0.000054390               0.001264289               0.999999984               0.000027778               0.001284657               0.999999984               0.000192115               0.001072874               0.999999984               0.000123258               0.001044740               0.999999984               0.000097347               0.001031969               0.999999984               0.000089451               0.001033927               0.999999984               0.000089489               0.001047317               0.999999984               0.000092700               0.001069110               0.999999984               0.000096553               0.001096315               0.999999984               0.000099830               0.001126916               0.999999984               0.000101621               0.001159404               0.999999984               0.000101022               0.001192339               0.999999984               0.000097504               0.001224958               0.999999984               0.000090474               0.001256521               0.999999984               0.000079538               0.001286440               0.999999984               0.000064222               0.001314333               0.999999984               0.000044020               0.001340275               0.999999984               0.000018722               0.001364521               0.999999984              -0.000011578               0.001387692               0.999999984               0.000145785               0.001113342               0.999999984               0.000090624               0.001104024               0.999999984               0.000067929               0.001099512               0.999999984               0.000059752               0.001104559               0.999999984               0.000058348               0.001118789               0.999999984               0.000059960               0.001140570               0.999999984               0.000062568               0.001167802               0.999999984               0.000064944               0.001198724               0.999999984               0.000066384               0.001232002               0.999999984               0.000066087               0.001266596               0.999999984               0.000063371               0.001301582               0.999999984               0.000057789               0.001336270               0.999999984               0.000049055               0.001370062               0.999999984               0.000036376               0.001402427               0.999999984               0.000018539               0.001433119               0.999999984              -0.000005166               0.001461933               0.999999984              -0.000035580               0.001489081               0.999999984               0.000098001               0.001142689               0.999999984               0.000059604               0.001148394               0.999999984               0.000042690               0.001151653               0.999999984               0.000035917               0.001160458               0.999999984               0.000034032               0.001176349               0.999999984               0.000034520               0.001198803               0.999999984               0.000035944               0.001226433               0.999999984               0.000037444               0.001257904               0.999999984               0.000038402               0.001292040               0.999999984               0.000038136               0.001328031               0.999999984               0.000036270               0.001365048               0.999999984               0.000032455               0.001402389               0.999999984               0.000026383               0.001439527               0.999999984               0.000017209               0.001475915               0.999999984               0.000003892               0.001511157               0.999999984              -0.000014669               0.001544765               0.999999984              -0.000039639               0.001576368               0.999999984               0.000049250               0.001160480               0.999999984               0.000029572               0.001175846               0.999999984               0.000020507               0.001184583               0.999999984               0.000016689               0.001196428               0.999999984               0.000015382               0.001213925               0.999999984               0.000015398               0.001237198               0.999999984               0.000015983               0.001265298               0.999999984               0.000016704               0.001297230               0.999999984               0.000017152               0.001332035               0.999999984               0.000016998               0.001368975               0.999999984               0.000015995               0.001407350               0.999999984               0.000014149               0.001446551               0.999999984               0.000011036               0.001486051               0.999999984               0.000006169               0.001525321               0.999999984              -0.000000960               0.001563827               0.999999984              -0.000011295               0.001600957               0.999999984              -0.000025564               0.001636045               0.999999984              -0.000000000               0.001166448               0.999999984              -0.000000000               0.001185154               0.999999984              -0.000000000               0.001195823               0.999999984              -0.000000000               0.001208789               0.999999984              -0.000000000               0.001227006               0.999999984              -0.000000000               0.001250699               0.999999984               0.000000000               0.001278968               0.999999984               0.000000000               0.001311014               0.999999984               0.000000000               0.001346035               0.999999984              -0.000000000               0.001383332               0.999999984               0.000000000               0.001422184               0.999999984               0.000000000               0.001462049               0.999999984               0.000000000               0.001502413               0.999999984              -0.000000000               0.001542786               0.999999984              -0.000000000               0.001582567               0.999999984               0.000000000               0.001621009               0.999999984              -0.000000000               0.001657399               0.999999984 </DataArray>
<DataArray type="Float64"                                    Name="defo"                                                      NumberOfComponents=" 3" format="ascii">
             -0.000522338              -0.000000000               0.999999984              -0.000566791              -0.000000000               0.999999984              -0.000586826              -0.000000000               0.999999984              -0.000598390              -0.000000000               0.999999984              -0.000607510              -0.000000000               0.999999984              -0.000616666              -0.000000000               0.999999984              -0.000626661               0.000000000               0.999999984              -0.000637744               0.000000000               0.999999984              -0.000649995               0.000000000               0.999999984              -0.000663221               0.000000000               0.999999984              -0.000677283              -0.000000000               0.999999984              -0.000691855              -0.000000000               0.999999984              -0.000706703               0.000000000               0.999999984              -0.000721577              -0.000000000               0.999999984              -0.000736268               0.000000000               0.999999984              -0.000750452               0.000000000               0.999999984              -0.000763433               0.000000000               0.999999984              -0.000519413               0.000113759               0.999999984              -0.000560789               0.000094223               0.999999984              -0.000578893               0.000086382               0.999999984              -0.000589362               0.000084369               0.999999984              -0.000597813               0.000085442               0.999999984              -0.000606435               0.000088323               0.999999984              -0.000616044               0.000092079               0.999999984              -0.000626773               0.000096130               0.999999984              -0.000638572               0.000100272               0.999999984              -0.000651238               0.000104086               0.999999984              -0.000664522               0.000107370               0.999999984              -0.000678159               0.000109824               0.999999984              -0.000691888               0.000111256               0.999999984              -0.000705448               0.000111550               0.999999984              -0.000718735               0.000110254               0.999999984              -0.000731409               0.000106436               0.999999984              -0.000742973               0.000099166               0.999999984              -0.000510678               0.000226352               0.999999984              -0.000543160               0.000187767               0.999999984              -0.000555955               0.000173010               0.999999984              -0.000563327               0.000169862               0.999999984              -0.000569956               0.000172666               0.999999984              -0.000577370               0.000178729               0.999999984              -0.000585978               0.000186387               0.999999984              -0.000595605               0.000194680               0.999999984              -0.000606110               0.000202929               0.999999984              -0.000617209               0.000210475               0.999999984              -0.000628598               0.000217023               0.999999984              -0.000639972               0.000222102               0.999999984              -0.000651089               0.000225267               0.999999984              -0.000661758               0.000226250               0.999999984              -0.000671713               0.000224424               0.999999984              -0.000680809               0.000218676               0.999999984              -0.000689036               0.000208088               0.999999984              -0.000496304               0.000336632               0.999999984              -0.000514809               0.000280145               0.999999984              -0.000520004               0.000260165               0.999999984              -0.000523280               0.000257227               0.999999984              -0.000527654               0.000262696               0.999999984              -0.000533664               0.000272508               0.999999984              -0.000541014               0.000284355               0.999999984              -0.000549223               0.000296890               0.999999984              -0.000558088               0.000309249               0.999999984              -0.000567128               0.000320494               0.999999984              -0.000575881               0.000330082               0.999999984              -0.000584086               0.000337688               0.999999984              -0.000591580               0.000343059               0.999999984              -0.000598205               0.000345787               0.999999984              -0.000603969               0.000345193               0.999999984              -0.000608972               0.000340609               0.999999984              -0.000613357               0.000331710               0.999999984              -0.000476594               0.000443488               0.999999984              -0.000477223               0.000371019               0.999999984              -0.000473946               0.000347920               0.999999984              -0.000473284               0.000346667               0.999999984              -0.000475751               0.000355748               0.999999984              -0.000480607               0.000369750               0.999999984              -0.000486969               0.000385856               0.999999984              -0.000494107               0.000402548               0.999999984              -0.000501239               0.000418772               0.999999984              -0.000507916               0.000433459               0.999999984              -0.000513814               0.000446193               0.999999984              -0.000518796               0.000456720               0.999999984              -0.000522595               0.000464803               0.999999984              -0.000525250               0.000470223               0.999999984              -0.000526927               0.000472672               0.999999984              -0.000527845               0.000472001               0.999999984              -0.000528353               0.000468495               0.999999984              -0.000451890               0.000545864               0.999999984              -0.000432375               0.000460209               0.999999984              -0.000421346               0.000436044               0.999999984              -0.000417918               0.000437647               0.999999984              -0.000419529               0.000450848               0.999999984              -0.000424094               0.000469295               0.999999984              -0.000429992               0.000489716               0.999999984              -0.000436004               0.000510439               0.999999984              -0.000441470               0.000530266               0.999999984              -0.000446000               0.000548338               0.999999984              -0.000449149               0.000564301               0.999999984              -0.000450860               0.000577879               0.999999984              -0.000451014               0.000588819               0.999999984              -0.000449770               0.000597412               0.999999984              -0.000447447               0.000603761               0.999999984              -0.000444301               0.000607897               0.999999984              -0.000440383               0.000609946               0.999999984              -0.000422727               0.000642671               0.999999984              -0.000382701               0.000547546               0.999999984              -0.000365941               0.000524004               0.999999984              -0.000361644               0.000529001               0.999999984              -0.000363743               0.000546507               0.999999984              -0.000368713               0.000569436               0.999999984              -0.000374334               0.000593975               0.999999984              -0.000379478               0.000618522               0.999999984              -0.000383329               0.000641980               0.999999984              -0.000385319               0.000663408               0.999999984              -0.000385420               0.000682321               0.999999984              -0.000383528               0.000698519               0.999999984              -0.000379775               0.000712191               0.999999984              -0.000374437               0.000723860               0.999999984              -0.000367700               0.000733747               0.999999984              -0.000359585               0.000741842               0.999999984              -0.000350085               0.000747789               0.999999984              -0.000389785               0.000732822               0.999999984              -0.000330776               0.000632728               0.999999984              -0.000311046               0.000610989               0.999999984              -0.000307962               0.000619435               0.999999984              -0.000311604               0.000640970               0.999999984              -0.000317369               0.000668063               0.999999984              -0.000322902               0.000696663               0.999999984              -0.000326888               0.000725155               0.999999984              -0.000328619               0.000751958               0.999999984              -0.000327887               0.000775991               0.999999984              -0.000324439               0.000797017               0.999999984              -0.000318357               0.000815269               0.999999984              -0.000309889               0.000831260               0.999999984              -0.000299256               0.000845711               0.999999984              -0.000286743               0.000858662               0.999999984              -0.000272440               0.000869740               0.999999984              -0.000256618               0.000878572               0.999999984              -0.000354356               0.000814727               0.999999984              -0.000278527               0.000715596               0.999999984              -0.000259574               0.000695937               0.999999984              -0.000259093               0.000707480               0.999999984              -0.000264813               0.000732711               0.999999984              -0.000271467               0.000763750               0.999999984              -0.000276577               0.000796504               0.999999984              -0.000279059               0.000828380               0.999999984              -0.000278268               0.000857748               0.999999984              -0.000273806               0.000883806               0.999999984              -0.000265599               0.000906459               0.999999984              -0.000253918               0.000926513               0.999999984              -0.000239380               0.000944685               0.999999984              -0.000222608               0.000961376               0.999999984              -0.000203941               0.000976595               0.999999984              -0.000183776               0.000990134               0.999999984              -0.000162857               0.001002165               0.999999984              -0.000318216               0.000891606               0.999999984              -0.000235617               0.000805872               0.999999984              -0.000213571               0.000781559               0.999999984              -0.000211759               0.000787219               0.999999984              -0.000216855               0.000807569               0.999999984              -0.000223421               0.000835439               0.999999984              -0.000229041               0.000866614               0.999999984              -0.000232328               0.000898319               0.999999984              -0.000232590               0.000928853               0.999999984              -0.000229558               0.000956859               0.999999984              -0.000222574               0.000981983               0.999999984              -0.000211619               0.001004362               0.999999984              -0.000197252               0.001024659               0.999999984              -0.000180277               0.001043445               0.999999984              -0.000161555               0.001061109               0.999999984              -0.000141243               0.001077778               0.999999984              -0.000120331               0.001093186               0.999999984              -0.000278671               0.000961163               0.999999984              -0.000195525               0.000892553               0.999999984              -0.000170517               0.000868673               0.999999984              -0.000166565               0.000870483               0.999999984              -0.000170356               0.000886924               0.999999984              -0.000176263               0.000911836               0.999999984              -0.000181843               0.000941350               0.999999984              -0.000185672               0.000972504               0.999999984              -0.000186901               0.001003727               0.999999984              -0.000184906               0.001033606               0.999999984              -0.000179204               0.001061346               0.999999984              -0.000169367               0.001086469               0.999999984              -0.000155659               0.001109141               0.999999984              -0.000138470               0.001129936               0.999999984              -0.000118699               0.001149501               0.999999984              -0.000097057               0.001168280               0.999999984              -0.000074232               0.001186485               0.999999984              -0.000236534               0.001021898               0.999999984              -0.000158093               0.000973231               0.999999984              -0.000131578               0.000953492               0.999999984              -0.000125318               0.000954159               0.999999984              -0.000127273               0.000968235               0.999999984              -0.000132030               0.000990968               0.999999984              -0.000136982               0.001018969               0.999999984              -0.000140763               0.001049777               0.999999984              -0.000142554               0.001081467               0.999999984              -0.000141444               0.001112844               0.999999984              -0.000136961               0.001143127               0.999999984              -0.000128513               0.001171414               0.999999984              -0.000115855               0.001197448               0.999999984              -0.000099054               0.001221277               0.999999984              -0.000078403               0.001243396               0.999999984              -0.000054390               0.001264289               0.999999984              -0.000027778               0.001284657               0.999999984              -0.000192115               0.001072874               0.999999984              -0.000123258               0.001044740               0.999999984              -0.000097347               0.001031969               0.999999984              -0.000089451               0.001033927               0.999999984              -0.000089489               0.001047317               0.999999984              -0.000092700               0.001069110               0.999999984              -0.000096553               0.001096315               0.999999984              -0.000099830               0.001126916               0.999999984              -0.000101621               0.001159404               0.999999984              -0.000101022               0.001192339               0.999999984              -0.000097504               0.001224958               0.999999984              -0.000090474               0.001256521               0.999999984              -0.000079538               0.001286440               0.999999984              -0.000064222               0.001314333               0.999999984              -0.000044020               0.001340275               0.999999984              -0.000018722               0.001364521               0.999999984               0.000011578               0.001387692               0.999999984              -0.000145785               0.001113342               0.999999984              -0.000090624               0.001104024               0.999999984              -0.000067929               0.001099512               0.999999984              -0.000059752               0.001104559               0.999999984              -0.000058348               0.001118789               0.999999984              -0.000059960               0.001140570               0.999999984              -0.000062568               0.001167802               0.999999984              -0.000064944               0.001198724               0.999999984              -0.000066384               0.001232002               0.999999984              -0.000066087               0.001266596               0.999999984              -0.000063371               0.001301582               0.999999984              -0.000057789               0.001336270               0.999999984              -0.000049055               0.001370062               0.999999984              -0.000036376               0.001402427               0.999999984              -0.000018539               0.001433119               0.999999984               0.000005166               0.001461933               0.999999984               0.000035580               0.001489081               0.999999984              -0.000098001               0.001142689               0.999999984              -0.000059604               0.001148394               0.999999984              -0.000042690               0.001151653               0.999999984              -0.000035917               0.001160458               0.999999984              -0.000034032               0.001176349               0.999999984              -0.000034520               0.001198803               0.999999984              -0.000035944               0.001226433               0.999999984              -0.000037444               0.001257904               0.999999984              -0.000038402               0.001292040               0.999999984              -0.000038136               0.001328031               0.999999984              -0.000036270               0.001365048               0.999999984              -0.000032455               0.001402389               0.999999984              -0.000026383               0.001439527               0.999999984              -0.000017209               0.001475915               0.999999984              -0.000003892               0.001511157               0.999999984               0.000014669               0.001544765               0.999999984               0.000039639               0.001576368               0.999999984              -0.000049250               0.001160480               0.999999984              -0.000029572               0.001175846               0.999999984              -0.000020507               0.001184583               0.999999984              -0.000016689               0.001196428               0.999999984              -0.000015382               0.001213925               0.999999984              -0.000015398               0.001237198               0.999999984              -0.000015983               0.001265298               0.999999984              -0.000016704               0.001297230               0.999999984              -0.000017152               0.001332035               0.999999984              -0.000016998               0.001368975               0.999999984              -0.000015995               0.001407350               0.999999984              -0.000014149               0.001446551               0.999999984              -0.000011036               0.001486051               0.999999984              -0.000006169               0.001525321               0.999999984               0.000000960               0.001563827               0.999999984               0.000011295               0.001600957               0.999999984               0.000025564               0.001636045               0.999999984              -0.000000000               0.001166448               0.999999984              -0.000000000               0.001185154               0.999999984              -0.000000000               0.001195823               0.999999984              -0.000000000               0.001208789               0.999999984              -0.000000000               0.001227006               0.999999984              -0.000000000               0.001250699               0.999999984               0.000000000               0.001278968               0.999999984               0.000000000               0.001311014               0.999999984               0.000000000               0.001346035               0.999999984              -0.000000000               0.001383332               0.999999984               0.000000000               0.001422184               0.999999984               0.000000000               0.001462049               0.999999984               0.000000000               0.001502413               0.999999984              -0.000000000               0.001542786               0.999999984              -0.000000000               0.001582567               0.999999984               0.000000000               0.001621009               0.999999984              -0.000000000               0.001657399               0.999999984              -0.000522338              -0.000000000               0.999999984              -0.000566791              -0.000000000               0.999999984              -0.000586826              -0.000000000               0.999999984              -0.000598390              -0.000000000               0.999999984              -0.000607510              -0.000000000               0.999999984              -0.000616666              -0.000000000               0.999999984              -0.000626661               0.000000000               0.999999984              -0.000637744               0.000000000               0.999999984              -0.000649995               0.000000000               0.999999984              -0.000663221               0.000000000               0.999999984              -0.000677283              -0.000000000               0.999999984              -0.000691855              -0.000000000               0.999999984              -0.000706703               0.000000000               0.999999984              -0.000721577              -0.000000000               0.999999984              -0.000736268               0.000000000               0.999999984              -0.000750452               0.000000000               0.999999984              -0.000763433               0.000000000               0.999999984              -0.000519413              -0.000113759               0.999999984              -0.000560789              -0.000094223               0.999999984              -0.000578893              -0.000086382               0.999999984              -0.000589362              -0.000084369               0.999999984              -0.000597813              -0.000085442               0.999999984              -0.000606435              -0.000088323               0.999999984              -0.000616044              -0.000092079               0.999999984              -0.000626773              -0.000096130               0.999999984              -0.000638572              -0.000100272               0.999999984              -0.000651238              -0.000104086               0.999999984              -0.000664522              -0.000107370               0.999999984              -0.000678159              -0.000109824               0.999999984              -0.000691888              -0.000111256               0.999999984              -0.000705448              -0.000111550               0.999999984              -0.000718735              -0.000110254               0.999999984              -0.000731409              -0.000106436               0.999999984              -0.000742973              -0.000099166               0.999999984              -0.000510678              -0.000226352               0.999999984              -0.000543160              -0.000187767               0.999999984              -0.000555955              -0.000173010               0.999999984              -0.000563327              -0.000169862               0.999999984              -0.000569956              -0.000172666               0.999999984              -0.000577370              -0.000178729               0.999999984              -0.000585978              -0.000186387               0.999999984              -0.000595605              -0.000194680               0.999999984              -0.000606110              -0.000202929               0.999999984              -0.000617209              -0.000210475               0.999999984              -0.000628598              -0.000217023               0.999999984              -0.000639972              -0.000222102               0.999999984              -0.000651089              -0.000225267               0.999999984              -0.000661758              -0.000226250               0.999999984              -0.000671713              -0.000224424               0.999999984              -0.000680809              -0.000218676               0.999999984              -0.000689036              -0.000208088               0.999999984              -0.000496304              -0.000336632               0.999999984              -0.000514809              -0.000280145               0.999999984              -0.000520004              -0.000260165               0.999999984              -0.000523280              -0.000257227               0.999999984              -0.000527654              -0.000262696               0.999999984              -0.000533664              -0.000272508               0.999999984              -0.000541014              -0.000284355               0.999999984              -0.000549223              -0.000296890               0.999999984              -0.000558088              -0.000309249               0.999999984              -0.000567128              -0.000320494               0.999999984              -0.000575881              -0.000330082               0.999999984              -0.000584086              -0.000337688               0.999999984              -0.000591580              -0.000343059               0.999999984              -0.000598205              -0.000345787               0.999999984              -0.000603969              -0.000345193               0.999999984              -0.000608972              -0.000340609               0.999999984              -0.000613357              -0.000331710               0.999999984              -0.000476594              -0.000443488               0.999999984              -0.000477223              -0.000371019               0.999999984              -0.000473946              -0.000347920               0.999999984              -0.000473284              -0.000346667               0.999999984              -0.000475751              -0.000355748               0.999999984              -0.000480607              -0.000369750               0.999999984              -0.000486969              -0.000385856               0.999999984              -0.000494107              -0.000402548               0.999999984              -0.000501239              -0.000418772               0.999999984              -0.000507916              -0.000433459               0.999999984              -0.000513814              -0.000446193               0.999999984              -0.000518796              -0.000456720               0.999999984              -0.000522595              -0.000464803               0.999999984              -0.000525250              -0.000470223               0.999999984              -0.000526927              -0.000472672               0.999999984              -0.000527845              -0.000472001               0.999999984              -0.000528353              -0.000468495               0.999999984              -0.000451890              -0.000545864               0.999999984              -0.000432375              -0.000460209               0.999999984              -0.000421346              -0.000436044               0.999999984              -0.000417918              -0.000437647               0.999999984              -0.000419529              -0.000450848               0.999999984              -0.000424094              -0.000469295               0.999999984              -0.000429992              -0.000489716               0.999999984              -0.000436004              -0.000510439               0.999999984              -0.000441470              -0.000530266               0.999999984              -0.000446000              -0.000548338               0.999999984              -0.000449149              -0.000564301               0.999999984              -0.000450860              -0.000577879               0.999999984              -0.000451014              -0.000588819               0.999999984              -0.000449770              -0.000597412               0.999999984              -0.000447447              -0.000603761               0.999999984              -0.000444301              -0.000607897               0.999999984              -0.000440383              -0.000609946               0.999999984              -0.000422727              -0.000642671               0.999999984              -0.000382701              -0.000547546               0.999999984              -0.000365941              -0.000524004               0.999999984              -0.000361644              -0.000529001               0.999999984              -0.000363743              -0.000546507               0.999999984              -0.000368713              -0.000569436               0.999999984              -0.000374334              -0.000593975               0.999999984              -0.000379478              -0.000618522               0.999999984              -0.000383329              -0.000641980               0.999999984              -0.000385319              -0.000663408               0.999999984              -0.000385420              -0.000682321               0.999999984              -0.000383528              -0.000698519               0.999999984              -0.000379775              -0.000712191               0.999999984              -0.000374437              -0.000723860               0.999999984              -0.000367700              -0.000733747               0.999999984              -0.000359585              -0.000741842               0.999999984              -0.000350085              -0.000747789               0.999999984              -0.000389785              -0.000732822               0.999999984              -0.000330776              -0.000632728               0.999999984              -0.000311046              -0.000610989               0.999999984              -0.000307962              -0.000619435               0.999999984              -0.000311604              -0.000640970               0.999999984              -0.000317369              -0.000668063               0.999999984              -0.000322902              -0.000696663               0.999999984              -0.000326888              -0.000725155               0.999999984              -0.000328619              -0.000751958               0.999999984              -0.000327887              -0.000775991               0.999999984              -0.000324439              -0.000797017               0.999999984              -0.000318357              -0.000815269               0.999999984              -0.000309889              -0.000831260               0.999999984              -0.000299256              -0.000845711               0.999999984              -0.000286743              -0.000858662               0.999999984              -0.000272440              -0.000869740               0.999999984              -0.000256618              -0.000878572               0.999999984              -0.000354356              -0.000814727               0.999999984              -0.000278527              -0.000715596               0.999999984              -0.000259574              -0.000695937               0.999999984              -0.000259093              -0.000707480               0.999999984              -0.000264813              -0.000732711               0.999999984              -0.000271467              -0.000763750               0.999999984              -0.000276577              -0.000796504               0.999999984              -0.000279059              -0.000828380               0.999999984              -0.000278268              -0.000857748               0.999999984              -0.000273806              -0.000883806               0.999999984              -0.000265599              -0.000906459               0.999999984              -0.000253918              -0.000926513               0.999999984              -0.000239380              -0.000944685               0.999999984              -0.000222608              -0.000961376               0.999999984              -0.000203941              -0.000976595               0.999999984              -0.000183776              -0.000990134               0.999999984              -0.000162857              -0.001002165               0.999999984              -0.000318216              -0.000891606               0.999999984              -0.000235617              -0.000805872               0.999999984              -0.000213571              -0.000781559               0.999999984              -0.000211759              -0.000787219               0.999999984              -0.000216855              -0.000807569               0.999999984              -0.000223421              -0.000835439               0.999999984              -0.000229041              -0.000866614               0.999999984              -0.000232328              -0.000898319               0.999999984              -0.000232590              -0.000928853               0.999999984              -0.000229558              -0.000956859               0.999999984              -0.000222574              -0.000981983               0.999999984              -0.000211619              -0.001004362               0.999999984              -0.000197252              -0.001024659               0.999999984              -0.000180277              -0.001043445               0.999999984              -0.000161555              -0.001061109               0.999999984              -0.000141243              -0.001077778               0.999999984              -0.000120331              -0.001093186               0.999999984              -0.000278671              -0.000961163               0.999999984              -0.000195525              -0.000892553               0.999999984              -0.000170517              -0.000868673               0.999999984              -0.000166565              -0.000870483               0.999999984              -0.000170356              -0.000886924               0.999999984              -0.000176263              -0.000911836               0.999999984              -0.000181843              -0.000941350               0.999999984              -0.000185672              -0.000972504               0.999999984              -0.000186901              -0.001003727               0.999999984              -0.000184906              -0.001033606               0.999999984              -0.000179204              -0.001061346               0.999999984              -0.000169367              -0.001086469               0.999999984              -0.000155659              -0.001109141               0.999999984              -0.000138470              -0.001129936               0.999999984              -0.000118699              -0.001149501               0.999999984              -0.000097057              -0.001168280               0.999999984              -0.000074232              -0.001186485               0.999999984              -0.000236534              -0.001021898               0.999999984              -0.000158093              -0.000973231               0.999999984              -0.000131578              -0.000953492               0.999999984              -0.000125318              -0.000954159               0.999999984              -0.000127273              -0.000968235               0.999999984              -0.000132030              -0.000990968               0.999999984              -0.000136982              -0.001018969               0.999999984              -0.000140763              -0.001049777               0.999999984              -0.000142554              -0.001081467               0.999999984              -0.000141444              -0.001112844               0.999999984              -0.000136961              -0.001143127               0.999999984              -0.000128513              -0.001171414               0.999999984              -0.000115855              -0.001197448               0.999999984              -0.000099054              -0.001221277               0.999999984              -0.000078403              -0.001243396               0.999999984              -0.000054390              -0.001264289               0.999999984              -0.000027778              -0.001284657               0.999999984              -0.000192115              -0.001072874               0.999999984              -0.000123258              -0.001044740               0.999999984              -0.000097347              -0.001031969               0.999999984              -0.000089451              -0.001033927               0.999999984              -0.000089489              -0.001047317               0.999999984              -0.000092700              -0.001069110               0.999999984              -0.000096553              -0.001096315               0.999999984              -0.000099830              -0.001126916               0.999999984              -0.000101621              -0.001159404               0.999999984              -0.000101022              -0.001192339               0.999999984              -0.000097504              -0.001224958               0.999999984              -0.000090474              -0.001256521               0.999999984              -0.000079538              -0.001286440               0.999999984              -0.000064222              -0.001314333               0.999999984              -0.000044020              -0.001340275               0.999999984              -0.000018722              -0.001364521               0.999999984               0.000011578              -0.001387692               0.999999984              -0.000145785              -0.001113342               0.999999984              -0.000090624              -0.001104024               0.999999984              -0.000067929              -0.001099512               0.999999984              -0.000059752              -0.001104559               0.999999984              -0.000058348              -0.001118789               0.999999984              -0.000059960              -0.001140570               0.999999984              -0.000062568              -0.001167802               0.999999984              -0.000064944              -0.001198724               0.999999984              -0.000066384              -0.001232002               0.999999984              -0.000066087              -0.001266596               0.999999984              -0.000063371              -0.001301582               0.999999984              -0.000057789              -0.001336270               0.999999984              -0.000049055              -0.001370062               0.999999984              -0.000036376              -0.001402427               0.999999984              -0.000018539              -0.001433119               0.999999984               0.000005166              -0.001461933               0.999999984               0.000035580              -0.001489081               0.999999984              -0.000098001              -0.001142689               0.999999984              -0.000059604              -0.001148394               0.999999984              -0.000042690              -0.001151653               0.999999984              -0.000035917              -0.001160458               0.999999984              -0.000034032              -0.001176349               0.999999984              -0.000034520              -0.001198803               0.999999984              -0.000035944              -0.001226433               0.999999984              -0.000037444              -0.001257904               0.999999984              -0.000038402              -0.001292040               0.999999984              -0.000038136              -0.001328031               0.999999984              -0.000036270              -0.001365048               0.999999984              -0.000032455              -0.001402389               0.999999984              -0.000026383              -0.001439527               0.999999984              -0.000017209              -0.001475915               0.999999984              -0.000003892              -0.001511157               0.999999984               0.000014669              -0.001544765               0.999999984               0.000039639              -0.001576368               0.999999984              -0.000049250              -0.001160480               0.999999984              -0.000029572              -0.001175846               0.999999984              -0.000020507              -0.001184583               0.999999984              -0.000016689              -0.001196428               0.999999984              -0.000015382              -0.001213925               0.999999984              -0.000015398              -0.001237198               0.999999984              -0.000015983              -0.001265298               0.999999984              -0.000016704              -0.001297230               0.999999984              -0.000017152              -0.001332035               0.999999984              -0.000016998              -0.001368975               0.999999984              -0.000015995              -0.001407350               0.999999984              -0.000014149              -0.001446551               0.999999984              -0.000011036              -0.001486051               0.999999984              -0.000006169              -0.001525321               0.999999984               0.000000960              -0.001563827               0.999999984               0.000011295              -0.001600957               0.999999984               0.000025564              -0.001636045               0.999999984               0.000000000              -0.001166448               0.999999984              -0.000000000              -0.001185154               0.999999984              -0.000000000              -0.001195823               0.999999984              -0.000000000              -0.001208789               0.999999984               0.000000000              -0.001227006               0.999999984               0.000000000              -0.001250699               0.999999984              -0.000000000              -0.001278968               0.999999984              -0.000000000              -0.001311014               0.999999984              -0.000000000              -0.001346035               0.999999984              -0.000000000              -0.001383332               0.999999984               0.000000000              -0.001422184               0.999999984              -0.000000000              -0.001462049               0.999999984              -0.000000000              -0.001502413               0.999999984               0.000000000              -0.001542786               0.999999984               0.000000000              -0.001582567               0.999999984              -0.000000000              -0.001621009               0.999999984               0.000000000              -0.001657399               0.999999984               0.000522338               0.000000000               0.999999984               0.000566791               0.000000000               0.999999984               0.000586826              -0.000000000               0.999999984               0.000598390               0.000000000               0.999999984               0.000607510              -0.000000000               0.999999984               0.000616666               0.000000000               0.999999984               0.000626661               0.000000000               0.999999984               0.000637744               0.000000000               0.999999984               0.000649995               0.000000000               0.999999984               0.000663221              -0.000000000               0.999999984               0.000677283              -0.000000000               0.999999984               0.000691855              -0.000000000               0.999999984               0.000706703               0.000000000               0.999999984               0.000721577              -0.000000000               0.999999984               0.000736268               0.000000000               0.999999984               0.000750452              -0.000000000               0.999999984               0.000763433              -0.000000000               0.999999984               0.000519413              -0.000113759               0.999999984               0.000560789              -0.000094223               0.999999984               0.000578893              -0.000086382               0.999999984               0.000589362              -0.000084369               0.999999984               0.000597813              -0.000085442               0.999999984               0.000606435              -0.000088323               0.999999984               0.000616044              -0.000092079               0.999999984               0.000626773              -0.000096130               0.999999984               0.000638572              -0.000100272               0.999999984               0.000651238              -0.000104086               0.999999984               0.000664522              -0.000107370               0.999999984               0.000678159              -0.000109824               0.999999984               0.000691888              -0.000111256               0.999999984               0.000705448              -0.000111550               0.999999984               0.000718735              -0.000110254               0.999999984               0.000731409              -0.000106436               0.999999984               0.000742973              -0.000099166               0.999999984               0.000510678              -0.000226352               0.999999984               0.000543160              -0.000187767               0.999999984               0.000555955              -0.000173010               0.999999984               0.000563327              -0.000169862               0.999999984               0.000569956              -0.000172666               0.999999984               0.000577370              -0.000178729               0.999999984               0.000585978              -0.000186387               0.999999984               0.000595605              -0.000194680               0.999999984               0.000606110              -0.000202929               0.999999984               0.000617209              -0.000210475               0.999999984               0.000628598              -0.000217023               0.999999984               0.000639972              -0.000222102               0.999999984               0.000651089              -0.000225267               0.999999984               0.000661758              -0.000226250               0.999999984               0.000671713              -0.000224424               0.999999984               0.000680809              -0.000218676               0.999999984               0.000689036              -0.000208088               0.999999984               0.000496304              -0.000336632               0.999999984               0.000514809              -0.000280145               0.999999984               0.000520004              -0.000260165               0.999999984               0.000523280              -0.000257227               0.999999984               0.000527654              -0.000262696               0.999999984               0.000533664              -0.000272508               0.999999984               0.000541014              -0.000284355               0.999999984               0.000549223              -0.000296890               0.999999984               0.000558088              -0.000309249               0.999999984               0.000567128              -0.000320494               0.999999984               0.000575881              -0.000330082               0.999999984               0.000584086              -0.000337688               0.999999984               0.000591580              -0.000343059               0.999999984               0.000598205              -0.000345787               0.999999984               0.000603969              -0.000345193               0.999999984               0.000608972              -0.000340609               0.999999984               0.000613357              -0.000331710               0.999999984               0.000476594              -0.000443488               0.999999984               0.000477223              -0.000371019               0.999999984               0.000473946              -0.000347920               0.999999984               0.000473284              -0.000346667               0.999999984               0.000475751              -0.000355748               0.999999984               0.000480607              -0.000369750               0.999999984               0.000486969              -0.000385856               0.999999984               0.000494107              -0.000402548               0.999999984               0.000501239              -0.000418772               0.999999984               0.000507916              -0.000433459               0.999999984               0.000513814              -0.000446193               0.999999984               0.000518796              -0.000456720               0.999999984               0.000522595              -0.000464803               0.999999984               0.000525250              -0.000470223               0.999999984               0.000526927              -0.000472672               0.999999984               0.000527845              -0.000472001               0.999999984               0.000528353              -0.000468495               0.999999984               0.000451890              -0.000545864               0.999999984               0.000432375              -0.000460209               0.999999984               0.000421346              -0.000436044               0.999999984               0.000417918              -0.000437647               0.999999984               0.000419529              -0.000450848               0.999999984               0.000424094              -0.000469295               0.999999984               0.000429992              -0.000489716               0.999999984               0.000436004              -0.000510439               0.999999984               0.000441470              -0.000530266               0.999999984               0.000446000              -0.000548338               0.999999984               0.000449149              -0.000564301               0.999999984               0.000450860              -0.000577879               0.999999984               0.000451014              -0.000588819               0.999999984               0.000449770              -0.000597412               0.999999984               0.000447447              -0.000603761               0.999999984               0.000444301              -0.000607897               0.999999984               0.000440383              -0.000609946               0.999999984               0.000422727              -0.000642671               0.999999984               0.000382701              -0.000547546               0.999999984               0.000365941              -0.000524004               0.999999984               0.000361644              -0.000529001               0.999999984               0.000363743              -0.000546507               0.999999984               0.000368713              -0.000569436               0.999999984               0.000374334              -0.000593975               0.999999984               0.000379478              -0.000618522               0.999999984               0.000383329              -0.000641980               0.999999984               0.000385319              -0.000663408               0.999999984               0.000385420              -0.000682321               0.999999984               0.000383528              -0.000698519               0.999999984               0.000379775              -0.000712191               0.999999984               0.000374437              -0.000723860               0.999999984               0.000367700              -0.000733747               0.999999984               0.000359585              -0.000741842               0.999999984               0.000350085              -0.000747789               0.999999984               0.000389785              -0.000732822               0.999999984               0.000330776              -0.000632728               0.999999984               0.000311046              -0.000610989               0.999999984               0.000307962              -0.000619435               0.999999984               0.000311604              -0.000640970               0.999999984               0.000317369              -0.000668063               0.999999984               0.000322902              -0.000696663               0.999999984               0.000326888              -0.000725155               0.999999984               0.000328619              -0.000751958               0.999999984               0.000327887              -0.000775991               0.999999984               0.000324439              -0.000797017               0.999999984               0.000318357              -0.000815269               0.999999984               0.000309889              -0.000831260               0.999999984               0.000299256              -0.000845711               0.999999984               0.000286743              -0.000858662               0.999999984               0.000272440              -0.000869740               0.999999984               0.000256618              -0.000878572               0.999999984               0.000354356              -0.000814727               0.999999984               0.000278527              -0.000715596               0.999999984               0.000259574              -0.000695937               0.999999984               0.000259093              -0.000707480               0.999999984               0.000264813              -0.000732711               0.999999984               0.000271467              -0.000763750               0.999999984               0.000276577              -0.000796504               0.999999984               0.000279059              -0.000828380               0.999999984               0.000278268              -0.000857748               0.999999984               0.000273806              -0.000883806               0.999999984               0.000265599              -0.000906459               0.999999984               0.000253918              -0.000926513               0.999999984               0.000239380              -0.000944685               0.999999984               0.000222608              -0.000961376               0.999999984               0.000203941              -0.000976595               0.999999984               0.000183776              -0.000990134               0.999999984               0.000162857              -0.001002165               0.999999984               0.000318216              -0.000891606               0.999999984               0.000235617              -0.000805872               0.999999984               0.000213571              -0.000781559               0.999999984               0.000211759              -0.000787219               0.999999984               0.000216855              -0.000807569               0.999999984               0.000223421              -0.000835439               0.999999984               0.000229041              -0.000866614               0.999999984               0.000232328              -0.000898319               0.999999984               0.000232590              -0.000928853               0.999999984               0.000229558              -0.000956859               0.999999984               0.000222574              -0.000981983               0.999999984               0.000211619              -0.001004362               0.999999984               0.000197252              -0.001024659               0.999999984               0.000180277              -0.001043445               0.999999984               0.000161555              -0.001061109               0.999999984               0.000141243              -0.001077778               0.999999984               0.000120331              -0.001093186               0.999999984               0.000278671              -0.000961163               0.999999984               0.000195525              -0.000892553               0.999999984               0.000170517              -0.000868673               0.999999984               0.000166565              -0.000870483               0.999999984               0.000170356              -0.000886924               0.999999984               0.000176263              -0.000911836               0.999999984               0.000181843              -0.000941350               0.999999984               0.000185672              -0.000972504               0.999999984               0.000186901              -0.001003727               0.999999984               0.000184906              -0.001033606               0.999999984               0.000179204              -0.001061346               0.999999984               0.000169367              -0.001086469               0.999999984               0.000155659              -0.001109141               0.999999984               0.000138470              -0.001129936               0.999999984               0.000118699              -0.001149501               0.999999984               0.000097057              -0.001168280               0.999999984               0.000074232              -0.001186485               0.999999984               0.000236534              -0.001021898               0.999999984               0.000158093              -0.000973231               0.999999984               0.000131578              -0.000953492               0.999999984               0.000125318              -0.000954159               0.999999984               0.000127273              -0.000968235               0.999999984               0.000132030              -0.000990968               0.999999984               0.000136982              -0.001018969               0.999999984               0.000140763              -0.001049777               0.999999984               0.000142554              -0.001081467               0.999999984               0.000141444              -0.001112844               0.999999984               0.000136961              -0.001143127               0.999999984               0.000128513              -0.001171414               0.999999984               0.000115855              -0.001197448               0.999999984               0.000099054              -0.001221277               0.999999984               0.000078403              -0.001243396               0.999999984               0.000054390              -0.001264289               0.999999984               0.000027778              -0.001284657               0.999999984               0.000192115              -0.001072874               0.999999984               0.000123258              -0.001044740               0.999999984               0.000097347              -0.001031969               0.999999984               0.000089451              -0.001033927               0.999999984               0.000089489              -0.001047317               0.999999984               0.000092700              -0.001069110               0.999999984               0.000096553              -0.001096315               0.999999984               0.000099830              -0.001126916               0.999999984               0.000101621              -0.001159404               0.999999984               0.000101022              -0.001192339               0.999999984               0.000097504              -0.001224958               0.999999984               0.000090474              -0.001256521               0.999999984               0.000079538              -0.001286440               0.999999984               0.000064222              -0.001314333               0.999999984               0.000044020              -0.001340275               0.999999984               0.000018722              -0.001364521               0.999999984              -0.000011578              -0.001387692               0.999999984               0.000145785              -0.001113342               0.999999984               0.000090624              -0.001104024               0.999999984               0.000067929              -0.001099512               0.999999984               0.000059752              -0.001104559               0.999999984               0.000058348              -0.001118789               0.999999984               0.000059960              -0.001140570               0.999999984               0.000062568              -0.001167802               0.999999984               0.000064944              -0.001198724               0.999999984               0.000066384              -0.001232002               0.999999984               0.000066087              -0.001266596               0.999999984               0.000063371              -0.001301582               0.999999984               0.000057789              -0.001336270               0.999999984               0.000049055              -0.001370062               0.999999984               0.000036376              -0.001402427               0.999999984               0.000018539              -0.001433119               0.999999984              -0.000005166              -0.001461933               0.999999984              -0.000035580              -0.001489081               0.999999984               0.000098001              -0.001142689               0.999999984               0.000059604              -0.001148394               0.999999984               0.000042690              -0.001151653               0.999999984               0.000035917              -0.001160458               0.999999984               0.000034032              -0.001176349               0.999999984               0.000034520              -0.001198803               0.999999984               0.000035944              -0.001226433               0.999999984               0.000037444              -0.001257904               0.999999984               0.000038402              -0.001292040               0.999999984               0.000038136              -0.001328031               0.999999984               0.000036270              -0.001365048               0.999999984               0.000032455              -0.001402389               0.999999984               0.000026383              -0.001439527               0.999999984               0.000017209              -0.001475915               0.999999984               0.000003892              -0.001511157               0.999999984              -0.000014669              -0.001544765               0.999999984              -0.000039639              -0.001576368               0.999999984               0.000049250              -0.001160480               0.999999984               0.000029572              -0.001175846               0.999999984               0.000020507              -0.001184583               0.999999984               0.000016689              -0.001196428               0.999999984               0.000015382              -0.001213925               0.999999984               0.000015398              -0.001237198               0.999999984               0.000015983              -0.001265298               0.999999984               0.000016704              -0.001297230               0.999999984               0.000017152              -0.001332035               0.999999984               0.000016998              -0.001368975               0.999999984               0.000015995              -0.001407350               0.999999984               0.000014149              -0.001446551               0.999999984               0.000011036              -0.001486051               0.999999984               0.000006169              -0.001525321               0.999999984              -0.000000960              -0.001563827               0.999999984              -0.000011295              -0.001600957               0.999999984              -0.000025564              -0.001636045               0.999999984               0.000000000              -0.001166448               0.999999984              -0.000000000              -0.001185154               0.999999984              -0.000000000              -0.001195823               0.999999984              -0.000000000              -0.001208789               0.999999984               0.000000000              -0.001227006               0.999999984               0.000000000              -0.001250699               0.999999984              -0.000000000              -0.001278968               0.999999984              -0.000000000              -0.001311014               0.999999984              -0.000000000              -0.001346035               0.999999984              -0.000000000              -0.001383332               0.999999984               0.000000000              -0.001422184               0.999999984              -0.000000000              -0.001462049               0.999999984              -0.000000000              -0.001502413               0.999999984               0.000000000              -0.001542786               0.999999984               0.000000000              -0.001582567               0.999999984              -0.000000000              -0.001621009               0.999999984               0.000000000              -0.001657399               0.999999984               0.000522338               0.000000000               0.999999984               0.000566791               0.000000000               0.999999984               0.000586826              -0.000000000               0.999999984               0.000598390               0.000000000               0.999999984               0.000607510              -0.000000000               0.999999984               0.000616666               0.000000000               0.999999984               0.000626661               0.000000000               0.999999984               0.000637744               0.000000000               0.999999984               0.000649995               0.000000000               0.999999984               0.000663221              -0.000000000               0.999999984               0.000677283              -0.000000000               0.999999984               0.000691855              -0.000000000               0.999999984               0.000706703               0.000000000               0.999999984               0.000721577              -0.000000000               0.999999984               0.000736268               0.000000000               0.999999984               0.000750452              -0.000000000               0.999999984               0.000763433              -0.000000000               0.999999984               0.000519413               0.000113759               0.999999984               0.000560789               0.000094223               0.999999984               0.000578893               0.000086382               0.999999984               0.000589362               0.000084369               0.999999984               0.000597813               0.000085442               0.999999984               0.000606435               0.000088323               0.999999984               0.000616044               0.000092079               0.999999984               0.000626773               0.000096130               0.999999984               0.000638572               0.000100272               0.999999984               0.000651238               0.000104086               0.999999984               0.000664522               0.000107370               0.999999984               0.000678159               0.000109824               0.999999984               0.000691888               0.000111256               0.999999984               0.000705448               0.000111550               0.999999984               0.000718735               0.000110254               0.999999984               0.000731409               0.000106436               0.999999984               0.000742973               0.000099166               0.999999984               0.000510678               0.000226352               0.999999984               0.000543160               0.000187767               0.999999984               0.000555955               0.000173010               0.999999984               0.000563327               0.000169862               0.999999984               0.000569956               0.000172666               0.999999984               0.000577370               0.000178729               0.999999984               0.000585978               0.000186387               0.999999984               0.000595605               0.000194680               0.999999984               0.000606110               0.000202929               0.999999984               0.000617209               0.000210475               0.999999984               0.000628598               0.000217023               0.999999984               0.000639972               0.000222102               0.999999984               0.000651089               0.000225267               0.999999984               0.000661758               0.000226250               0.999999984               0.000671713               0.000224424               0.999999984               0.000680809               0.000218676               0.999999984               0.000689036               0.000208088               0.999999984               0.000496304               0.000336632               0.999999984               0.000514809               0.000280145               0.999999984               0.000520004               0.000260165               0.999999984               0.000523280               0.000257227               0.999999984               0.000527654               0.000262696               0.999999984               0.000533664               0.000272508               0.999999984               0.000541014               0.000284355               0.999999984               0.000549223               0.000296890               0.999999984               0.000558088               0.000309249               0.999999984               0.000567128               0.000320494               0.999999984               0.000575881               0.000330082               0.999999984               0.000584086               0.000337688               0.999999984               0.000591580               0.000343059               0.999999984               0.000598205               0.000345787               0.999999984               0.000603969               0.000345193               0.999999984               0.000608972               0.000340609               0.999999984               0.000613357               0.000331710               0.999999984               0.000476594               0.000443488               0.999999984               0.000477223               0.000371019               0.999999984               0.000473946               0.000347920               0.999999984               0.000473284               0.000346667               0.999999984               0.000475751               0.000355748               0.999999984               0.000480607               0.000369750               0.999999984               0.000486969               0.000385856               0.999999984               0.000494107               0.000402548               0.999999984               0.000501239               0.000418772               0.999999984               0.000507916               0.000433459               0.999999984               0.000513814               0.000446193               0.999999984               0.000518796               0.000456720               0.999999984               0.000522595               0.000464803               0.999999984               0.000525250               0.000470223               0.999999984               0.000526927               0.000472672               0.999999984               0.000527845               0.000472001               0.999999984               0.000528353               0.000468495               0.999999984               0.000451890               0.000545864               0.999999984               0.000432375               0.000460209               0.999999984               0.000421346               0.000436044               0.999999984               0.000417918               0.000437647               0.999999984               0.000419529               0.000450848               0.999999984               0.000424094               0.000469295               0.999999984               0.000429992               0.000489716               0.999999984               0.000436004               0.000510439               0.999999984               0.000441470               0.000530266               0.999999984               0.000446000               0.000548338               0.999999984               0.000449149               0.000564301               0.999999984               0.000450860               0.000577879               0.999999984               0.000451014               0.000588819               0.999999984               0.000449770               0.000597412               0.999999984               0.000447447               0.000603761               0.999999984               0.000444301               0.000607897               0.999999984               0.000440383               0.000609946               0.999999984               0.000422727               0.000642671               0.999999984               0.000382701               0.000547546               0.999999984               0.000365941               0.000524004               0.999999984               0.000361644               0.000529001               0.999999984               0.000363743               0.000546507               0.999999984               0.000368713               0.000569436               0.999999984               0.000374334               0.000593975               0.999999984               0.000379478               0.000618522               0.999999984               0.000383329               0.000641980               0.999999984               0.000385319               0.000663408               0.999999984               0.000385420               0.000682321               0.999999984               0.000383528               0.000698519               0.999999984               0.000379775               0.000712191               0.999999984               0.000374437               0.000723860               0.999999984               0.000367700               0.000733747               0.999999984               0.000359585               0.000741842               0.999999984               0.000350085               0.000747789               0.999999984               0.000389785               0.000732822               0.999999984               0.000330776               0.000632728               0.999999984               0.000311046               0.000610989               0.999999984               0.000307962               0.000619435               0.999999984               0.000311604               0.000640970               0.999999984               0.000317369               0.000668063               0.999999984               0.000322902               0.000696663               0.999999984               0.000326888               0.000725155               0.999999984               0.000328619               0.000751958               0.999999984               0.000327887               0.000775991               0.999999984               0.000324439               0.000797017               0.999999984               0.000318357               0.000815269               0.999999984               0.000309889               0.000831260               0.999999984               0.000299256               0.000845711               0.999999984               0.000286743               0.000858662               0.999999984               0.000272440               0.000869740               0.999999984               0.000256618               0.000878572               0.999999984               0.000354356               0.000814727               0.999999984               0.000278527               0.000715596               0.999999984               0.000259574               0.000695937               0.999999984               0.000259093               0.000707480               0.999999984               0.000264813               0.000732711               0.999999984               0.000271467               0.000763750               0.999999984               0.000276577               0.000796504               0.999999984               0.000279059               0.000828380               0.999999984               0.000278268               0.000857748               0.999999984               0.000273806               0.000883806               0.999999984               0.000265599               0.000906459               0.999999984               0.000253918               0.000926513               0.999999984               0.000239380               0.000944685               0.999999984               0.000222608               0.000961376               0.999999984               0.000203941               0.000976595               0.999999984               0.000183776               0.000990134               0.999999984               0.000162857               0.001002165               0.999999984               0.000318216               0.000891606               0.999999984               0.000235617               0.000805872               0.999999984               0.000213571               0.000781559               0.999999984               0.000211759               0.000787219               0.999999984               0.000216855               0.000807569               0.999999984               0.000223421               0.000835439               0.999999984               0.000229041               0.000866614               0.999999984               0.000232328               0.000898319               0.999999984               0.000232590               0.000928853               0.999999984               0.000229558               0.000956859               0.999999984               0.000222574               0.000981983               0.999999984               0.000211619               0.001004362               0.999999984               0.000197252               0.001024659               0.999999984               0.000180277               0.001043445               0.999999984               0.000161555               0.001061109               0.999999984               0.000141243               0.001077778               0.999999984               0.000120331               0.001093186               0.999999984               0.000278671               0.000961163               0.999999984               0.000195525               0.000892553               0.999999984               0.000170517               0.000868673               0.999999984               0.000166565               0.000870483               0.999999984               0.000170356               0.000886924               0.999999984               0.000176263               0.000911836               0.999999984               0.000181843               0.000941350               0.999999984               0.000185672               0.000972504               0.999999984               0.000186901               0.001003727               0.999999984               0.000184906               0.001033606               0.999999984               0.000179204               0.001061346               0.999999984               0.000169367               0.001086469               0.999999984               0.000155659               0.001109141               0.999999984               0.000138470               0.001129936               0.999999984               0.000118699               0.001149501               0.999999984               0.000097057               0.001168280               0.999999984               0.000074232               0.001186485               0.999999984               0.000236534               0.001021898               0.999999984               0.000158093               0.000973231               0.999999984               0.000131578               0.000953492               0.999999984               0.000125318               0.000954159               0.999999984               0.000127273               0.000968235               0.999999984               0.000132030               0.000990968               0.999999984               0.000136982               0.001018969               0.999999984               0.000140763               0.001049777               0.999999984               0.000142554               0.001081467               0.999999984               0.000141444               0.001112844               0.999999984               0.000136961               0.001143127               0.999999984               0.000128513               0.001171414               0.999999984               0.000115855               0.001197448               0.999999984               0.000099054               0.001221277               0.999999984               0.000078403               0.001243396               0.999999984               0.000054390               0.001264289               0.999999984               0.000027778               0.001284657               0.999999984               0.000192115               0.001072874               0.999999984               0.000123258               0.001044740               0.999999984               0.000097347               0.001031969               0.999999984               0.000089451               0.001033927               0.999999984               0.000089489               0.001047317               0.999999984               0.000092700               0.001069110               0.999999984               0.000096553               0.001096315               0.999999984               0.000099830               0.001126916               0.999999984               0.000101621               0.001159404               0.999999984               0.000101022               0.001192339               0.999999984               0.000097504               0.001224958               0.999999984               0.000090474               0.001256521               0.999999984               0.000079538               0.001286440               0.999999984               0.000064222               0.001314333               0.999999984               0.000044020               0.001340275               0.999999984               0.000018722               0.001364521               0.999999984              -0.000011578               0.001387692               0.999999984               0.000145785               0.001113342               0.999999984               0.000090624               0.001104024               0.999999984               0.000067929               0.001099512               0.999999984               0.000059752               0.001104559               0.999999984               0.000058348               0.001118789               0.999999984               0.000059960               0.001140570               0.999999984               0.000062568               0.001167802               0.999999984               0.000064944               0.001198724               0.999999984               0.000066384               0.001232002               0.999999984               0.000066087               0.001266596               0.999999984               0.000063371               0.001301582               0.999999984               0.000057789               0.001336270               0.999999984               0.000049055               0.001370062               0.999999984               0.000036376               0.001402427               0.999999984               0.000018539               0.001433119               0.999999984              -0.000005166               0.001461933               0.999999984              -0.000035580               0.001489081               0.999999984               0.000098001               0.001142689               0.999999984               0.000059604               0.001148394               0.999999984               0.000042690               0.001151653               0.999999984               0.000035917               0.001160458               0.999999984               0.000034032               0.001176349               0.999999984               0.000034520               0.001198803               0.999999984               0.000035944               0.001226433               0.999999984               0.000037444               0.001257904               0.999999984               0.000038402               0.001292040               0.999999984               0.000038136               0.001328031               0.999999984               0.000036270               0.001365048               0.999999984               0.000032455               0.001402389               0.999999984               0.000026383               0.001439527               0.999999984               0.000017209               0.001475915               0.999999984               0.000003892               0.001511157               0.999999984              -0.000014669               0.001544765               0.999999984              -0.000039639               0.001576368               0.999999984               0.000049250               0.001160480               0.999999984               0.000029572               0.001175846               0.999999984               0.000020507               0.001184583               0.999999984               0.000016689               0.001196428               0.999999984               0.000015382               0.001213925               0.999999984               0.000015398               0.001237198               0.999999984               0.000015983               0.001265298               0.999999984               0.000016704               0.001297230               0.999999984               0.000017152               0.001332035               0.999999984               0.000016998               0.001368975               0.999999984               0.000015995               0.001407350               0.999999984               0.000014149               0.001446551               0.999999984               0.000011036               0.001486051               0.999999984               0.000006169               0.001525321               0.999999984              -0.000000960               0.001563827               0.999999984              -0.000011295               0.001600957               0.999999984              -0.000025564               0.001636045               0.999999984              -0.000000000               0.001166448               0.999999984              -0.000000000               0.001185154               0.999999984              -0.000000000               0.001195823               0.999999984              -0.000000000               0.001208789               0.999999984              -0.000000000               0.001227006               0.999999984              -0.000000000               0.001250699               0.999999984               0.000000000               0.001278968               0.999999984               0.000000000               0.001311014               0.999999984               0.000000000               0.001346035               0.999999984              -0.000000000               0.001383332               0.999999984               0.000000000               0.001422184               0.999999984               0.000000000               0.001462049               0.999999984               0.000000000               0.001502413               0.999999984              -0.000000000               0.001542786               0.999999984              -0.000000000               0.001582567               0.999999984               0.000000000               0.001621009               0.999999984              -0.000000000               0.001657399               0.999999984 </DataArray>
<DataArray type="Float64"                                    Name="stress"                                                      NumberOfComponents="10" format="ascii">
              0.001893340               0.020888031              -0.000000000              -0.001900997               0.007596273               0.005695276               0.000000000               0.000000000               0.000000000               0.000000000               0.001898756               0.016488367              -0.000000000              -0.001349009               0.005945737               0.004596728               0.000000000               0.000000000               0.000000000               0.000000000               0.002514540               0.012937059              -0.000000000              -0.000674178               0.004537036               0.003862858               0.000000000               0.000000000               0.000000000               0.000000000               0.002441367               0.010948370               0.000000000              -0.000453033               0.003800431               0.003347399               0.000000000               0.000000000               0.000000000               0.000000000               0.002154355               0.009713108               0.000000000              -0.000406254               0.003373088               0.002966834               0.000000000               0.000000000               0.000000000               0.000000000               0.001822391               0.008883374               0.000000000              -0.000427024               0.003103437               0.002676412               0.000000000               0.000000000               0.000000000               0.000000000               0.001507639               0.008278273               0.000000000              -0.000469418               0.002915869               0.002446451               0.000000000               0.000000000               0.000000000               0.000000000               0.001220303               0.007798686               0.000000000              -0.000517221               0.002771943               0.002254722               0.000000000               0.000000000               0.000000000               0.000000000               0.000968092               0.007397345              -0.000000000              -0.000561632               0.002652968               0.002091336               0.000000000               0.000000000               0.000000000               0.000000000               0.000750218               0.007036313              -0.000000000              -0.000598206               0.002544816               0.001946610               0.000000000               0.000000000               0.000000000               0.000000000               0.000565907               0.006693830              -0.000000000              -0.000624512               0.002439425               0.001814913               0.000000000               0.000000000               0.000000000               0.000000000               0.000413322               0.006352817              -0.000000000              -0.000639105               0.002330619               0.001691515               0.000000000               0.000000000               0.000000000               0.000000000               0.000286002               0.006002351              -0.000000000              -0.000643041               0.002215111               0.001572070               0.000000000               0.000000000               0.000000000               0.000000000               0.000177164               0.005634021               0.000000000              -0.000637815               0.002090593               0.001452778               0.000000000               0.000000000               0.000000000               0.000000000               0.000085222               0.005228734              -0.000000000              -0.000621632               0.001950105               0.001328473               0.000000000               0.000000000               0.000000000               0.000000000               0.000028393               0.004761008              -0.000000000              -0.000584477               0.001781813               0.001197335               0.000000000               0.000000000               0.000000000               0.000000000              -0.000026170               0.004398366               0.000000000              -0.000559608               0.001652643               0.001093035               0.000000000               0.000000000               0.000000000               0.000000000               0.001969720               0.020468888              -0.001442533              -0.001819962               0.007429548               0.005609587               0.000000000               0.000000000               0.000000000               0.000000000               0.001873050               0.016213964              -0.000747114              -0.001324349               0.005846050               0.004521701               0.000000000               0.000000000               0.000000000               0.000000000               0.002376782               0.012816023              -0.000056040              -0.000710708               0.004508868               0.003798160               0.000000000               0.000000000               0.000000000               0.000000000               0.002259587               0.010910876               0.000232663              -0.000516513               0.003809093               0.003292580               0.000000000               0.000000000               0.000000000               0.000000000               0.001967348               0.009721196               0.000352872              -0.000477393               0.003399497               0.002922104               0.000000000               0.000000000               0.000000000               0.000000000               0.001642408               0.008909753               0.000397876              -0.000497815               0.003135826               0.002638011               0.000000000               0.000000000               0.000000000               0.000000000               0.001339370               0.008311262               0.000404756              -0.000536643               0.002949274               0.002412631               0.000000000               0.000000000               0.000000000               0.000000000               0.001071114               0.007837285               0.000397249              -0.000577992               0.002805066               0.002227074               0.000000000               0.000000000               0.000000000               0.000000000               0.000838260               0.007435521               0.000382313              -0.000615091               0.002683513               0.002068421               0.000000000               0.000000000               0.000000000               0.000000000               0.000641216               0.007073147               0.000362562              -0.000643686               0.002572254               0.001928568               0.000000000               0.000000000               0.000000000               0.000000000               0.000478325               0.006732486               0.000340492              -0.000662187               0.002464869               0.001802681               0.000000000               0.000000000               0.000000000               0.000000000               0.000345665               0.006397971               0.000314961              -0.000670120               0.002356009               0.001685889               0.000000000               0.000000000               0.000000000               0.000000000               0.000237866               0.006057567               0.000288484              -0.000667995               0.002241834               0.001573839               0.000000000               0.000000000               0.000000000               0.000000000               0.000146179               0.005701935               0.000255548              -0.000657923               0.002119934               0.001462011               0.000000000               0.000000000               0.000000000               0.000000000               0.000070308               0.005319048               0.000200987              -0.000638514               0.001985836               0.001347322               0.000000000               0.000000000               0.000000000               0.000000000               0.000024638               0.004896651               0.000115165              -0.000602841               0.001833147               0.001230307               0.000000000               0.000000000               0.000000000               0.000000000              -0.000020902               0.004582882               0.000070166              -0.000580697               0.001721178               0.001140481               0.000000000               0.000000000               0.000000000               0.000000000               0.002156798               0.019268490              -0.002688912              -0.001599759               0.006956019               0.005356259               0.000000000               0.000000000               0.000000000               0.000000000               0.001779890               0.015436951              -0.001395768              -0.001262157               0.005566318               0.004304161               0.000000000               0.000000000               0.000000000               0.000000000               0.001984243               0.012478803              -0.000120431              -0.000815757               0.004431479               0.003615721               0.000000000               0.000000000               0.000000000               0.000000000               0.001757600               0.010798996               0.000398016              -0.000690773               0.003829887               0.003139114               0.000000000               0.000000000               0.000000000               0.000000000               0.001448241               0.009725113               0.000605239              -0.000672547               0.003465854               0.002793307               0.000000000               0.000000000               0.000000000               0.000000000               0.001149893               0.008967588               0.000677658              -0.000689737               0.003219078               0.002529341               0.000000000               0.000000000               0.000000000               0.000000000               0.000894002               0.008392779               0.000689359              -0.000713845               0.003035513               0.002321668               0.000000000               0.000000000               0.000000000               0.000000000               0.000679234               0.007928088               0.000675357              -0.000736296               0.002888102               0.002151805               0.000000000               0.000000000               0.000000000               0.000000000               0.000498659               0.007526776               0.000645017              -0.000753848               0.002760183               0.002006335               0.000000000               0.000000000               0.000000000               0.000000000               0.000354519               0.007162652               0.000607138              -0.000762385               0.002641655               0.001879270               0.000000000               0.000000000               0.000000000               0.000000000               0.000241871               0.006820255               0.000566891              -0.000761828               0.002527338               0.001765510               0.000000000               0.000000000               0.000000000               0.000000000               0.000155869               0.006493831               0.000520640              -0.000753276               0.002415681               0.001662405               0.000000000               0.000000000               0.000000000               0.000000000               0.000091852               0.006178594               0.000468758              -0.000737878               0.002305470               0.001567592               0.000000000               0.000000000               0.000000000               0.000000000               0.000047106               0.005867168               0.000404033              -0.000715729               0.002194280               0.001478550               0.000000000               0.000000000               0.000000000               0.000000000               0.000018959               0.005555591               0.000308142              -0.000687338               0.002080958               0.001393620               0.000000000               0.000000000               0.000000000               0.000000000               0.000005048               0.005250048               0.000171663              -0.000654361               0.001968119               0.001313758               0.000000000               0.000000000               0.000000000               0.000000000              -0.000016719               0.005049247               0.000100077              -0.000637424               0.001895540               0.001258116               0.000000000               0.000000000               0.000000000               0.000000000               0.002358093               0.017443206              -0.003588729              -0.001296115               0.006246382               0.004950267               0.000000000               0.000000000               0.000000000               0.000000000               0.001589537               0.014272581              -0.001873744              -0.001187994               0.005153477               0.003965483               0.000000000               0.000000000               0.000000000               0.000000000               0.001379613               0.011974968              -0.000202540              -0.000979514               0.004318121               0.003338607               0.000000000               0.000000000               0.000000000               0.000000000               0.001028665               0.010611108               0.000445246              -0.000940637               0.003850546               0.002909909               0.000000000               0.000000000               0.000000000               0.000000000               0.000717353               0.009692187               0.000691722              -0.000942514               0.003544868               0.002602354               0.000000000               0.000000000               0.000000000               0.000000000               0.000473376               0.009007986               0.000772725              -0.000948480               0.003318792               0.002370312               0.000000000               0.000000000               0.000000000               0.000000000               0.000295028               0.008463522               0.000782219              -0.000947303               0.003136913               0.002189610               0.000000000               0.000000000               0.000000000               0.000000000               0.000161163               0.008006922               0.000760445              -0.000940427               0.002982423               0.002041996               0.000000000               0.000000000               0.000000000               0.000000000               0.000058763               0.007605669               0.000720350              -0.000928670               0.002844755               0.001916084               0.000000000               0.000000000               0.000000000               0.000000000              -0.000007129               0.007242713               0.000669777              -0.000908010               0.002716884               0.001808873               0.000000000               0.000000000               0.000000000               0.000000000              -0.000045080               0.006908877               0.000616703              -0.000880512               0.002596440               0.001715927               0.000000000               0.000000000               0.000000000               0.000000000              -0.000062411               0.006603384               0.000560174              -0.000848825               0.002484048               0.001635223               0.000000000               0.000000000               0.000000000               0.000000000              -0.000062526               0.006326571               0.000496584              -0.000814267               0.002380258               0.001565991               0.000000000               0.000000000               0.000000000               0.000000000              -0.000052663               0.006075384               0.000414936              -0.000779170               0.002284831               0.001505661               0.000000000               0.000000000               0.000000000               0.000000000              -0.000038706               0.005853842               0.000303340              -0.000746243               0.002200009               0.001453766               0.000000000               0.000000000               0.000000000               0.000000000              -0.000020922               0.005678517               0.000162180              -0.000717659               0.002132039               0.001414381               0.000000000               0.000000000               0.000000000               0.000000000              -0.000015892               0.005589870               0.000088135              -0.000704692               0.002098168               0.001393477               0.000000000               0.000000000               0.000000000               0.000000000               0.002453357               0.015207870              -0.004067520              -0.000980976               0.005396230               0.004415255               0.000000000               0.000000000               0.000000000               0.000000000               0.001277131               0.012867982              -0.002158876              -0.001129572               0.004665808               0.003536236               0.000000000               0.000000000               0.000000000               0.000000000               0.000634320               0.011356143              -0.000322086              -0.001181645               0.004179225               0.002997580               0.000000000               0.000000000               0.000000000               0.000000000               0.000198633               0.010340257               0.000351716              -0.001218042               0.003852732               0.002634690               0.000000000               0.000000000               0.000000000               0.000000000              -0.000070294               0.009583090               0.000594860              -0.001224243               0.003602412               0.002378169               0.000000000               0.000000000               0.000000000               0.000000000              -0.000227571               0.008975854               0.000668003              -0.001207318               0.003394361               0.002187043               0.000000000               0.000000000               0.000000000               0.000000000              -0.000311537               0.008465202               0.000673604              -0.001174974               0.003213364               0.002038390               0.000000000               0.000000000               0.000000000               0.000000000              -0.000345222               0.008023628               0.000652450              -0.001132409               0.003051986               0.001919577               0.000000000               0.000000000               0.000000000               0.000000000              -0.000347216               0.007629115               0.000613322              -0.001083843               0.002904294               0.001820451               0.000000000               0.000000000               0.000000000               0.000000000              -0.000324540               0.007276834               0.000562195              -0.001031304               0.002769355               0.001738051               0.000000000               0.000000000               0.000000000               0.000000000              -0.000286198               0.006964894               0.000508019              -0.000977934               0.002647586               0.001669652               0.000000000               0.000000000               0.000000000               0.000000000              -0.000233788               0.006689028               0.000450044              -0.000923797               0.002537586               0.001613789               0.000000000               0.000000000               0.000000000               0.000000000              -0.000172969               0.006445773               0.000387074              -0.000870583               0.002438764               0.001568181               0.000000000               0.000000000               0.000000000               0.000000000              -0.000117622               0.006240755               0.000311296              -0.000824201               0.002354964               0.001530764               0.000000000               0.000000000               0.000000000               0.000000000              -0.000069441               0.006085227               0.000216319              -0.000786692               0.002290619               0.001503927               0.000000000               0.000000000               0.000000000               0.000000000              -0.000029878               0.005986429               0.000109220              -0.000759506               0.002248625               0.001489119               0.000000000               0.000000000               0.000000000               0.000000000              -0.000015130               0.005947509               0.000056325              -0.000749110               0.002232187               0.001483076               0.000000000               0.000000000               0.000000000               0.000000000               0.002337960               0.012786078              -0.004132252              -0.000721527               0.004502491               0.003780965               0.000000000               0.000000000               0.000000000               0.000000000               0.000839273               0.011368724              -0.002275848              -0.001106362               0.004158324               0.003051962               0.000000000               0.000000000               0.000000000               0.000000000              -0.000157061               0.010668903              -0.000502387              -0.001392507               0.004020434               0.002627927               0.000000000               0.000000000               0.000000000               0.000000000              -0.000599326               0.009979033               0.000118617              -0.001472123               0.003817019               0.002344896               0.000000000               0.000000000               0.000000000               0.000000000              -0.000776021               0.009370864               0.000337596              -0.001462362               0.003611044               0.002148682               0.000000000               0.000000000               0.000000000               0.000000000              -0.000817459               0.008841899               0.000404758              -0.001411781               0.003417864               0.002006083               0.000000000               0.000000000               0.000000000               0.000000000              -0.000786725               0.008372971               0.000417673              -0.001341640               0.003238176               0.001896536               0.000000000               0.000000000               0.000000000               0.000000000              -0.000716546               0.007956431               0.000408378              -0.001263255               0.003073202               0.001809947               0.000000000               0.000000000               0.000000000               0.000000000              -0.000628971               0.007583179               0.000381035              -0.001183759               0.002922287               0.001738529               0.000000000               0.000000000               0.000000000               0.000000000              -0.000530241               0.007251255               0.000344069              -0.001105245               0.002785476               0.001680231               0.000000000               0.000000000               0.000000000               0.000000000              -0.000427859               0.006954027               0.000303855              -0.001029698               0.002661219               0.001631521               0.000000000               0.000000000               0.000000000               0.000000000              -0.000327838               0.006687355               0.000259918              -0.000958856               0.002548715               0.001589859               0.000000000               0.000000000               0.000000000               0.000000000              -0.000231884               0.006457600               0.000215596              -0.000894154               0.002450563               0.001556409               0.000000000               0.000000000               0.000000000               0.000000000              -0.000152486               0.006270768               0.000169527              -0.000841026               0.002370577               0.001529551               0.000000000               0.000000000               0.000000000               0.000000000              -0.000090463               0.006130243               0.000115147              -0.000800202               0.002310128               0.001509926               0.000000000               0.000000000               0.000000000               0.000000000              -0.000039459               0.006031967               0.000055751              -0.000768791               0.002266899               0.001498108               0.000000000               0.000000000               0.000000000               0.000000000              -0.000026907               0.005975915               0.000032453              -0.000757078               0.002244311               0.001487233               0.000000000               0.000000000               0.000000000               0.000000000               0.001958186               0.010376531              -0.003850907              -0.000562749               0.003646391               0.003083642               0.000000000               0.000000000               0.000000000               0.000000000               0.000302852               0.009892086              -0.002271740              -0.001122940               0.003671642               0.002548702               0.000000000               0.000000000               0.000000000               0.000000000              -0.000902122               0.009947792              -0.000752021              -0.001581766               0.003843153               0.002261387               0.000000000               0.000000000               0.000000000               0.000000000              -0.001259770               0.009539303              -0.000222185              -0.001664823               0.003734677               0.002069854               0.000000000               0.000000000               0.000000000               0.000000000              -0.001300575               0.009061264              -0.000018038              -0.001620370               0.003560514               0.001940145               0.000000000               0.000000000               0.000000000               0.000000000              -0.001212902               0.008603726               0.000061509              -0.001530300               0.003377980               0.001847680               0.000000000               0.000000000               0.000000000               0.000000000              -0.001073433               0.008183129               0.000094167              -0.001425425               0.003202824               0.001777399               0.000000000               0.000000000               0.000000000               0.000000000              -0.000914767               0.007805232               0.000107521              -0.001318688               0.003041281               0.001722592               0.000000000               0.000000000               0.000000000               0.000000000              -0.000751768               0.007456211               0.000104687              -0.001213936               0.002890024               0.001676088               0.000000000               0.000000000               0.000000000               0.000000000              -0.000599942               0.007126143               0.000092278              -0.001115743               0.002747272               0.001631528               0.000000000               0.000000000               0.000000000               0.000000000              -0.000465467               0.006817378               0.000077684              -0.001026720               0.002614676               0.001587956               0.000000000               0.000000000               0.000000000               0.000000000              -0.000346960               0.006541468               0.000064369              -0.000947791               0.002496398               0.001548607               0.000000000               0.000000000               0.000000000               0.000000000              -0.000247667               0.006309510               0.000057405              -0.000881562               0.002397003               0.001515441               0.000000000               0.000000000               0.000000000               0.000000000              -0.000169852               0.006121778               0.000054442              -0.000828915               0.002316877               0.001487963               0.000000000               0.000000000               0.000000000               0.000000000              -0.000105850               0.005970651               0.000046569              -0.000786023               0.002252205               0.001466182               0.000000000               0.000000000               0.000000000               0.000000000              -0.000050370               0.005843466               0.000028866              -0.000749320               0.002197576               0.001448256               0.000000000               0.000000000               0.000000000               0.000000000              -0.000043728               0.005757162               0.000027882              -0.000736041               0.002164382               0.001428341               0.000000000               0.000000000               0.000000000               0.000000000               0.001340495               0.008134956              -0.003312844              -0.000514186               0.002883019               0.002368833               0.000000000               0.000000000               0.000000000               0.000000000              -0.000293745               0.008527638              -0.002189423              -0.001176108               0.003234553               0.002058445               0.000000000               0.000000000               0.000000000               0.000000000              -0.001523723               0.009215264              -0.001059700              -0.001723300               0.003646157               0.001922857               0.000000000               0.000000000               0.000000000               0.000000000              -0.001722812               0.009038131              -0.000616342              -0.001775817               0.003604619               0.001828802               0.000000000               0.000000000               0.000000000               0.000000000              -0.001611245               0.008675253              -0.000402586              -0.001688619               0.003454595               0.001765976               0.000000000               0.000000000               0.000000000               0.000000000              -0.001403297               0.008290217              -0.000290159              -0.001562510               0.003284214               0.001721705               0.000000000               0.000000000               0.000000000               0.000000000              -0.001169728               0.007928683              -0.000224883              -0.001429730               0.003119444               0.001689715               0.000000000               0.000000000               0.000000000               0.000000000              -0.000944123               0.007577678              -0.000180767              -0.001301252               0.002959618               0.001658366               0.000000000               0.000000000               0.000000000               0.000000000              -0.000744457               0.007223028              -0.000155475              -0.001182047               0.002801668               0.001619621               0.000000000               0.000000000               0.000000000               0.000000000              -0.000572093               0.006876076              -0.000137587              -0.001074042               0.002650016               0.001575975               0.000000000               0.000000000               0.000000000               0.000000000              -0.000427993               0.006553610              -0.000113306              -0.000979696               0.002511080               0.001531384               0.000000000               0.000000000               0.000000000               0.000000000              -0.000314907               0.006273658              -0.000081039              -0.000902295               0.002391964               0.001489668               0.000000000               0.000000000               0.000000000               0.000000000              -0.000227686               0.006041732              -0.000040456              -0.000840597               0.002294089               0.001453493               0.000000000               0.000000000               0.000000000               0.000000000              -0.000160394               0.005847946               0.000000169              -0.000791139               0.002213009               0.001421870               0.000000000               0.000000000               0.000000000               0.000000000              -0.000103134               0.005682417               0.000025037              -0.000748975               0.002143779               0.001394803               0.000000000               0.000000000               0.000000000               0.000000000              -0.000051790               0.005540430               0.000026159              -0.000711973               0.002084116               0.001372143               0.000000000               0.000000000               0.000000000               0.000000000              -0.000041959               0.005453153               0.000028873              -0.000697377               0.002050159               0.001352782               0.000000000               0.000000000               0.000000000               0.000000000               0.000586454               0.006234412              -0.002626070              -0.000559382               0.002264576               0.001705194               0.000000000               0.000000000               0.000000000               0.000000000              -0.000861636               0.007313088              -0.002076445              -0.001237248               0.002850087               0.001612839               0.000000000               0.000000000               0.000000000               0.000000000              -0.001981777               0.008508064              -0.001417222              -0.001806670               0.003438216               0.001631546               0.000000000               0.000000000               0.000000000               0.000000000              -0.002015553               0.008565755              -0.001029964              -0.001826548               0.003464072               0.001637525               0.000000000               0.000000000               0.000000000               0.000000000              -0.001782143               0.008336034              -0.000787218              -0.001710304               0.003348752               0.001638448               0.000000000               0.000000000               0.000000000               0.000000000              -0.001480886               0.008040572              -0.000628414              -0.001560400               0.003200297               0.001639897               0.000000000               0.000000000               0.000000000               0.000000000              -0.001181272               0.007727483              -0.000523683              -0.001408909               0.003045438               0.001636529               0.000000000               0.000000000               0.000000000               0.000000000              -0.000915579               0.007386531              -0.000448923              -0.001266655               0.002884371               0.001617716               0.000000000               0.000000000               0.000000000               0.000000000              -0.000687432               0.007028848              -0.000392076              -0.001136390               0.002721723               0.001585332               0.000000000               0.000000000               0.000000000               0.000000000              -0.000495655               0.006674907              -0.000337909              -0.001020231               0.002565024               0.001544793               0.000000000               0.000000000               0.000000000               0.000000000              -0.000345334               0.006352300              -0.000272158              -0.000923536               0.002425257               0.001501722               0.000000000               0.000000000               0.000000000               0.000000000              -0.000243062               0.006074567              -0.000194976              -0.000850467               0.002308324               0.001457857               0.000000000               0.000000000               0.000000000               0.000000000              -0.000183409               0.005837327              -0.000116763              -0.000798442               0.002211904               0.001413461               0.000000000               0.000000000               0.000000000               0.000000000              -0.000148439               0.005627299              -0.000048139              -0.000759075               0.002128772               0.001369698               0.000000000               0.000000000               0.000000000               0.000000000              -0.000121370               0.005438929               0.000000435              -0.000725378               0.002054751               0.001329373               0.000000000               0.000000000               0.000000000               0.000000000              -0.000102679               0.005275268               0.000021188              -0.000697911               0.001991042               0.001293131               0.000000000               0.000000000               0.000000000               0.000000000              -0.000092607               0.005194103               0.000024603              -0.000683989               0.001959347               0.001275358               0.000000000               0.000000000               0.000000000               0.000000000              -0.000321294               0.004468816              -0.001891437              -0.000679087               0.001715952               0.001036865               0.000000000               0.000000000               0.000000000               0.000000000              -0.001321607               0.005923344              -0.001944364              -0.001236019               0.002386434               0.001150415               0.000000000               0.000000000               0.000000000               0.000000000              -0.002217780               0.007480031              -0.001797202              -0.001766668               0.003082208               0.001315540               0.000000000               0.000000000               0.000000000               0.000000000              -0.002171546               0.007862153              -0.001479261              -0.001797095               0.003219723               0.001422628               0.000000000               0.000000000               0.000000000               0.000000000              -0.001891002               0.007858525              -0.001209177              -0.001691438               0.003183295               0.001491857               0.000000000               0.000000000               0.000000000               0.000000000              -0.001559812               0.007724116              -0.001003216              -0.001550440               0.003091493               0.001541053               0.000000000               0.000000000               0.000000000               0.000000000              -0.001239401               0.007513120              -0.000851032              -0.001403912               0.002972319               0.001568407               0.000000000               0.000000000               0.000000000               0.000000000              -0.000955534               0.007246239              -0.000732948              -0.001264102               0.002836756               0.001572654               0.000000000               0.000000000               0.000000000               0.000000000              -0.000716609               0.006939358              -0.000638875              -0.001136145               0.002691811               0.001555666               0.000000000               0.000000000               0.000000000               0.000000000              -0.000520923               0.006611438              -0.000549341              -0.001021773               0.002544382               0.001522608               0.000000000               0.000000000               0.000000000               0.000000000              -0.000365671               0.006296279              -0.000449834              -0.000924159               0.002406792               0.001482633               0.000000000               0.000000000               0.000000000               0.000000000              -0.000258712               0.006007728              -0.000342361              -0.000847981               0.002285216               0.001437235               0.000000000               0.000000000               0.000000000               0.000000000              -0.000198734               0.005754496              -0.000235835              -0.000793835               0.002182758               0.001388923               0.000000000               0.000000000               0.000000000               0.000000000              -0.000179028               0.005533300              -0.000140882              -0.000758796               0.002097347               0.001338551               0.000000000               0.000000000               0.000000000               0.000000000              -0.000181310               0.005341482              -0.000061254              -0.000735675               0.002025701               0.001290026               0.000000000               0.000000000               0.000000000               0.000000000              -0.000197289               0.005166138              -0.000008039              -0.000719749               0.001961945               0.001242196               0.000000000               0.000000000               0.000000000               0.000000000              -0.000206086               0.005078482               0.000008632              -0.000712091               0.001930174               0.001218083               0.000000000               0.000000000               0.000000000               0.000000000              -0.001518067               0.002871762              -0.001151161              -0.000928244               0.001266658               0.000338415               0.000000000               0.000000000               0.000000000               0.000000000              -0.001850516               0.004536716              -0.001743960              -0.001261031               0.001932566               0.000671536               0.000000000               0.000000000               0.000000000               0.000000000              -0.002369345               0.006293772              -0.002090777              -0.001675223               0.002656310               0.000981087               0.000000000               0.000000000               0.000000000               0.000000000              -0.002250943               0.006980984              -0.001901978              -0.001716723               0.002899212               0.001182489               0.000000000               0.000000000               0.000000000               0.000000000              -0.001951367               0.007232210              -0.001639075              -0.001635785               0.002955974               0.001320189               0.000000000               0.000000000               0.000000000               0.000000000              -0.001613696               0.007288086              -0.001402896              -0.001516143               0.002934719               0.001418575               0.000000000               0.000000000               0.000000000               0.000000000              -0.001296232               0.007213266              -0.001210500              -0.001387742               0.002866979               0.001479236               0.000000000               0.000000000               0.000000000               0.000000000              -0.001008143               0.007055058              -0.001054739              -0.001259933               0.002771640               0.001511707               0.000000000               0.000000000               0.000000000               0.000000000              -0.000755073               0.006839592              -0.000922472              -0.001138099               0.002659207               0.001521109               0.000000000               0.000000000               0.000000000               0.000000000              -0.000545022               0.006583983              -0.000800833              -0.001027379               0.002537098               0.001509720               0.000000000               0.000000000               0.000000000               0.000000000              -0.000370439               0.006308462              -0.000679419              -0.000927470               0.002411956               0.001484486               0.000000000               0.000000000               0.000000000               0.000000000              -0.000238111               0.006027242              -0.000554288              -0.000842695               0.002289959               0.001447264               0.000000000               0.000000000               0.000000000               0.000000000              -0.000154267               0.005765749              -0.000426010              -0.000778567               0.002181419               0.001402852               0.000000000               0.000000000               0.000000000               0.000000000              -0.000123883               0.005535498              -0.000299410              -0.000738392               0.002091278               0.001352886               0.000000000               0.000000000               0.000000000               0.000000000              -0.000146751               0.005335200              -0.000179892              -0.000721930               0.002019025               0.001297096               0.000000000               0.000000000               0.000000000               0.000000000              -0.000212183               0.005157895              -0.000075121              -0.000724304               0.001960716               0.001236412               0.000000000               0.000000000               0.000000000               0.000000000              -0.000270150               0.005063347              -0.000022157              -0.000734223               0.001932507               0.001198284               0.000000000               0.000000000               0.000000000               0.000000000              -0.002925414               0.001554917              -0.000460708              -0.001291393               0.000948763              -0.000342629               0.000000000               0.000000000               0.000000000               0.000000000              -0.002496067               0.003233120              -0.001454748              -0.001340162               0.001524416               0.000184253               0.000000000               0.000000000               0.000000000               0.000000000              -0.002477356               0.004968460              -0.002200782              -0.001550063               0.002172824               0.000622760               0.000000000               0.000000000               0.000000000               0.000000000              -0.002218173               0.005871471              -0.002175155              -0.001565746               0.002479052               0.000913306               0.000000000               0.000000000               0.000000000               0.000000000              -0.001889418               0.006358264              -0.001964814              -0.001503312               0.002620504               0.001117192               0.000000000               0.000000000               0.000000000               0.000000000              -0.001553111               0.006612462              -0.001733412              -0.001408971               0.002673789               0.001264817               0.000000000               0.000000000               0.000000000               0.000000000              -0.001246278               0.006701079              -0.001523514              -0.001304987               0.002668666               0.001363679               0.000000000               0.000000000               0.000000000               0.000000000              -0.000969638               0.006677398              -0.001346262              -0.001198287               0.002625206               0.001426919               0.000000000               0.000000000               0.000000000               0.000000000              -0.000721829               0.006573451              -0.001189769              -0.001092365               0.002555250               0.001462885               0.000000000               0.000000000               0.000000000               0.000000000              -0.000502633               0.006419522              -0.001044143              -0.000990925               0.002470128               0.001479202               0.000000000               0.000000000               0.000000000               0.000000000              -0.000313295               0.006222680              -0.000904311              -0.000895319               0.002372645               0.001477327               0.000000000               0.000000000               0.000000000               0.000000000              -0.000155372               0.005994933              -0.000765130              -0.000807630               0.002267501               0.001459871               0.000000000               0.000000000               0.000000000               0.000000000              -0.000034705               0.005761759              -0.000623660              -0.000733233               0.002164978               0.001431745               0.000000000               0.000000000               0.000000000               0.000000000               0.000036688               0.005540324              -0.000474930              -0.000678781               0.002073017               0.001394236               0.000000000               0.000000000               0.000000000               0.000000000               0.000040156               0.005336682              -0.000316983              -0.000652025               0.001996218               0.001344193               0.000000000               0.000000000               0.000000000               0.000000000              -0.000031782               0.005157200              -0.000155406              -0.000656566               0.001937905               0.001281339               0.000000000               0.000000000               0.000000000               0.000000000              -0.000114206               0.005058642              -0.000065479              -0.000675156               0.001911249               0.001236093               0.000000000               0.000000000               0.000000000               0.000000000              -0.004440002               0.000580555               0.000086330              -0.001737568               0.000772702              -0.000964866               0.000000000               0.000000000               0.000000000               0.000000000              -0.003214305               0.002081767              -0.001114166              -0.001465583               0.001182441              -0.000283141               0.000000000               0.000000000               0.000000000               0.000000000              -0.002561331               0.003614177              -0.002103691              -0.001412269               0.001675469               0.000263200               0.000000000               0.000000000               0.000000000               0.000000000              -0.002093995               0.004623430              -0.002229350              -0.001363174               0.001995518               0.000632344               0.000000000               0.000000000               0.000000000               0.000000000              -0.001708106               0.005299204              -0.002096137              -0.001302938               0.002200696               0.000897757               0.000000000               0.000000000               0.000000000               0.000000000              -0.001372300               0.005735076              -0.001898784              -0.001231495               0.002322171               0.001090676               0.000000000               0.000000000               0.000000000               0.000000000              -0.001079350               0.005984967              -0.001702179              -0.001152875               0.002379260               0.001226385               0.000000000               0.000000000               0.000000000               0.000000000              -0.000818847               0.006109626              -0.001524609              -0.001070769               0.002393444               0.001322675               0.000000000               0.000000000               0.000000000               0.000000000              -0.000583954               0.006136652              -0.001362524              -0.000986062               0.002374217               0.001388155               0.000000000               0.000000000               0.000000000               0.000000000              -0.000367859               0.006094891              -0.001211081              -0.000899807               0.002331545               0.001431738               0.000000000               0.000000000               0.000000000               0.000000000              -0.000170991               0.006001762              -0.001065697              -0.000814340               0.002272014               0.001457674               0.000000000               0.000000000               0.000000000               0.000000000               0.000009563               0.005864918              -0.000924771              -0.000729527               0.002198129               0.001468602               0.000000000               0.000000000               0.000000000               0.000000000               0.000173024               0.005696420              -0.000781996              -0.000647167               0.002114510               0.001467343               0.000000000               0.000000000               0.000000000               0.000000000               0.000305297               0.005514821              -0.000621766              -0.000574865               0.002029877               0.001455012               0.000000000               0.000000000               0.000000000               0.000000000               0.000381844               0.005331952              -0.000436425              -0.000523301               0.001951733               0.001428432               0.000000000               0.000000000               0.000000000               0.000000000               0.000385297               0.005161392              -0.000227479              -0.000500686               0.001887342               0.001386656               0.000000000               0.000000000               0.000000000               0.000000000               0.000348823               0.005071685              -0.000111846              -0.000503151               0.001858262               0.001355111               0.000000000               0.000000000               0.000000000               0.000000000              -0.005906668              -0.000061543               0.000407092              -0.002207306               0.000715249              -0.001492056               0.000000000               0.000000000               0.000000000               0.000000000              -0.003941152               0.001144669              -0.000770483              -0.001621013               0.000921887              -0.000699126               0.000000000               0.000000000               0.000000000               0.000000000              -0.002641233               0.002360235              -0.001796562              -0.001285490               0.001215232              -0.000070257               0.000000000               0.000000000               0.000000000               0.000000000              -0.001923188               0.003377603              -0.002017596              -0.001143394               0.001506987               0.000363593               0.000000000               0.000000000               0.000000000               0.000000000              -0.001449674               0.004171753              -0.001960884              -0.001065095               0.001745601               0.000680506               0.000000000               0.000000000               0.000000000               0.000000000              -0.001097278               0.004751787              -0.001815891              -0.001005451               0.001919063               0.000913612               0.000000000               0.000000000               0.000000000               0.000000000              -0.000812641               0.005146243              -0.001654435              -0.000948019               0.002031403               0.001083384               0.000000000               0.000000000               0.000000000               0.000000000              -0.000568769               0.005403203              -0.001500004              -0.000888687               0.002097278               0.001208591               0.000000000               0.000000000               0.000000000               0.000000000              -0.000347998               0.005558124              -0.001353714              -0.000825263               0.002127777               0.001302514               0.000000000               0.000000000               0.000000000               0.000000000              -0.000139049               0.005635849              -0.001214377              -0.000756623               0.002130805               0.001374182               0.000000000               0.000000000               0.000000000               0.000000000               0.000063548               0.005651066              -0.001081915              -0.000682552               0.002111187               0.001428635               0.000000000               0.000000000               0.000000000               0.000000000               0.000265581               0.005616329              -0.000957259              -0.000602447               0.002072907               0.001470459               0.000000000               0.000000000               0.000000000               0.000000000               0.000466736               0.005537722              -0.000829334              -0.000517188               0.002018285               0.001501097               0.000000000               0.000000000               0.000000000               0.000000000               0.000660987               0.005428954              -0.000675137              -0.000430748               0.001953216               0.001522468               0.000000000               0.000000000               0.000000000               0.000000000               0.000835561               0.005297476              -0.000487288              -0.000348849               0.001882091               0.001533242               0.000000000               0.000000000               0.000000000               0.000000000               0.000974313               0.005153287              -0.000262362              -0.000278793               0.001810676               0.001531883               0.000000000               0.000000000               0.000000000               0.000000000               0.001051953               0.005087764              -0.000142297              -0.000241488               0.001776400               0.001534913               0.000000000               0.000000000               0.000000000               0.000000000              -0.007141255              -0.000430063               0.000467911              -0.002624211               0.000731377              -0.001892833               0.000000000               0.000000000               0.000000000               0.000000000              -0.004580645               0.000462478              -0.000463967              -0.001775550               0.000746004              -0.001029546               0.000000000               0.000000000               0.000000000               0.000000000              -0.002722257               0.001344772              -0.001306021              -0.001188941               0.000844565              -0.000344376               0.000000000               0.000000000               0.000000000               0.000000000              -0.001760709               0.002304022              -0.001534216              -0.000948267               0.001084088               0.000135821               0.000000000               0.000000000               0.000000000               0.000000000              -0.001185482               0.003150321              -0.001530316              -0.000838345               0.001329544               0.000491199               0.000000000               0.000000000               0.000000000               0.000000000              -0.000798853               0.003825615              -0.001442927              -0.000777771               0.001534449               0.000756678               0.000000000               0.000000000               0.000000000               0.000000000              -0.000513016               0.004328858              -0.001330729              -0.000733487               0.001687433               0.000953946               0.000000000               0.000000000               0.000000000               0.000000000              -0.000279237               0.004693254              -0.001217351              -0.000691370               0.001794859               0.001103489               0.000000000               0.000000000               0.000000000               0.000000000              -0.000071366               0.004954828              -0.001105570              -0.000646115               0.001866964               0.001220849               0.000000000               0.000000000               0.000000000               0.000000000               0.000129464               0.005136609              -0.000997487              -0.000593526               0.001910028               0.001316502               0.000000000               0.000000000               0.000000000               0.000000000               0.000334967               0.005249100              -0.000898037              -0.000530524               0.001926524               0.001396000               0.000000000               0.000000000               0.000000000               0.000000000               0.000554728               0.005309074              -0.000805803              -0.000455610               0.001921544               0.001465933               0.000000000               0.000000000               0.000000000               0.000000000               0.000785360               0.005321209              -0.000706989              -0.000370641               0.001897265               0.001526625               0.000000000               0.000000000               0.000000000               0.000000000               0.001032222               0.005293660              -0.000584525              -0.000274624               0.001856077               0.001581453               0.000000000               0.000000000               0.000000000               0.000000000               0.001302204               0.005229791              -0.000429490              -0.000165397               0.001798379               0.001632982               0.000000000               0.000000000               0.000000000               0.000000000               0.001587720               0.005127429              -0.000234644              -0.000045534               0.001724304               0.001678770               0.000000000               0.000000000               0.000000000               0.000000000               0.001799599               0.005092320              -0.000134884               0.000038309               0.001684654               0.001722962               0.000000000               0.000000000               0.000000000               0.000000000              -0.007968750              -0.000604504               0.000300337              -0.002912716               0.000769399              -0.002143317               0.000000000               0.000000000               0.000000000               0.000000000              -0.005022951               0.000051500              -0.000212349              -0.001890042               0.000647176              -0.001242866               0.000000000               0.000000000               0.000000000               0.000000000              -0.002782462               0.000684694              -0.000685062              -0.001129008               0.000604563              -0.000524445               0.000000000               0.000000000               0.000000000               0.000000000              -0.001643545               0.001576987              -0.000828076              -0.000813451               0.000796807              -0.000016644               0.000000000               0.000000000               0.000000000               0.000000000              -0.000985313               0.002435753              -0.000841166              -0.000673960               0.001036563               0.000362603               0.000000000               0.000000000               0.000000000               0.000000000              -0.000566821               0.003156533              -0.000803840              -0.000607123               0.001254541               0.000647418               0.000000000               0.000000000               0.000000000               0.000000000              -0.000275629               0.003721971              -0.000747259              -0.000568606               0.001430180               0.000861574               0.000000000               0.000000000               0.000000000               0.000000000              -0.000049256               0.004157028              -0.000686096              -0.000538098               0.001565028               0.001026930               0.000000000               0.000000000               0.000000000               0.000000000               0.000150263               0.004490630              -0.000624727              -0.000504979               0.001665188               0.001160209               0.000000000               0.000000000               0.000000000               0.000000000               0.000348280               0.004744146              -0.000565545              -0.000462412               0.001735504               0.001273091               0.000000000               0.000000000               0.000000000               0.000000000               0.000555499               0.004928297              -0.000513368              -0.000407724               0.001778657               0.001370933               0.000000000               0.000000000               0.000000000               0.000000000               0.000779835               0.005056667              -0.000464785              -0.000339644               0.001798754               0.001459109               0.000000000               0.000000000               0.000000000               0.000000000               0.001027605               0.005135599              -0.000409447              -0.000256597               0.001797382               0.001540784               0.000000000               0.000000000               0.000000000               0.000000000               0.001312810               0.005169226              -0.000342509              -0.000153849               0.001774341               0.001620492               0.000000000               0.000000000               0.000000000               0.000000000               0.001650245               0.005156156              -0.000254237              -0.000025678               0.001727261               0.001701583               0.000000000               0.000000000               0.000000000               0.000000000               0.002052845               0.005093691              -0.000138736               0.000133104               0.001653512               0.001786616               0.000000000               0.000000000               0.000000000               0.000000000               0.002375641               0.005087616              -0.000081579               0.000254911               0.001610885               0.001865796               0.000000000               0.000000000               0.000000000               0.000000000              -0.008260628              -0.000653382              -0.000000000              -0.003016061               0.000787554              -0.002228507               0.000000000               0.000000000               0.000000000               0.000000000              -0.005181284              -0.000086108              -0.000000000              -0.001932216               0.000615365              -0.001316851               0.000000000               0.000000000               0.000000000               0.000000000              -0.002803907               0.000454707              -0.000000000              -0.001108302               0.000521000              -0.000587303               0.000000000               0.000000000               0.000000000               0.000000000              -0.001599914               0.001321149              -0.000000000              -0.000765110               0.000695415              -0.000069695               0.000000000               0.000000000               0.000000000               0.000000000              -0.000908611               0.002182290              -0.000000000              -0.000613514               0.000931927               0.000318413               0.000000000               0.000000000               0.000000000               0.000000000              -0.000478394               0.002912096               0.000000000              -0.000543409               0.001151825               0.000608417               0.000000000               0.000000000               0.000000000               0.000000000              -0.000186391               0.003493379              -0.000000000              -0.000506568               0.001333304               0.000826736               0.000000000               0.000000000               0.000000000               0.000000000               0.000037020               0.003953166              -0.000000000              -0.000480262               0.001477796               0.000997534               0.000000000               0.000000000               0.000000000               0.000000000               0.000234739               0.004314921              -0.000000000              -0.000451337               0.001588738               0.001137401               0.000000000               0.000000000               0.000000000               0.000000000               0.000431920               0.004594712              -0.000000000              -0.000412368               0.001669011               0.001256643               0.000000000               0.000000000               0.000000000               0.000000000               0.000640270               0.004805080               0.000000000              -0.000360533               0.001721855               0.001361322               0.000000000               0.000000000               0.000000000               0.000000000               0.000863240               0.004958297               0.000000000              -0.000296071               0.001751440               0.001455368               0.000000000               0.000000000               0.000000000               0.000000000               0.001116816               0.005063097              -0.000000000              -0.000214081               0.001759043               0.001544962               0.000000000               0.000000000               0.000000000               0.000000000               0.001417409               0.005121197              -0.000000000              -0.000108621               0.001743256               0.001634635               0.000000000               0.000000000               0.000000000               0.000000000               0.001779767               0.005125694               0.000000000               0.000026700               0.001699647               0.001726348               0.000000000               0.000000000               0.000000000               0.000000000               0.002229433               0.005078146              -0.000000000               0.000201267               0.001625610               0.001826877               0.000000000               0.000000000               0.000000000               0.000000000               0.002597587               0.005084357              -0.000000000               0.000338547               0.001581920               0.001920467               0.000000000               0.000000000               0.000000000               0.000000000               0.000000000               0.000000000               0.000000000               0.000000000               0.000000000               0.000000000               0.000000000               0.000000000               0.000000000               0.000000000               0.000000000               0.000000000               0.000000000               0.000000000               0.000000000               0.000000000               0.000000000               0.000000000               0.000000000               0.000000000               0.000000000               0.000000000               0.000000000               0.000000000               0.000000000               0.000000000               0.000000000               0.000000000               0.000000000               0.000000000               0.000000000               0.000000000               0.000000000               0.000000000               0.000000000               0.000000000               0.000000000               0.000000000               0.000000000               0.000000000               0.000000000               0.000000000               0.000000000               0.000000000               0.000000000               0.000000000               0.000000000               0.000000000               0.000000000               0.000000000               0.000000000               0.000000000               0.000000000               0.000000000               0.000000000               0.000000000               0.000000000               0.000000000               0.000000000               0.000000000               0.000000000               0.000000000               0.000000000               0.000000000               0.000000000               0.000000000               0.000000000               0.000000000               0.000000000               0.000000000               0.000000000               0.000000000               0.000000000               0.000000000               0.000000000               0.000000000               0.000000000               0.000000000               0.000000000               0.000000000               0.000000000               0.000000000               0.000000000               0.000000000               0.000000000               0.000000000               0.000000000               0.000000000               0.000000000               0.000000000               0.000000000               0.000000000               0.000000000               0.000000000               0.000000000               0.000000000               0.000000000               0.000000000               0.000000000               0.000000000               0.000000000               0.000000000               0.000000000               0.000000000               0.000000000               0.000000000               0.000000000               0.000000000               0.000000000               0.000000000               0.000000000               0.000000000               0.000000000               0.000000000               0.000000000               0.000000000               0.000000000               0.000000000               0.000000000               0.000000000               0.000000000               0.000000000               0.000000000               0.000000000               0.000000000               0.000000000               0.000000000               0.000000000               0.000000000               0.000000000               0.000000000               0.000000000               0.000000000               0.000000000               0.000000000               0.000000000               0.000000000               0.000000000               0.000000000               0.000000000               0.000000000               0.000000000               0.000000000               0.000000000               0.000000000               0.000000000               0.000000000               0.000000000               0.000000000               0.000000000               0.000000000               0.000000000               0.000000000               0.000000000               0.000000000               0.000000000               0.000000000               0.000000000               0.000000000               0.000000000               0.000000000               0.000000000               0.000000000               0.000000000               0.000000000               0.000000000               0.000000000               0.000000000               0.000000000               0.000000000               0.001969720               0.020468888               0.001442533              -0.001819962               0.007429548               0.005609587               0.000000000               0.000000000               0.000000000               0.000000000               0.001873050               0.016213964               0.000747114              -0.001324349               0.005846050               0.004521701               0.000000000               0.000000000               0.000000000               0.000000000               0.002376782               0.012816023               0.000056040              -0.000710708               0.004508868               0.003798160               0.000000000               0.000000000               0.000000000               0.000000000               0.002259587               0.010910876              -0.000232663              -0.000516513               0.003809093               0.003292580               0.000000000               0.000000000               0.000000000               0.000000000               0.001967348               0.009721196              -0.000352872              -0.000477393               0.003399497               0.002922104               0.000000000               0.000000000               0.000000000               0.000000000               0.001642408               0.008909753              -0.000397876              -0.000497815               0.003135826               0.002638011               0.000000000               0.000000000               0.000000000               0.000000000               0.001339370               0.008311262              -0.000404756              -0.000536643               0.002949274               0.002412631               0.000000000               0.000000000               0.000000000               0.000000000               0.001071114               0.007837285              -0.000397249              -0.000577992               0.002805066               0.002227074               0.000000000               0.000000000               0.000000000               0.000000000               0.000838260               0.007435521              -0.000382313              -0.000615091               0.002683513               0.002068421               0.000000000               0.000000000               0.000000000               0.000000000               0.000641216               0.007073147              -0.000362562              -0.000643686               0.002572254               0.001928568               0.000000000               0.000000000               0.000000000               0.000000000               0.000478325               0.006732486              -0.000340492              -0.000662187               0.002464869               0.001802681               0.000000000               0.000000000               0.000000000               0.000000000               0.000345665               0.006397971              -0.000314961              -0.000670120               0.002356009               0.001685889               0.000000000               0.000000000               0.000000000               0.000000000               0.000237866               0.006057567              -0.000288484              -0.000667995               0.002241834               0.001573839               0.000000000               0.000000000               0.000000000               0.000000000               0.000146179               0.005701935              -0.000255548              -0.000657923               0.002119934               0.001462011               0.000000000               0.000000000               0.000000000               0.000000000               0.000070308               0.005319048              -0.000200987              -0.000638514               0.001985836               0.001347322               0.000000000               0.000000000               0.000000000               0.000000000               0.000024638               0.004896651              -0.000115165              -0.000602841               0.001833147               0.001230307               0.000000000               0.000000000               0.000000000               0.000000000              -0.000020902               0.004582882              -0.000070166              -0.000580697               0.001721178               0.001140481               0.000000000               0.000000000               0.000000000               0.000000000               0.002156798               0.019268490               0.002688912              -0.001599759               0.006956019               0.005356259               0.000000000               0.000000000               0.000000000               0.000000000               0.001779890               0.015436951               0.001395768              -0.001262157               0.005566318               0.004304161               0.000000000               0.000000000               0.000000000               0.000000000               0.001984243               0.012478803               0.000120431              -0.000815757               0.004431479               0.003615721               0.000000000               0.000000000               0.000000000               0.000000000               0.001757600               0.010798996              -0.000398016              -0.000690773               0.003829887               0.003139114               0.000000000               0.000000000               0.000000000               0.000000000               0.001448241               0.009725113              -0.000605239              -0.000672547               0.003465854               0.002793307               0.000000000               0.000000000               0.000000000               0.000000000               0.001149893               0.008967588              -0.000677658              -0.000689737               0.003219078               0.002529341               0.000000000               0.000000000               0.000000000               0.000000000               0.000894002               0.008392779              -0.000689359              -0.000713845               0.003035513               0.002321668               0.000000000               0.000000000               0.000000000               0.000000000               0.000679234               0.007928088              -0.000675357              -0.000736296               0.002888102               0.002151805               0.000000000               0.000000000               0.000000000               0.000000000               0.000498659               0.007526776              -0.000645017              -0.000753848               0.002760183               0.002006335               0.000000000               0.000000000               0.000000000               0.000000000               0.000354519               0.007162652              -0.000607138              -0.000762385               0.002641655               0.001879270               0.000000000               0.000000000               0.000000000               0.000000000               0.000241871               0.006820255              -0.000566891              -0.000761828               0.002527338               0.001765510               0.000000000               0.000000000               0.000000000               0.000000000               0.000155869               0.006493831              -0.000520640              -0.000753276               0.002415681               0.001662405               0.000000000               0.000000000               0.000000000               0.000000000               0.000091852               0.006178594              -0.000468758              -0.000737878               0.002305470               0.001567592               0.000000000               0.000000000               0.000000000               0.000000000               0.000047106               0.005867168              -0.000404033              -0.000715729               0.002194280               0.001478550               0.000000000               0.000000000               0.000000000               0.000000000               0.000018959               0.005555591              -0.000308142              -0.000687338               0.002080958               0.001393620               0.000000000               0.000000000               0.000000000               0.000000000               0.000005048               0.005250048              -0.000171663              -0.000654361               0.001968119               0.001313758               0.000000000               0.000000000               0.000000000               0.000000000              -0.000016719               0.005049247              -0.000100077              -0.000637424               0.001895540               0.001258116               0.000000000               0.000000000               0.000000000               0.000000000               0.002358093               0.017443206               0.003588729              -0.001296115               0.006246382               0.004950267               0.000000000               0.000000000               0.000000000               0.000000000               0.001589537               0.014272581               0.001873744              -0.001187994               0.005153477               0.003965483               0.000000000               0.000000000               0.000000000               0.000000000               0.001379613               0.011974968               0.000202540              -0.000979514               0.004318121               0.003338607               0.000000000               0.000000000               0.000000000               0.000000000               0.001028665               0.010611108              -0.000445246              -0.000940637               0.003850546               0.002909909               0.000000000               0.000000000               0.000000000               0.000000000               0.000717353               0.009692187              -0.000691722              -0.000942514               0.003544868               0.002602354               0.000000000               0.000000000               0.000000000               0.000000000               0.000473376               0.009007986              -0.000772725              -0.000948480               0.003318792               0.002370312               0.000000000               0.000000000               0.000000000               0.000000000               0.000295028               0.008463522              -0.000782219              -0.000947303               0.003136913               0.002189610               0.000000000               0.000000000               0.000000000               0.000000000               0.000161163               0.008006922              -0.000760445              -0.000940427               0.002982423               0.002041996               0.000000000               0.000000000               0.000000000               0.000000000               0.000058763               0.007605669              -0.000720350              -0.000928670               0.002844755               0.001916084               0.000000000               0.000000000               0.000000000               0.000000000              -0.000007129               0.007242713              -0.000669777              -0.000908010               0.002716884               0.001808873               0.000000000               0.000000000               0.000000000               0.000000000              -0.000045080               0.006908877              -0.000616703              -0.000880512               0.002596440               0.001715927               0.000000000               0.000000000               0.000000000               0.000000000              -0.000062411               0.006603384              -0.000560174              -0.000848825               0.002484048               0.001635223               0.000000000               0.000000000               0.000000000               0.000000000              -0.000062526               0.006326571              -0.000496584              -0.000814267               0.002380258               0.001565991               0.000000000               0.000000000               0.000000000               0.000000000              -0.000052663               0.006075384              -0.000414936              -0.000779170               0.002284831               0.001505661               0.000000000               0.000000000               0.000000000               0.000000000              -0.000038706               0.005853842              -0.000303340              -0.000746243               0.002200009               0.001453766               0.000000000               0.000000000               0.000000000               0.000000000              -0.000020922               0.005678517              -0.000162180              -0.000717659               0.002132039               0.001414381               0.000000000               0.000000000               0.000000000               0.000000000              -0.000015892               0.005589870              -0.000088135              -0.000704692               0.002098168               0.001393477               0.000000000               0.000000000               0.000000000               0.000000000               0.002453357               0.015207870               0.004067520              -0.000980976               0.005396230               0.004415255               0.000000000               0.000000000               0.000000000               0.000000000               0.001277131               0.012867982               0.002158876              -0.001129572               0.004665808               0.003536236               0.000000000               0.000000000               0.000000000               0.000000000               0.000634320               0.011356143               0.000322086              -0.001181645               0.004179225               0.002997580               0.000000000               0.000000000               0.000000000               0.000000000               0.000198633               0.010340257              -0.000351716              -0.001218042               0.003852732               0.002634690               0.000000000               0.000000000               0.000000000               0.000000000              -0.000070294               0.009583090              -0.000594860              -0.001224243               0.003602412               0.002378169               0.000000000               0.000000000               0.000000000               0.000000000              -0.000227571               0.008975854              -0.000668003              -0.001207318               0.003394361               0.002187043               0.000000000               0.000000000               0.000000000               0.000000000              -0.000311537               0.008465202              -0.000673604              -0.001174974               0.003213364               0.002038390               0.000000000               0.000000000               0.000000000               0.000000000              -0.000345222               0.008023628              -0.000652450              -0.001132409               0.003051986               0.001919577               0.000000000               0.000000000               0.000000000               0.000000000              -0.000347216               0.007629115              -0.000613322              -0.001083843               0.002904294               0.001820451               0.000000000               0.000000000               0.000000000               0.000000000              -0.000324540               0.007276834              -0.000562195              -0.001031304               0.002769355               0.001738051               0.000000000               0.000000000               0.000000000               0.000000000              -0.000286198               0.006964894              -0.000508019              -0.000977934               0.002647586               0.001669652               0.000000000               0.000000000               0.000000000               0.000000000              -0.000233788               0.006689028              -0.000450044              -0.000923797               0.002537586               0.001613789               0.000000000               0.000000000               0.000000000               0.000000000              -0.000172969               0.006445773              -0.000387074              -0.000870583               0.002438764               0.001568181               0.000000000               0.000000000               0.000000000               0.000000000              -0.000117622               0.006240755              -0.000311296              -0.000824201               0.002354964               0.001530764               0.000000000               0.000000000               0.000000000               0.000000000              -0.000069441               0.006085227              -0.000216319              -0.000786692               0.002290619               0.001503927               0.000000000               0.000000000               0.000000000               0.000000000              -0.000029878               0.005986429              -0.000109220              -0.000759506               0.002248625               0.001489119               0.000000000               0.000000000               0.000000000               0.000000000              -0.000015130               0.005947509              -0.000056325              -0.000749110               0.002232187               0.001483076               0.000000000               0.000000000               0.000000000               0.000000000               0.002337960               0.012786078               0.004132252              -0.000721527               0.004502491               0.003780965               0.000000000               0.000000000               0.000000000               0.000000000               0.000839273               0.011368724               0.002275848              -0.001106362               0.004158324               0.003051962               0.000000000               0.000000000               0.000000000               0.000000000              -0.000157061               0.010668903               0.000502387              -0.001392507               0.004020434               0.002627927               0.000000000               0.000000000               0.000000000               0.000000000              -0.000599326               0.009979033              -0.000118617              -0.001472123               0.003817019               0.002344896               0.000000000               0.000000000               0.000000000               0.000000000              -0.000776021               0.009370864              -0.000337596              -0.001462362               0.003611044               0.002148682               0.000000000               0.000000000               0.000000000               0.000000000              -0.000817459               0.008841899              -0.000404758              -0.001411781               0.003417864               0.002006083               0.000000000               0.000000000               0.000000000               0.000000000              -0.000786725               0.008372971              -0.000417673              -0.001341640               0.003238176               0.001896536               0.000000000               0.000000000               0.000000000               0.000000000              -0.000716546               0.007956431              -0.000408378              -0.001263255               0.003073202               0.001809947               0.000000000               0.000000000               0.000000000               0.000000000              -0.000628971               0.007583179              -0.000381035              -0.001183759               0.002922287               0.001738529               0.000000000               0.000000000               0.000000000               0.000000000              -0.000530241               0.007251255              -0.000344069              -0.001105245               0.002785476               0.001680231               0.000000000               0.000000000               0.000000000               0.000000000              -0.000427859               0.006954027              -0.000303855              -0.001029698               0.002661219               0.001631521               0.000000000               0.000000000               0.000000000               0.000000000              -0.000327838               0.006687355              -0.000259918              -0.000958856               0.002548715               0.001589859               0.000000000               0.000000000               0.000000000               0.000000000              -0.000231884               0.006457600              -0.000215596              -0.000894154               0.002450563               0.001556409               0.000000000               0.000000000               0.000000000               0.000000000              -0.000152486               0.006270768              -0.000169527              -0.000841026               0.002370577               0.001529551               0.000000000               0.000000000               0.000000000               0.000000000              -0.000090463               0.006130243              -0.000115147              -0.000800202               0.002310128               0.001509926               0.000000000               0.000000000               0.000000000               0.000000000              -0.000039459               0.006031967              -0.000055751              -0.000768791               0.002266899               0.001498108               0.000000000               0.000000000               0.000000000               0.000000000              -0.000026907               0.005975915              -0.000032453              -0.000757078               0.002244311               0.001487233               0.000000000               0.000000000               0.000000000               0.000000000               0.001958186               0.010376531               0.003850907              -0.000562749               0.003646391               0.003083642               0.000000000               0.000000000               0.000000000               0.000000000               0.000302852               0.009892086               0.002271740              -0.001122940               0.003671642               0.002548702               0.000000000               0.000000000               0.000000000               0.000000000              -0.000902122               0.009947792               0.000752021              -0.001581766               0.003843153               0.002261387               0.000000000               0.000000000               0.000000000               0.000000000              -0.001259770               0.009539303               0.000222185              -0.001664823               0.003734677               0.002069854               0.000000000               0.000000000               0.000000000               0.000000000              -0.001300575               0.009061264               0.000018038              -0.001620370               0.003560514               0.001940145               0.000000000               0.000000000               0.000000000               0.000000000              -0.001212902               0.008603726              -0.000061509              -0.001530300               0.003377980               0.001847680               0.000000000               0.000000000               0.000000000               0.000000000              -0.001073433               0.008183129              -0.000094167              -0.001425425               0.003202824               0.001777399               0.000000000               0.000000000               0.000000000               0.000000000              -0.000914767               0.007805232              -0.000107521              -0.001318688               0.003041281               0.001722592               0.000000000               0.000000000               0.000000000               0.000000000              -0.000751768               0.007456211              -0.000104687              -0.001213936               0.002890024               0.001676088               0.000000000               0.000000000               0.000000000               0.000000000              -0.000599942               0.007126143              -0.000092278              -0.001115743               0.002747272               0.001631528               0.000000000               0.000000000               0.000000000               0.000000000              -0.000465467               0.006817378              -0.000077684              -0.001026720               0.002614676               0.001587956               0.000000000               0.000000000               0.000000000               0.000000000              -0.000346960               0.006541468              -0.000064369              -0.000947791               0.002496398               0.001548607               0.000000000               0.000000000               0.000000000               0.000000000              -0.000247667               0.006309510              -0.000057405              -0.000881562               0.002397003               0.001515441               0.000000000               0.000000000               0.000000000               0.000000000              -0.000169852               0.006121778              -0.000054442              -0.000828915               0.002316877               0.001487963               0.000000000               0.000000000               0.000000000               0.000000000              -0.000105850               0.005970651              -0.000046569              -0.000786023               0.002252205               0.001466182               0.000000000               0.000000000               0.000000000               0.000000000              -0.000050370               0.005843466              -0.000028866              -0.000749320               0.002197576               0.001448256               0.000000000               0.000000000               0.000000000               0.000000000              -0.000043728               0.005757162              -0.000027882              -0.000736041               0.002164382               0.001428341               0.000000000               0.000000000               0.000000000               0.000000000               0.001340495               0.008134956               0.003312844              -0.000514186               0.002883019               0.002368833               0.000000000               0.000000000               0.000000000               0.000000000              -0.000293745               0.008527638               0.002189423              -0.001176108               0.003234553               0.002058445               0.000000000               0.000000000               0.000000000               0.000000000              -0.001523723               0.009215264               0.001059700              -0.001723300               0.003646157               0.001922857               0.000000000               0.000000000               0.000000000               0.000000000              -0.001722812               0.009038131               0.000616342              -0.001775817               0.003604619               0.001828802               0.000000000               0.000000000               0.000000000               0.000000000              -0.001611245               0.008675253               0.000402586              -0.001688619               0.003454595               0.001765976               0.000000000               0.000000000               0.000000000               0.000000000              -0.001403297               0.008290217               0.000290159              -0.001562510               0.003284214               0.001721705               0.000000000               0.000000000               0.000000000               0.000000000              -0.001169728               0.007928683               0.000224883              -0.001429730               0.003119444               0.001689715               0.000000000               0.000000000               0.000000000               0.000000000              -0.000944123               0.007577678               0.000180767              -0.001301252               0.002959618               0.001658366               0.000000000               0.000000000               0.000000000               0.000000000              -0.000744457               0.007223028               0.000155475              -0.001182047               0.002801668               0.001619621               0.000000000               0.000000000               0.000000000               0.000000000              -0.000572093               0.006876076               0.000137587              -0.001074042               0.002650016               0.001575975               0.000000000               0.000000000               0.000000000               0.000000000              -0.000427993               0.006553610               0.000113306              -0.000979696               0.002511080               0.001531384               0.000000000               0.000000000               0.000000000               0.000000000              -0.000314907               0.006273658               0.000081039              -0.000902295               0.002391964               0.001489668               0.000000000               0.000000000               0.000000000               0.000000000              -0.000227686               0.006041732               0.000040456              -0.000840597               0.002294089               0.001453493               0.000000000               0.000000000               0.000000000               0.000000000              -0.000160394               0.005847946              -0.000000169              -0.000791139               0.002213009               0.001421870               0.000000000               0.000000000               0.000000000               0.000000000              -0.000103134               0.005682417              -0.000025037              -0.000748975               0.002143779               0.001394803               0.000000000               0.000000000               0.000000000               0.000000000              -0.000051790               0.005540430              -0.000026159              -0.000711973               0.002084116               0.001372143               0.000000000               0.000000000               0.000000000               0.000000000              -0.000041959               0.005453153              -0.000028873              -0.000697377               0.002050159               0.001352782               0.000000000               0.000000000               0.000000000               0.000000000               0.000586454               0.006234412               0.002626070              -0.000559382               0.002264576               0.001705194               0.000000000               0.000000000               0.000000000               0.000000000              -0.000861636               0.007313088               0.002076445              -0.001237248               0.002850087               0.001612839               0.000000000               0.000000000               0.000000000               0.000000000              -0.001981777               0.008508064               0.001417222              -0.001806670               0.003438216               0.001631546               0.000000000               0.000000000               0.000000000               0.000000000              -0.002015553               0.008565755               0.001029964              -0.001826548               0.003464072               0.001637525               0.000000000               0.000000000               0.000000000               0.000000000              -0.001782143               0.008336034               0.000787218              -0.001710304               0.003348752               0.001638448               0.000000000               0.000000000               0.000000000               0.000000000              -0.001480886               0.008040572               0.000628414              -0.001560400               0.003200297               0.001639897               0.000000000               0.000000000               0.000000000               0.000000000              -0.001181272               0.007727483               0.000523683              -0.001408909               0.003045438               0.001636529               0.000000000               0.000000000               0.000000000               0.000000000              -0.000915579               0.007386531               0.000448923              -0.001266655               0.002884371               0.001617716               0.000000000               0.000000000               0.000000000               0.000000000              -0.000687432               0.007028848               0.000392076              -0.001136390               0.002721723               0.001585332               0.000000000               0.000000000               0.000000000               0.000000000              -0.000495655               0.006674907               0.000337909              -0.001020231               0.002565024               0.001544793               0.000000000               0.000000000               0.000000000               0.000000000              -0.000345334               0.006352300               0.000272158              -0.000923536               0.002425257               0.001501722               0.000000000               0.000000000               0.000000000               0.000000000              -0.000243062               0.006074567               0.000194976              -0.000850467               0.002308324               0.001457857               0.000000000               0.000000000               0.000000000               0.000000000              -0.000183409               0.005837327               0.000116763              -0.000798442               0.002211904               0.001413461               0.000000000               0.000000000               0.000000000               0.000000000              -0.000148439               0.005627299               0.000048139              -0.000759075               0.002128772               0.001369698               0.000000000               0.000000000               0.000000000               0.000000000              -0.000121370               0.005438929              -0.000000435              -0.000725378               0.002054751               0.001329373               0.000000000               0.000000000               0.000000000               0.000000000              -0.000102679               0.005275268              -0.000021188              -0.000697911               0.001991042               0.001293131               0.000000000               0.000000000               0.000000000               0.000000000              -0.000092607               0.005194103              -0.000024603              -0.000683989               0.001959347               0.001275358               0.000000000               0.000000000               0.000000000               0.000000000              -0.000321294               0.004468816               0.001891437              -0.000679087               0.001715952               0.001036865               0.000000000               0.000000000               0.000000000               0.000000000              -0.001321607               0.005923344               0.001944364              -0.001236019               0.002386434               0.001150415               0.000000000               0.000000000               0.000000000               0.000000000              -0.002217780               0.007480031               0.001797202              -0.001766668               0.003082208               0.001315540               0.000000000               0.000000000               0.000000000               0.000000000              -0.002171546               0.007862153               0.001479261              -0.001797095               0.003219723               0.001422628               0.000000000               0.000000000               0.000000000               0.000000000              -0.001891002               0.007858525               0.001209177              -0.001691438               0.003183295               0.001491857               0.000000000               0.000000000               0.000000000               0.000000000              -0.001559812               0.007724116               0.001003216              -0.001550440               0.003091493               0.001541053               0.000000000               0.000000000               0.000000000               0.000000000              -0.001239401               0.007513120               0.000851032              -0.001403912               0.002972319               0.001568407               0.000000000               0.000000000               0.000000000               0.000000000              -0.000955534               0.007246239               0.000732948              -0.001264102               0.002836756               0.001572654               0.000000000               0.000000000               0.000000000               0.000000000              -0.000716609               0.006939358               0.000638875              -0.001136145               0.002691811               0.001555666               0.000000000               0.000000000               0.000000000               0.000000000              -0.000520923               0.006611438               0.000549341              -0.001021773               0.002544382               0.001522608               0.000000000               0.000000000               0.000000000               0.000000000              -0.000365671               0.006296279               0.000449834              -0.000924159               0.002406792               0.001482633               0.000000000               0.000000000               0.000000000               0.000000000              -0.000258712               0.006007728               0.000342361              -0.000847981               0.002285216               0.001437235               0.000000000               0.000000000               0.000000000               0.000000000              -0.000198734               0.005754496               0.000235835              -0.000793835               0.002182758               0.001388923               0.000000000               0.000000000               0.000000000               0.000000000              -0.000179028               0.005533300               0.000140882              -0.000758796               0.002097347               0.001338551               0.000000000               0.000000000               0.000000000               0.000000000              -0.000181310               0.005341482               0.000061254              -0.000735675               0.002025701               0.001290026               0.000000000               0.000000000               0.000000000               0.000000000              -0.000197289               0.005166138               0.000008039              -0.000719749               0.001961945               0.001242196               0.000000000               0.000000000               0.000000000               0.000000000              -0.000206086               0.005078482              -0.000008632              -0.000712091               0.001930174               0.001218083               0.000000000               0.000000000               0.000000000               0.000000000              -0.001518067               0.002871762               0.001151161              -0.000928244               0.001266658               0.000338415               0.000000000               0.000000000               0.000000000               0.000000000              -0.001850516               0.004536716               0.001743960              -0.001261031               0.001932566               0.000671536               0.000000000               0.000000000               0.000000000               0.000000000              -0.002369345               0.006293772               0.002090777              -0.001675223               0.002656310               0.000981087               0.000000000               0.000000000               0.000000000               0.000000000              -0.002250943               0.006980984               0.001901978              -0.001716723               0.002899212               0.001182489               0.000000000               0.000000000               0.000000000               0.000000000              -0.001951367               0.007232210               0.001639075              -0.001635785               0.002955974               0.001320189               0.000000000               0.000000000               0.000000000               0.000000000              -0.001613696               0.007288086               0.001402896              -0.001516143               0.002934719               0.001418575               0.000000000               0.000000000               0.000000000               0.000000000              -0.001296232               0.007213266               0.001210500              -0.001387742               0.002866979               0.001479236               0.000000000               0.000000000               0.000000000               0.000000000              -0.001008143               0.007055058               0.001054739              -0.001259933               0.002771640               0.001511707               0.000000000               0.000000000               0.000000000               0.000000000              -0.000755073               0.006839592               0.000922472              -0.001138099               0.002659207               0.001521109               0.000000000               0.000000000               0.000000000               0.000000000              -0.000545022               0.006583983               0.000800833              -0.001027379               0.002537098               0.001509720               0.000000000               0.000000000               0.000000000               0.000000000              -0.000370439               0.006308462               0.000679419              -0.000927470               0.002411956               0.001484486               0.000000000               0.000000000               0.000000000               0.000000000              -0.000238111               0.006027242               0.000554288              -0.000842695               0.002289959               0.001447264               0.000000000               0.000000000               0.000000000               0.000000000              -0.000154267               0.005765749               0.000426010              -0.000778567               0.002181419               0.001402852               0.000000000               0.000000000               0.000000000               0.000000000              -0.000123883               0.005535498               0.000299410              -0.000738392               0.002091278               0.001352886               0.000000000               0.000000000               0.000000000               0.000000000              -0.000146751               0.005335200               0.000179892              -0.000721930               0.002019025               0.001297096               0.000000000               0.000000000               0.000000000               0.000000000              -0.000212183               0.005157895               0.000075121              -0.000724304               0.001960716               0.001236412               0.000000000               0.000000000               0.000000000               0.000000000              -0.000270150               0.005063347               0.000022157              -0.000734223               0.001932507               0.001198284               0.000000000               0.000000000               0.000000000               0.000000000              -0.002925414               0.001554917               0.000460708              -0.001291393               0.000948763              -0.000342629               0.000000000               0.000000000               0.000000000               0.000000000              -0.002496067               0.003233120               0.001454748              -0.001340162               0.001524416               0.000184253               0.000000000               0.000000000               0.000000000               0.000000000              -0.002477356               0.004968460               0.002200782              -0.001550063               0.002172824               0.000622760               0.000000000               0.000000000               0.000000000               0.000000000              -0.002218173               0.005871471               0.002175155              -0.001565746               0.002479052               0.000913306               0.000000000               0.000000000               0.000000000               0.000000000              -0.001889418               0.006358264               0.001964814              -0.001503312               0.002620504               0.001117192               0.000000000               0.000000000               0.000000000               0.000000000              -0.001553111               0.006612462               0.001733412              -0.001408971               0.002673789               0.001264817               0.000000000               0.000000000               0.000000000               0.000000000              -0.001246278               0.006701079               0.001523514              -0.001304987               0.002668666               0.001363679               0.000000000               0.000000000               0.000000000               0.000000000              -0.000969638               0.006677398               0.001346262              -0.001198287               0.002625206               0.001426919               0.000000000               0.000000000               0.000000000               0.000000000              -0.000721829               0.006573451               0.001189769              -0.001092365               0.002555250               0.001462885               0.000000000               0.000000000               0.000000000               0.000000000              -0.000502633               0.006419522               0.001044143              -0.000990925               0.002470128               0.001479202               0.000000000               0.000000000               0.000000000               0.000000000              -0.000313295               0.006222680               0.000904311              -0.000895319               0.002372645               0.001477327               0.000000000               0.000000000               0.000000000               0.000000000              -0.000155372               0.005994933               0.000765130              -0.000807630               0.002267501               0.001459871               0.000000000               0.000000000               0.000000000               0.000000000              -0.000034705               0.005761759               0.000623660              -0.000733233               0.002164978               0.001431745               0.000000000               0.000000000               0.000000000               0.000000000               0.000036688               0.005540324               0.000474930              -0.000678781               0.002073017               0.001394236               0.000000000               0.000000000               0.000000000               0.000000000               0.000040156               0.005336682               0.000316983              -0.000652025               0.001996218               0.001344193               0.000000000               0.000000000               0.000000000               0.000000000              -0.000031782               0.005157200               0.000155406              -0.000656566               0.001937905               0.001281339               0.000000000               0.000000000               0.000000000               0.000000000              -0.000114206               0.005058642               0.000065479              -0.000675156               0.001911249               0.001236093               0.000000000               0.000000000               0.000000000               0.000000000              -0.004440002               0.000580555              -0.000086330              -0.001737568               0.000772702              -0.000964866               0.000000000               0.000000000               0.000000000               0.000000000              -0.003214305               0.002081767               0.001114166              -0.001465583               0.001182441              -0.000283141               0.000000000               0.000000000               0.000000000               0.000000000              -0.002561331               0.003614177               0.002103691              -0.001412269               0.001675469               0.000263200               0.000000000               0.000000000               0.000000000               0.000000000              -0.002093995               0.004623430               0.002229350              -0.001363174               0.001995518               0.000632344               0.000000000               0.000000000               0.000000000               0.000000000              -0.001708106               0.005299204               0.002096137              -0.001302938               0.002200696               0.000897757               0.000000000               0.000000000               0.000000000               0.000000000              -0.001372300               0.005735076               0.001898784              -0.001231495               0.002322171               0.001090676               0.000000000               0.000000000               0.000000000               0.000000000              -0.001079350               0.005984967               0.001702179              -0.001152875               0.002379260               0.001226385               0.000000000               0.000000000               0.000000000               0.000000000              -0.000818847               0.006109626               0.001524609              -0.001070769               0.002393444               0.001322675               0.000000000               0.000000000               0.000000000               0.000000000              -0.000583954               0.006136652               0.001362524              -0.000986062               0.002374217               0.001388155               0.000000000               0.000000000               0.000000000               0.000000000              -0.000367859               0.006094891               0.001211081              -0.000899807               0.002331545               0.001431738               0.000000000               0.000000000               0.000000000               0.000000000              -0.000170991               0.006001762               0.001065697              -0.000814340               0.002272014               0.001457674               0.000000000               0.000000000               0.000000000               0.000000000               0.000009563               0.005864918               0.000924771              -0.000729527               0.002198129               0.001468602               0.000000000               0.000000000               0.000000000               0.000000000               0.000173024               0.005696420               0.000781996              -0.000647167               0.002114510               0.001467343               0.000000000               0.000000000               0.000000000               0.000000000               0.000305297               0.005514821               0.000621766              -0.000574865               0.002029877               0.001455012               0.000000000               0.000000000               0.000000000               0.000000000               0.000381844               0.005331952               0.000436425              -0.000523301               0.001951733               0.001428432               0.000000000               0.000000000               0.000000000               0.000000000               0.000385297               0.005161392               0.000227479              -0.000500686               0.001887342               0.001386656               0.000000000               0.000000000               0.000000000               0.000000000               0.000348823               0.005071685               0.000111846              -0.000503151               0.001858262               0.001355111               0.000000000               0.000000000               0.000000000               0.000000000              -0.005906668              -0.000061543              -0.000407092              -0.002207306               0.000715249              -0.001492056               0.000000000               0.000000000               0.000000000               0.000000000              -0.003941152               0.001144669               0.000770483              -0.001621013               0.000921887              -0.000699126               0.000000000               0.000000000               0.000000000               0.000000000              -0.002641233               0.002360235               0.001796562              -0.001285490               0.001215232              -0.000070257               0.000000000               0.000000000               0.000000000               0.000000000              -0.001923188               0.003377603               0.002017596              -0.001143394               0.001506987               0.000363593               0.000000000               0.000000000               0.000000000               0.000000000              -0.001449674               0.004171753               0.001960884              -0.001065095               0.001745601               0.000680506               0.000000000               0.000000000               0.000000000               0.000000000              -0.001097278               0.004751787               0.001815891              -0.001005451               0.001919063               0.000913612               0.000000000               0.000000000               0.000000000               0.000000000              -0.000812641               0.005146243               0.001654435              -0.000948019               0.002031403               0.001083384               0.000000000               0.000000000               0.000000000               0.000000000              -0.000568769               0.005403203               0.001500004              -0.000888687               0.002097278               0.001208591               0.000000000               0.000000000               0.000000000               0.000000000              -0.000347998               0.005558124               0.001353714              -0.000825263               0.002127777               0.001302514               0.000000000               0.000000000               0.000000000               0.000000000              -0.000139049               0.005635849               0.001214377              -0.000756623               0.002130805               0.001374182               0.000000000               0.000000000               0.000000000               0.000000000               0.000063548               0.005651066               0.001081915              -0.000682552               0.002111187               0.001428635               0.000000000               0.000000000               0.000000000               0.000000000               0.000265581               0.005616329               0.000957259              -0.000602447               0.002072907               0.001470459               0.000000000               0.000000000               0.000000000               0.000000000               0.000466736               0.005537722               0.000829334              -0.000517188               0.002018285               0.001501097               0.000000000               0.000000000               0.000000000               0.000000000               0.000660987               0.005428954               0.000675137              -0.000430748               0.001953216               0.001522468               0.000000000               0.000000000               0.000000000               0.000000000               0.000835561               0.005297476               0.000487288              -0.000348849               0.001882091               0.001533242               0.000000000               0.000000000               0.000000000               0.000000000               0.000974313               0.005153287               0.000262362              -0.000278793               0.001810676               0.001531883               0.000000000               0.000000000               0.000000000               0.000000000               0.001051953               0.005087764               0.000142297              -0.000241488               0.001776400               0.001534913               0.000000000               0.000000000               0.000000000               0.000000000              -0.007141255              -0.000430063              -0.000467911              -0.002624211               0.000731377              -0.001892833               0.000000000               0.000000000               0.000000000               0.000000000              -0.004580645               0.000462478               0.000463967              -0.001775550               0.000746004              -0.001029546               0.000000000               0.000000000               0.000000000               0.000000000              -0.002722257               0.001344772               0.001306021              -0.001188941               0.000844565              -0.000344376               0.000000000               0.000000000               0.000000000               0.000000000              -0.001760709               0.002304022               0.001534216              -0.000948267               0.001084088               0.000135821               0.000000000               0.000000000               0.000000000               0.000000000              -0.001185482               0.003150321               0.001530316              -0.000838345               0.001329544               0.000491199               0.000000000               0.000000000               0.000000000               0.000000000              -0.000798853               0.003825615               0.001442927              -0.000777771               0.001534449               0.000756678               0.000000000               0.000000000               0.000000000               0.000000000              -0.000513016               0.004328858               0.001330729              -0.000733487               0.001687433               0.000953946               0.000000000               0.000000000               0.000000000               0.000000000              -0.000279237               0.004693254               0.001217351              -0.000691370               0.001794859               0.001103489               0.000000000               0.000000000               0.000000000               0.000000000              -0.000071366               0.004954828               0.001105570              -0.000646115               0.001866964               0.001220849               0.000000000               0.000000000               0.000000000               0.000000000               0.000129464               0.005136609               0.000997487              -0.000593526               0.001910028               0.001316502               0.000000000               0.000000000               0.000000000               0.000000000               0.000334967               0.005249100               0.000898037              -0.000530524               0.001926524               0.001396000               0.000000000               0.000000000               0.000000000               0.000000000               0.000554728               0.005309074               0.000805803              -0.000455610               0.001921544               0.001465933               0.000000000               0.000000000               0.000000000               0.000000000               0.000785360               0.005321209               0.000706989              -0.000370641               0.001897265               0.001526625               0.000000000               0.000000000               0.000000000               0.000000000               0.001032222               0.005293660               0.000584525              -0.000274624               0.001856077               0.001581453               0.000000000               0.000000000               0.000000000               0.000000000               0.001302204               0.005229791               0.000429490              -0.000165397               0.001798379               0.001632982               0.000000000               0.000000000               0.000000000               0.000000000               0.001587720               0.005127429               0.000234644              -0.000045534               0.001724304               0.001678770               0.000000000               0.000000000               0.000000000               0.000000000               0.001799599               0.005092320               0.000134884               0.000038309               0.001684654               0.001722962               0.000000000               0.000000000               0.000000000               0.000000000              -0.007968750              -0.000604504              -0.000300337              -0.002912716               0.000769399              -0.002143317               0.000000000               0.000000000               0.000000000               0.000000000              -0.005022951               0.000051500               0.000212349              -0.001890042               0.000647176              -0.001242866               0.000000000               0.000000000               0.000000000               0.000000000              -0.002782462               0.000684694               0.000685062              -0.001129008               0.000604563              -0.000524445               0.000000000               0.000000000               0.000000000               0.000000000              -0.001643545               0.001576987               0.000828076              -0.000813451               0.000796807              -0.000016644               0.000000000               0.000000000               0.000000000               0.000000000              -0.000985313               0.002435753               0.000841166              -0.000673960               0.001036563               0.000362603               0.000000000               0.000000000               0.000000000               0.000000000              -0.000566821               0.003156533               0.000803840              -0.000607123               0.001254541               0.000647418               0.000000000               0.000000000               0.000000000               0.000000000              -0.000275629               0.003721971               0.000747259              -0.000568606               0.001430180               0.000861574               0.000000000               0.000000000               0.000000000               0.000000000              -0.000049256               0.004157028               0.000686096              -0.000538098               0.001565028               0.001026930               0.000000000               0.000000000               0.000000000               0.000000000               0.000150263               0.004490630               0.000624727              -0.000504979               0.001665188               0.001160209               0.000000000               0.000000000               0.000000000               0.000000000               0.000348280               0.004744146               0.000565545              -0.000462412               0.001735504               0.001273091               0.000000000               0.000000000               0.000000000               0.000000000               0.000555499               0.004928297               0.000513368              -0.000407724               0.001778657               0.001370933               0.000000000               0.000000000               0.000000000               0.000000000               0.000779835               0.005056667               0.000464785              -0.000339644               0.001798754               0.001459109               0.000000000               0.000000000               0.000000000               0.000000000               0.001027605               0.005135599               0.000409447              -0.000256597               0.001797382               0.001540784               0.000000000               0.000000000               0.000000000               0.000000000               0.001312810               0.005169226               0.000342509              -0.000153849               0.001774341               0.001620492               0.000000000               0.000000000               0.000000000               0.000000000               0.001650245               0.005156156               0.000254237              -0.000025678               0.001727261               0.001701583               0.000000000               0.000000000               0.000000000               0.000000000               0.002052845               0.005093691               0.000138736               0.000133104               0.001653512               0.001786616               0.000000000               0.000000000               0.000000000               0.000000000               0.002375641               0.005087616               0.000081579               0.000254911               0.001610885               0.001865796               0.000000000               0.000000000               0.000000000               0.000000000              -0.008260628              -0.000653382               0.000000000              -0.003016061               0.000787554              -0.002228507               0.000000000               0.000000000               0.000000000               0.000000000              -0.005181284              -0.000086108               0.000000000              -0.001932216               0.000615365              -0.001316851               0.000000000               0.000000000               0.000000000               0.000000000              -0.002803907               0.000454707              -0.000000000              -0.001108302               0.000521000              -0.000587303               0.000000000               0.000000000               0.000000000               0.000000000              -0.001599914               0.001321149               0.000000000              -0.000765110               0.000695415              -0.000069695               0.000000000               0.000000000               0.000000000               0.000000000              -0.000908611               0.002182290               0.000000000              -0.000613514               0.000931927               0.000318413               0.000000000               0.000000000               0.000000000               0.000000000              -0.000478394               0.002912096               0.000000000              -0.000543409               0.001151825               0.000608417               0.000000000               0.000000000               0.000000000               0.000000000              -0.000186391               0.003493379               0.000000000              -0.000506568               0.001333304               0.000826736               0.000000000               0.000000000               0.000000000               0.000000000               0.000037020               0.003953166               0.000000000              -0.000480262               0.001477796               0.000997534               0.000000000               0.000000000               0.000000000               0.000000000               0.000234739               0.004314921              -0.000000000              -0.000451337               0.001588738               0.001137401               0.000000000               0.000000000               0.000000000               0.000000000               0.000431920               0.004594712               0.000000000              -0.000412368               0.001669011               0.001256643               0.000000000               0.000000000               0.000000000               0.000000000               0.000640270               0.004805080               0.000000000              -0.000360533               0.001721855               0.001361322               0.000000000               0.000000000               0.000000000               0.000000000               0.000863240               0.004958297               0.000000000              -0.000296071               0.001751440               0.001455368               0.000000000               0.000000000               0.000000000               0.000000000               0.001116816               0.005063097               0.000000000              -0.000214081               0.001759043               0.001544962               0.000000000               0.000000000               0.000000000               0.000000000               0.001417409               0.005121197              -0.000000000              -0.000108621               0.001743256               0.001634635               0.000000000               0.000000000               0.000000000               0.000000000               0.001779767               0.005125694               0.000000000               0.000026700               0.001699647               0.001726348               0.000000000               0.000000000               0.000000000               0.000000000               0.002229433               0.005078146               0.000000000               0.000201267               0.001625610               0.001826877               0.000000000               0.000000000               0.000000000               0.000000000               0.002597587               0.005084357               0.000000000               0.000338547               0.001581920               0.001920467               0.000000000               0.000000000               0.000000000               0.000000000               0.001893340               0.020888031               0.000000000              -0.001900997               0.007596273               0.005695276               0.000000000               0.000000000               0.000000000               0.000000000               0.001898756               0.016488367              -0.000000000              -0.001349009               0.005945737               0.004596728               0.000000000               0.000000000               0.000000000               0.000000000               0.002514540               0.012937059               0.000000000              -0.000674178               0.004537036               0.003862858               0.000000000               0.000000000               0.000000000               0.000000000               0.002441367               0.010948370               0.000000000              -0.000453033               0.003800431               0.003347399               0.000000000               0.000000000               0.000000000               0.000000000               0.002154355               0.009713108               0.000000000              -0.000406254               0.003373088               0.002966834               0.000000000               0.000000000               0.000000000               0.000000000               0.001822391               0.008883374              -0.000000000              -0.000427024               0.003103437               0.002676412               0.000000000               0.000000000               0.000000000               0.000000000               0.001507639               0.008278273               0.000000000              -0.000469418               0.002915869               0.002446451               0.000000000               0.000000000               0.000000000               0.000000000               0.001220303               0.007798686               0.000000000              -0.000517221               0.002771943               0.002254722               0.000000000               0.000000000               0.000000000               0.000000000               0.000968092               0.007397345               0.000000000              -0.000561632               0.002652968               0.002091336               0.000000000               0.000000000               0.000000000               0.000000000               0.000750218               0.007036313               0.000000000              -0.000598206               0.002544816               0.001946610               0.000000000               0.000000000               0.000000000               0.000000000               0.000565907               0.006693830              -0.000000000              -0.000624512               0.002439425               0.001814913               0.000000000               0.000000000               0.000000000               0.000000000               0.000413322               0.006352817              -0.000000000              -0.000639105               0.002330619               0.001691515               0.000000000               0.000000000               0.000000000               0.000000000               0.000286002               0.006002351               0.000000000              -0.000643041               0.002215111               0.001572070               0.000000000               0.000000000               0.000000000               0.000000000               0.000177164               0.005634021              -0.000000000              -0.000637815               0.002090593               0.001452778               0.000000000               0.000000000               0.000000000               0.000000000               0.000085222               0.005228734              -0.000000000              -0.000621632               0.001950105               0.001328473               0.000000000               0.000000000               0.000000000               0.000000000               0.000028393               0.004761008               0.000000000              -0.000584477               0.001781813               0.001197335               0.000000000               0.000000000               0.000000000               0.000000000              -0.000026170               0.004398366               0.000000000              -0.000559608               0.001652643               0.001093035               0.000000000               0.000000000               0.000000000               0.000000000               0.001969720               0.020468888              -0.001442533              -0.001819962               0.007429548               0.005609587               0.000000000               0.000000000               0.000000000               0.000000000               0.001873050               0.016213964              -0.000747114              -0.001324349               0.005846050               0.004521701               0.000000000               0.000000000               0.000000000               0.000000000               0.002376782               0.012816023              -0.000056040              -0.000710708               0.004508868               0.003798160               0.000000000               0.000000000               0.000000000               0.000000000               0.002259587               0.010910876               0.000232663              -0.000516513               0.003809093               0.003292580               0.000000000               0.000000000               0.000000000               0.000000000               0.001967348               0.009721196               0.000352872              -0.000477393               0.003399497               0.002922104               0.000000000               0.000000000               0.000000000               0.000000000               0.001642408               0.008909753               0.000397876              -0.000497815               0.003135826               0.002638011               0.000000000               0.000000000               0.000000000               0.000000000               0.001339370               0.008311262               0.000404756              -0.000536643               0.002949274               0.002412631               0.000000000               0.000000000               0.000000000               0.000000000               0.001071114               0.007837285               0.000397249              -0.000577992               0.002805066               0.002227074               0.000000000               0.000000000               0.000000000               0.000000000               0.000838260               0.007435521               0.000382313              -0.000615091               0.002683513               0.002068421               0.000000000               0.000000000               0.000000000               0.000000000               0.000641216               0.007073147               0.000362562              -0.000643686               0.002572254               0.001928568               0.000000000               0.000000000               0.000000000               0.000000000               0.000478325               0.006732486               0.000340492              -0.000662187               0.002464869               0.001802681               0.000000000               0.000000000               0.000000000               0.000000000               0.000345665               0.006397971               0.000314961              -0.000670120               0.002356009               0.001685889               0.000000000               0.000000000               0.000000000               0.000000000               0.000237866               0.006057567               0.000288484              -0.000667995               0.002241834               0.001573839               0.000000000               0.000000000               0.000000000               0.000000000               0.000146179               0.005701935               0.000255548              -0.000657923               0.002119934               0.001462011               0.000000000               0.000000000               0.000000000               0.000000000               0.000070308               0.005319048               0.000200987              -0.000638514               0.001985836               0.001347322               0.000000000               0.000000000               0.000000000               0.000000000               0.000024638               0.004896651               0.000115165              -0.000602841               0.001833147               0.001230307               0.000000000               0.000000000               0.000000000               0.000000000              -0.000020902               0.004582882               0.000070166              -0.000580697               0.001721178               0.001140481               0.000000000               0.000000000               0.000000000               0.000000000               0.002156798               0.019268490              -0.002688912              -0.001599759               0.006956019               0.005356259               0.000000000               0.000000000               0.000000000               0.000000000               0.001779890               0.015436951              -0.001395768              -0.001262157               0.005566318               0.004304161               0.000000000               0.000000000               0.000000000               0.000000000               0.001984243               0.012478803              -0.000120431              -0.000815757               0.004431479               0.003615721               0.000000000               0.000000000               0.000000000               0.000000000               0.001757600               0.010798996               0.000398016              -0.000690773               0.003829887               0.003139114               0.000000000               0.000000000               0.000000000               0.000000000               0.001448241               0.009725113               0.000605239              -0.000672547               0.003465854               0.002793307               0.000000000               0.000000000               0.000000000               0.000000000               0.001149893               0.008967588               0.000677658              -0.000689737               0.003219078               0.002529341               0.000000000               0.000000000               0.000000000               0.000000000               0.000894002               0.008392779               0.000689359              -0.000713845               0.003035513               0.002321668               0.000000000               0.000000000               0.000000000               0.000000000               0.000679234               0.007928088               0.000675357              -0.000736296               0.002888102               0.002151805               0.000000000               0.000000000               0.000000000               0.000000000               0.000498659               0.007526776               0.000645017              -0.000753848               0.002760183               0.002006335               0.000000000               0.000000000               0.000000000               0.000000000               0.000354519               0.007162652               0.000607138              -0.000762385               0.002641655               0.001879270               0.000000000               0.000000000               0.000000000               0.000000000               0.000241871               0.006820255               0.000566891              -0.000761828               0.002527338               0.001765510               0.000000000               0.000000000               0.000000000               0.000000000               0.000155869               0.006493831               0.000520640              -0.000753276               0.002415681               0.001662405               0.000000000               0.000000000               0.000000000               0.000000000               0.000091852               0.006178594               0.000468758              -0.000737878               0.002305470               0.001567592               0.000000000               0.000000000               0.000000000               0.000000000               0.000047106               0.005867168               0.000404033              -0.000715729               0.002194280               0.001478550               0.000000000               0.000000000               0.000000000               0.000000000               0.000018959               0.005555591               0.000308142              -0.000687338               0.002080958               0.001393620               0.000000000               0.000000000               0.000000000               0.000000000               0.000005048               0.005250048               0.000171663              -0.000654361               0.001968119               0.001313758               0.000000000               0.000000000               0.000000000               0.000000000              -0.000016719               0.005049247               0.000100077              -0.000637424               0.001895540               0.001258116               0.000000000               0.000000000               0.000000000               0.000000000               0.002358093               0.017443206              -0.003588729              -0.001296115               0.006246382               0.004950267               0.000000000               0.000000000               0.000000000               0.000000000               0.001589537               0.014272581              -0.001873744              -0.001187994               0.005153477               0.003965483               0.000000000               0.000000000               0.000000000               0.000000000               0.001379613               0.011974968              -0.000202540              -0.000979514               0.004318121               0.003338607               0.000000000               0.000000000               0.000000000               0.000000000               0.001028665               0.010611108               0.000445246              -0.000940637               0.003850546               0.002909909               0.000000000               0.000000000               0.000000000               0.000000000               0.000717353               0.009692187               0.000691722              -0.000942514               0.003544868               0.002602354               0.000000000               0.000000000               0.000000000               0.000000000               0.000473376               0.009007986               0.000772725              -0.000948480               0.003318792               0.002370312               0.000000000               0.000000000               0.000000000               0.000000000               0.000295028               0.008463522               0.000782219              -0.000947303               0.003136913               0.002189610               0.000000000               0.000000000               0.000000000               0.000000000               0.000161163               0.008006922               0.000760445              -0.000940427               0.002982423               0.002041996               0.000000000               0.000000000               0.000000000               0.000000000               0.000058763               0.007605669               0.000720350              -0.000928670               0.002844755               0.001916084               0.000000000               0.000000000               0.000000000               0.000000000              -0.000007129               0.007242713               0.000669777              -0.000908010               0.002716884               0.001808873               0.000000000               0.000000000               0.000000000               0.000000000              -0.000045080               0.006908877               0.000616703              -0.000880512               0.002596440               0.001715927               0.000000000               0.000000000               0.000000000               0.000000000              -0.000062411               0.006603384               0.000560174              -0.000848825               0.002484048               0.001635223               0.000000000               0.000000000               0.000000000               0.000000000              -0.000062526               0.006326571               0.000496584              -0.000814267               0.002380258               0.001565991               0.000000000               0.000000000               0.000000000               0.000000000              -0.000052663               0.006075384               0.000414936              -0.000779170               0.002284831               0.001505661               0.000000000               0.000000000               0.000000000               0.000000000              -0.000038706               0.005853842               0.000303340              -0.000746243               0.002200009               0.001453766               0.000000000               0.000000000               0.000000000               0.000000000              -0.000020922               0.005678517               0.000162180              -0.000717659               0.002132039               0.001414381               0.000000000               0.000000000               0.000000000               0.000000000              -0.000015892               0.005589870               0.000088135              -0.000704692               0.002098168               0.001393477               0.000000000               0.000000000               0.000000000               0.000000000               0.002453357               0.015207870              -0.004067520              -0.000980976               0.005396230               0.004415255               0.000000000               0.000000000               0.000000000               0.000000000               0.001277131               0.012867982              -0.002158876              -0.001129572               0.004665808               0.003536236               0.000000000               0.000000000               0.000000000               0.000000000               0.000634320               0.011356143              -0.000322086              -0.001181645               0.004179225               0.002997580               0.000000000               0.000000000               0.000000000               0.000000000               0.000198633               0.010340257               0.000351716              -0.001218042               0.003852732               0.002634690               0.000000000               0.000000000               0.000000000               0.000000000              -0.000070294               0.009583090               0.000594860              -0.001224243               0.003602412               0.002378169               0.000000000               0.000000000               0.000000000               0.000000000              -0.000227571               0.008975854               0.000668003              -0.001207318               0.003394361               0.002187043               0.000000000               0.000000000               0.000000000               0.000000000              -0.000311537               0.008465202               0.000673604              -0.001174974               0.003213364               0.002038390               0.000000000               0.000000000               0.000000000               0.000000000              -0.000345222               0.008023628               0.000652450              -0.001132409               0.003051986               0.001919577               0.000000000               0.000000000               0.000000000               0.000000000              -0.000347216               0.007629115               0.000613322              -0.001083843               0.002904294               0.001820451               0.000000000               0.000000000               0.000000000               0.000000000              -0.000324540               0.007276834               0.000562195              -0.001031304               0.002769355               0.001738051               0.000000000               0.000000000               0.000000000               0.000000000              -0.000286198               0.006964894               0.000508019              -0.000977934               0.002647586               0.001669652               0.000000000               0.000000000               0.000000000               0.000000000              -0.000233788               0.006689028               0.000450044              -0.000923797               0.002537586               0.001613789               0.000000000               0.000000000               0.000000000               0.000000000              -0.000172969               0.006445773               0.000387074              -0.000870583               0.002438764               0.001568181               0.000000000               0.000000000               0.000000000               0.000000000              -0.000117622               0.006240755               0.000311296              -0.000824201               0.002354964               0.001530764               0.000000000               0.000000000               0.000000000               0.000000000              -0.000069441               0.006085227               0.000216319              -0.000786692               0.002290619               0.001503927               0.000000000               0.000000000               0.000000000               0.000000000              -0.000029878               0.005986429               0.000109220              -0.000759506               0.002248625               0.001489119               0.000000000               0.000000000               0.000000000               0.000000000              -0.000015130               0.005947509               0.000056325              -0.000749110               0.002232187               0.001483076               0.000000000               0.000000000               0.000000000               0.000000000               0.002337960               0.012786078              -0.004132252              -0.000721527               0.004502491               0.003780965               0.000000000               0.000000000               0.000000000               0.000000000               0.000839273               0.011368724              -0.002275848              -0.001106362               0.004158324               0.003051962               0.000000000               0.000000000               0.000000000               0.000000000              -0.000157061               0.010668903              -0.000502387              -0.001392507               0.004020434               0.002627927               0.000000000               0.000000000               0.000000000               0.000000000              -0.000599326               0.009979033               0.000118617              -0.001472123               0.003817019               0.002344896               0.000000000               0.000000000               0.000000000               0.000000000              -0.000776021               0.009370864               0.000337596              -0.001462362               0.003611044               0.002148682               0.000000000               0.000000000               0.000000000               0.000000000              -0.000817459               0.008841899               0.000404758              -0.001411781               0.003417864               0.002006083               0.000000000               0.000000000               0.000000000               0.000000000              -0.000786725               0.008372971               0.000417673              -0.001341640               0.003238176               0.001896536               0.000000000               0.000000000               0.000000000               0.000000000              -0.000716546               0.007956431               0.000408378              -0.001263255               0.003073202               0.001809947               0.000000000               0.000000000               0.000000000               0.000000000              -0.000628971               0.007583179               0.000381035              -0.001183759               0.002922287               0.001738529               0.000000000               0.000000000               0.000000000               0.000000000              -0.000530241               0.007251255               0.000344069              -0.001105245               0.002785476               0.001680231               0.000000000               0.000000000               0.000000000               0.000000000              -0.000427859               0.006954027               0.000303855              -0.001029698               0.002661219               0.001631521               0.000000000               0.000000000               0.000000000               0.000000000              -0.000327838               0.006687355               0.000259918              -0.000958856               0.002548715               0.001589859               0.000000000               0.000000000               0.000000000               0.000000000              -0.000231884               0.006457600               0.000215596              -0.000894154               0.002450563               0.001556409               0.000000000               0.000000000               0.000000000               0.000000000              -0.000152486               0.006270768               0.000169527              -0.000841026               0.002370577               0.001529551               0.000000000               0.000000000               0.000000000               0.000000000              -0.000090463               0.006130243               0.000115147              -0.000800202               0.002310128               0.001509926               0.000000000               0.000000000               0.000000000               0.000000000              -0.000039459               0.006031967               0.000055751              -0.000768791               0.002266899               0.001498108               0.000000000               0.000000000               0.000000000               0.000000000              -0.000026907               0.005975915               0.000032453              -0.000757078               0.002244311               0.001487233               0.000000000               0.000000000               0.000000000               0.000000000               0.001958186               0.010376531              -0.003850907              -0.000562749               0.003646391               0.003083642               0.000000000               0.000000000               0.000000000               0.000000000               0.000302852               0.009892086              -0.002271740              -0.001122940               0.003671642               0.002548702               0.000000000               0.000000000               0.000000000               0.000000000              -0.000902122               0.009947792              -0.000752021              -0.001581766               0.003843153               0.002261387               0.000000000               0.000000000               0.000000000               0.000000000              -0.001259770               0.009539303              -0.000222185              -0.001664823               0.003734677               0.002069854               0.000000000               0.000000000               0.000000000               0.000000000              -0.001300575               0.009061264              -0.000018038              -0.001620370               0.003560514               0.001940145               0.000000000               0.000000000               0.000000000               0.000000000              -0.001212902               0.008603726               0.000061509              -0.001530300               0.003377980               0.001847680               0.000000000               0.000000000               0.000000000               0.000000000              -0.001073433               0.008183129               0.000094167              -0.001425425               0.003202824               0.001777399               0.000000000               0.000000000               0.000000000               0.000000000              -0.000914767               0.007805232               0.000107521              -0.001318688               0.003041281               0.001722592               0.000000000               0.000000000               0.000000000               0.000000000              -0.000751768               0.007456211               0.000104687              -0.001213936               0.002890024               0.001676088               0.000000000               0.000000000               0.000000000               0.000000000              -0.000599942               0.007126143               0.000092278              -0.001115743               0.002747272               0.001631528               0.000000000               0.000000000               0.000000000               0.000000000              -0.000465467               0.006817378               0.000077684              -0.001026720               0.002614676               0.001587956               0.000000000               0.000000000               0.000000000               0.000000000              -0.000346960               0.006541468               0.000064369              -0.000947791               0.002496398               0.001548607               0.000000000               0.000000000               0.000000000               0.000000000              -0.000247667               0.006309510               0.000057405              -0.000881562               0.002397003               0.001515441               0.000000000               0.000000000               0.000000000               0.000000000              -0.000169852               0.006121778               0.000054442              -0.000828915               0.002316877               0.001487963               0.000000000               0.000000000               0.000000000               0.000000000              -0.000105850               0.005970651               0.000046569              -0.000786023               0.002252205               0.001466182               0.000000000               0.000000000               0.000000000               0.000000000              -0.000050370               0.005843466               0.000028866              -0.000749320               0.002197576               0.001448256               0.000000000               0.000000000               0.000000000               0.000000000              -0.000043728               0.005757162               0.000027882              -0.000736041               0.002164382               0.001428341               0.000000000               0.000000000               0.000000000               0.000000000               0.001340495               0.008134956              -0.003312844              -0.000514186               0.002883019               0.002368833               0.000000000               0.000000000               0.000000000               0.000000000              -0.000293745               0.008527638              -0.002189423              -0.001176108               0.003234553               0.002058445               0.000000000               0.000000000               0.000000000               0.000000000              -0.001523723               0.009215264              -0.001059700              -0.001723300               0.003646157               0.001922857               0.000000000               0.000000000               0.000000000               0.000000000              -0.001722812               0.009038131              -0.000616342              -0.001775817               0.003604619               0.001828802               0.000000000               0.000000000               0.000000000               0.000000000              -0.001611245               0.008675253              -0.000402586              -0.001688619               0.003454595               0.001765976               0.000000000               0.000000000               0.000000000               0.000000000              -0.001403297               0.008290217              -0.000290159              -0.001562510               0.003284214               0.001721705               0.000000000               0.000000000               0.000000000               0.000000000              -0.001169728               0.007928683              -0.000224883              -0.001429730               0.003119444               0.001689715               0.000000000               0.000000000               0.000000000               0.000000000              -0.000944123               0.007577678              -0.000180767              -0.001301252               0.002959618               0.001658366               0.000000000               0.000000000               0.000000000               0.000000000              -0.000744457               0.007223028              -0.000155475              -0.001182047               0.002801668               0.001619621               0.000000000               0.000000000               0.000000000               0.000000000              -0.000572093               0.006876076              -0.000137587              -0.001074042               0.002650016               0.001575975               0.000000000               0.000000000               0.000000000               0.000000000              -0.000427993               0.006553610              -0.000113306              -0.000979696               0.002511080               0.001531384               0.000000000               0.000000000               0.000000000               0.000000000              -0.000314907               0.006273658              -0.000081039              -0.000902295               0.002391964               0.001489668               0.000000000               0.000000000               0.000000000               0.000000000              -0.000227686               0.006041732              -0.000040456              -0.000840597               0.002294089               0.001453493               0.000000000               0.000000000               0.000000000               0.000000000              -0.000160394               0.005847946               0.000000169              -0.000791139               0.002213009               0.001421870               0.000000000               0.000000000               0.000000000               0.000000000              -0.000103134               0.005682417               0.000025037              -0.000748975               0.002143779               0.001394803               0.000000000               0.000000000               0.000000000               0.000000000              -0.000051790               0.005540430               0.000026159              -0.000711973               0.002084116               0.001372143               0.000000000               0.000000000               0.000000000               0.000000000              -0.000041959               0.005453153               0.000028873              -0.000697377               0.002050159               0.001352782               0.000000000               0.000000000               0.000000000               0.000000000               0.000586454               0.006234412              -0.002626070              -0.000559382               0.002264576               0.001705194               0.000000000               0.000000000               0.000000000               0.000000000              -0.000861636               0.007313088              -0.002076445              -0.001237248               0.002850087               0.001612839               0.000000000               0.000000000               0.000000000               0.000000000              -0.001981777               0.008508064              -0.001417222              -0.001806670               0.003438216               0.001631546               0.000000000               0.000000000               0.000000000               0.000000000              -0.002015553               0.008565755              -0.001029964              -0.001826548               0.003464072               0.001637525               0.000000000               0.000000000               0.000000000               0.000000000              -0.001782143               0.008336034              -0.000787218              -0.001710304               0.003348752               0.001638448               0.000000000               0.000000000               0.000000000               0.000000000              -0.001480886               0.008040572              -0.000628414              -0.001560400               0.003200297               0.001639897               0.000000000               0.000000000               0.000000000               0.000000000              -0.001181272               0.007727483              -0.000523683              -0.001408909               0.003045438               0.001636529               0.000000000               0.000000000               0.000000000               0.000000000              -0.000915579               0.007386531              -0.000448923              -0.001266655               0.002884371               0.001617716               0.000000000               0.000000000               0.000000000               0.000000000              -0.000687432               0.007028848              -0.000392076              -0.001136390               0.002721723               0.001585332               0.000000000               0.000000000               0.000000000               0.000000000              -0.000495655               0.006674907              -0.000337909              -0.001020231               0.002565024               0.001544793               0.000000000               0.000000000               0.000000000               0.000000000              -0.000345334               0.006352300              -0.000272158              -0.000923536               0.002425257               0.001501722               0.000000000               0.000000000               0.000000000               0.000000000              -0.000243062               0.006074567              -0.000194976              -0.000850467               0.002308324               0.001457857               0.000000000               0.000000000               0.000000000               0.000000000              -0.000183409               0.005837327              -0.000116763              -0.000798442               0.002211904               0.001413461               0.000000000               0.000000000               0.000000000               0.000000000              -0.000148439               0.005627299              -0.000048139              -0.000759075               0.002128772               0.001369698               0.000000000               0.000000000               0.000000000               0.000000000              -0.000121370               0.005438929               0.000000435              -0.000725378               0.002054751               0.001329373               0.000000000               0.000000000               0.000000000               0.000000000              -0.000102679               0.005275268               0.000021188              -0.000697911               0.001991042               0.001293131               0.000000000               0.000000000               0.000000000               0.000000000              -0.000092607               0.005194103               0.000024603              -0.000683989               0.001959347               0.001275358               0.000000000               0.000000000               0.000000000               0.000000000              -0.000321294               0.004468816              -0.001891437              -0.000679087               0.001715952               0.001036865               0.000000000               0.000000000               0.000000000               0.000000000              -0.001321607               0.005923344              -0.001944364              -0.001236019               0.002386434               0.001150415               0.000000000               0.000000000               0.000000000               0.000000000              -0.002217780               0.007480031              -0.001797202              -0.001766668               0.003082208               0.001315540               0.000000000               0.000000000               0.000000000               0.000000000              -0.002171546               0.007862153              -0.001479261              -0.001797095               0.003219723               0.001422628               0.000000000               0.000000000               0.000000000               0.000000000              -0.001891002               0.007858525              -0.001209177              -0.001691438               0.003183295               0.001491857               0.000000000               0.000000000               0.000000000               0.000000000              -0.001559812               0.007724116              -0.001003216              -0.001550440               0.003091493               0.001541053               0.000000000               0.000000000               0.000000000               0.000000000              -0.001239401               0.007513120              -0.000851032              -0.001403912               0.002972319               0.001568407               0.000000000               0.000000000               0.000000000               0.000000000              -0.000955534               0.007246239              -0.000732948              -0.001264102               0.002836756               0.001572654               0.000000000               0.000000000               0.000000000               0.000000000              -0.000716609               0.006939358              -0.000638875              -0.001136145               0.002691811               0.001555666               0.000000000               0.000000000               0.000000000               0.000000000              -0.000520923               0.006611438              -0.000549341              -0.001021773               0.002544382               0.001522608               0.000000000               0.000000000               0.000000000               0.000000000              -0.000365671               0.006296279              -0.000449834              -0.000924159               0.002406792               0.001482633               0.000000000               0.000000000               0.000000000               0.000000000              -0.000258712               0.006007728              -0.000342361              -0.000847981               0.002285216               0.001437235               0.000000000               0.000000000               0.000000000               0.000000000              -0.000198734               0.005754496              -0.000235835              -0.000793835               0.002182758               0.001388923               0.000000000               0.000000000               0.000000000               0.000000000              -0.000179028               0.005533300              -0.000140882              -0.000758796               0.002097347               0.001338551               0.000000000               0.000000000               0.000000000               0.000000000              -0.000181310               0.005341482              -0.000061254              -0.000735675               0.002025701               0.001290026               0.000000000               0.000000000               0.000000000               0.000000000              -0.000197289               0.005166138              -0.000008039              -0.000719749               0.001961945               0.001242196               0.000000000               0.000000000               0.000000000               0.000000000              -0.000206086               0.005078482               0.000008632              -0.000712091               0.001930174               0.001218083               0.000000000               0.000000000               0.000000000               0.000000000              -0.001518067               0.002871762              -0.001151161              -0.000928244               0.001266658               0.000338415               0.000000000               0.000000000               0.000000000               0.000000000              -0.001850516               0.004536716              -0.001743960              -0.001261031               0.001932566               0.000671536               0.000000000               0.000000000               0.000000000               0.000000000              -0.002369345               0.006293772              -0.002090777              -0.001675223               0.002656310               0.000981087               0.000000000               0.000000000               0.000000000               0.000000000              -0.002250943               0.006980984              -0.001901978              -0.001716723               0.002899212               0.001182489               0.000000000               0.000000000               0.000000000               0.000000000              -0.001951367               0.007232210              -0.001639075              -0.001635785               0.002955974               0.001320189               0.000000000               0.000000000               0.000000000               0.000000000              -0.001613696               0.007288086              -0.001402896              -0.001516143               0.002934719               0.001418575               0.000000000               0.000000000               0.000000000               0.000000000              -0.001296232               0.007213266              -0.001210500              -0.001387742               0.002866979               0.001479236               0.000000000               0.000000000               0.000000000               0.000000000              -0.001008143               0.007055058              -0.001054739              -0.001259933               0.002771640               0.001511707               0.000000000               0.000000000               0.000000000               0.000000000              -0.000755073               0.006839592              -0.000922472              -0.001138099               0.002659207               0.001521109               0.000000000               0.000000000               0.000000000               0.000000000              -0.000545022               0.006583983              -0.000800833              -0.001027379               0.002537098               0.001509720               0.000000000               0.000000000               0.000000000               0.000000000              -0.000370439               0.006308462              -0.000679419              -0.000927470               0.002411956               0.001484486               0.000000000               0.000000000               0.000000000               0.000000000              -0.000238111               0.006027242              -0.000554288              -0.000842695               0.002289959               0.001447264               0.000000000               0.000000000               0.000000000               0.000000000              -0.000154267               0.005765749              -0.000426010              -0.000778567               0.002181419               0.001402852               0.000000000               0.000000000               0.000000000               0.000000000              -0.000123883               0.005535498              -0.000299410              -0.000738392               0.002091278               0.001352886               0.000000000               0.000000000               0.000000000               0.000000000              -0.000146751               0.005335200              -0.000179892              -0.000721930               0.002019025               0.001297096               0.000000000               0.000000000               0.000000000               0.000000000              -0.000212183               0.005157895              -0.000075121              -0.000724304               0.001960716               0.001236412               0.000000000               0.000000000               0.000000000               0.000000000              -0.000270150               0.005063347              -0.000022157              -0.000734223               0.001932507               0.001198284               0.000000000               0.000000000               0.000000000               0.000000000              -0.002925414               0.001554917              -0.000460708              -0.001291393               0.000948763              -0.000342629               0.000000000               0.000000000               0.000000000               0.000000000              -0.002496067               0.003233120              -0.001454748              -0.001340162               0.001524416               0.000184253               0.000000000               0.000000000               0.000000000               0.000000000              -0.002477356               0.004968460              -0.002200782              -0.001550063               0.002172824               0.000622760               0.000000000               0.000000000               0.000000000               0.000000000              -0.002218173               0.005871471              -0.002175155              -0.001565746               0.002479052               0.000913306               0.000000000               0.000000000               0.000000000               0.000000000              -0.001889418               0.006358264              -0.001964814              -0.001503312               0.002620504               0.001117192               0.000000000               0.000000000               0.000000000               0.000000000              -0.001553111               0.006612462              -0.001733412              -0.001408971               0.002673789               0.001264817               0.000000000               0.000000000               0.000000000               0.000000000              -0.001246278               0.006701079              -0.001523514              -0.001304987               0.002668666               0.001363679               0.000000000               0.000000000               0.000000000               0.000000000              -0.000969638               0.006677398              -0.001346262              -0.001198287               0.002625206               0.001426919               0.000000000               0.000000000               0.000000000               0.000000000              -0.000721829               0.006573451              -0.001189769              -0.001092365               0.002555250               0.001462885               0.000000000               0.000000000               0.000000000               0.000000000              -0.000502633               0.006419522              -0.001044143              -0.000990925               0.002470128               0.001479202               0.000000000               0.000000000               0.000000000               0.000000000              -0.000313295               0.006222680              -0.000904311              -0.000895319               0.002372645               0.001477327               0.000000000               0.000000000               0.000000000               0.000000000              -0.000155372               0.005994933              -0.000765130              -0.000807630               0.002267501               0.001459871               0.000000000               0.000000000               0.000000000               0.000000000              -0.000034705               0.005761759              -0.000623660              -0.000733233               0.002164978               0.001431745               0.000000000               0.000000000               0.000000000               0.000000000               0.000036688               0.005540324              -0.000474930              -0.000678781               0.002073017               0.001394236               0.000000000               0.000000000               0.000000000               0.000000000               0.000040156               0.005336682              -0.000316983              -0.000652025               0.001996218               0.001344193               0.000000000               0.000000000               0.000000000               0.000000000              -0.000031782               0.005157200              -0.000155406              -0.000656566               0.001937905               0.001281339               0.000000000               0.000000000               0.000000000               0.000000000              -0.000114206               0.005058642              -0.000065479              -0.000675156               0.001911249               0.001236093               0.000000000               0.000000000               0.000000000               0.000000000              -0.004440002               0.000580555               0.000086330              -0.001737568               0.000772702              -0.000964866               0.000000000               0.000000000               0.000000000               0.000000000              -0.003214305               0.002081767              -0.001114166              -0.001465583               0.001182441              -0.000283141               0.000000000               0.000000000               0.000000000               0.000000000              -0.002561331               0.003614177              -0.002103691              -0.001412269               0.001675469               0.000263200               0.000000000               0.000000000               0.000000000               0.000000000              -0.002093995               0.004623430              -0.002229350              -0.001363174               0.001995518               0.000632344               0.000000000               0.000000000               0.000000000               0.000000000              -0.001708106               0.005299204              -0.002096137              -0.001302938               0.002200696               0.000897757               0.000000000               0.000000000               0.000000000               0.000000000              -0.001372300               0.005735076              -0.001898784              -0.001231495               0.002322171               0.001090676               0.000000000               0.000000000               0.000000000               0.000000000              -0.001079350               0.005984967              -0.001702179              -0.001152875               0.002379260               0.001226385               0.000000000               0.000000000               0.000000000               0.000000000              -0.000818847               0.006109626              -0.001524609              -0.001070769               0.002393444               0.001322675               0.000000000               0.000000000               0.000000000               0.000000000              -0.000583954               0.006136652              -0.001362524              -0.000986062               0.002374217               0.001388155               0.000000000               0.000000000               0.000000000               0.000000000              -0.000367859               0.006094891              -0.001211081              -0.000899807               0.002331545               0.001431738               0.000000000               0.000000000               0.000000000               0.000000000              -0.000170991               0.006001762              -0.001065697              -0.000814340               0.002272014               0.001457674               0.000000000               0.000000000               0.000000000               0.000000000               0.000009563               0.005864918              -0.000924771              -0.000729527               0.002198129               0.001468602               0.000000000               0.000000000               0.000000000               0.000000000               0.000173024               0.005696420              -0.000781996              -0.000647167               0.002114510               0.001467343               0.000000000               0.000000000               0.000000000               0.000000000               0.000305297               0.005514821              -0.000621766              -0.000574865               0.002029877               0.001455012               0.000000000               0.000000000               0.000000000               0.000000000               0.000381844               0.005331952              -0.000436425              -0.000523301               0.001951733               0.001428432               0.000000000               0.000000000               0.000000000               0.000000000               0.000385297               0.005161392              -0.000227479              -0.000500686               0.001887342               0.001386656               0.000000000               0.000000000               0.000000000               0.000000000               0.000348823               0.005071685              -0.000111846              -0.000503151               0.001858262               0.001355111               0.000000000               0.000000000               0.000000000               0.000000000              -0.005906668              -0.000061543               0.000407092              -0.002207306               0.000715249              -0.001492056               0.000000000               0.000000000               0.000000000               0.000000000              -0.003941152               0.001144669              -0.000770483              -0.001621013               0.000921887              -0.000699126               0.000000000               0.000000000               0.000000000               0.000000000              -0.002641233               0.002360235              -0.001796562              -0.001285490               0.001215232              -0.000070257               0.000000000               0.000000000               0.000000000               0.000000000              -0.001923188               0.003377603              -0.002017596              -0.001143394               0.001506987               0.000363593               0.000000000               0.000000000               0.000000000               0.000000000              -0.001449674               0.004171753              -0.001960884              -0.001065095               0.001745601               0.000680506               0.000000000               0.000000000               0.000000000               0.000000000              -0.001097278               0.004751787              -0.001815891              -0.001005451               0.001919063               0.000913612               0.000000000               0.000000000               0.000000000               0.000000000              -0.000812641               0.005146243              -0.001654435              -0.000948019               0.002031403               0.001083384               0.000000000               0.000000000               0.000000000               0.000000000              -0.000568769               0.005403203              -0.001500004              -0.000888687               0.002097278               0.001208591               0.000000000               0.000000000               0.000000000               0.000000000              -0.000347998               0.005558124              -0.001353714              -0.000825263               0.002127777               0.001302514               0.000000000               0.000000000               0.000000000               0.000000000              -0.000139049               0.005635849              -0.001214377              -0.000756623               0.002130805               0.001374182               0.000000000               0.000000000               0.000000000               0.000000000               0.000063548               0.005651066              -0.001081915              -0.000682552               0.002111187               0.001428635               0.000000000               0.000000000               0.000000000               0.000000000               0.000265581               0.005616329              -0.000957259              -0.000602447               0.002072907               0.001470459               0.000000000               0.000000000               0.000000000               0.000000000               0.000466736               0.005537722              -0.000829334              -0.000517188               0.002018285               0.001501097               0.000000000               0.000000000               0.000000000               0.000000000               0.000660987               0.005428954              -0.000675137              -0.000430748               0.001953216               0.001522468               0.000000000               0.000000000               0.000000000               0.000000000               0.000835561               0.005297476              -0.000487288              -0.000348849               0.001882091               0.001533242               0.000000000               0.000000000               0.000000000               0.000000000               0.000974313               0.005153287              -0.000262362              -0.000278793               0.001810676               0.001531883               0.000000000               0.000000000               0.000000000               0.000000000               0.001051953               0.005087764              -0.000142297              -0.000241488               0.001776400               0.001534913               0.000000000               0.000000000               0.000000000               0.000000000              -0.007141255              -0.000430063               0.000467911              -0.002624211               0.000731377              -0.001892833               0.000000000               0.000000000               0.000000000               0.000000000              -0.004580645               0.000462478              -0.000463967              -0.001775550               0.000746004              -0.001029546               0.000000000               0.000000000               0.000000000               0.000000000              -0.002722257               0.001344772              -0.001306021              -0.001188941               0.000844565              -0.000344376               0.000000000               0.000000000               0.000000000               0.000000000              -0.001760709               0.002304022              -0.001534216              -0.000948267               0.001084088               0.000135821               0.000000000               0.000000000               0.000000000               0.000000000              -0.001185482               0.003150321              -0.001530316              -0.000838345               0.001329544               0.000491199               0.000000000               0.000000000               0.000000000               0.000000000              -0.000798853               0.003825615              -0.001442927              -0.000777771               0.001534449               0.000756678               0.000000000               0.000000000               0.000000000               0.000000000              -0.000513016               0.004328858              -0.001330729              -0.000733487               0.001687433               0.000953946               0.000000000               0.000000000               0.000000000               0.000000000              -0.000279237               0.004693254              -0.001217351              -0.000691370               0.001794859               0.001103489               0.000000000               0.000000000               0.000000000               0.000000000              -0.000071366               0.004954828              -0.001105570              -0.000646115               0.001866964               0.001220849               0.000000000               0.000000000               0.000000000               0.000000000               0.000129464               0.005136609              -0.000997487              -0.000593526               0.001910028               0.001316502               0.000000000               0.000000000               0.000000000               0.000000000               0.000334967               0.005249100              -0.000898037              -0.000530524               0.001926524               0.001396000               0.000000000               0.000000000               0.000000000               0.000000000               0.000554728               0.005309074              -0.000805803              -0.000455610               0.001921544               0.001465933               0.000000000               0.000000000               0.000000000               0.000000000               0.000785360               0.005321209              -0.000706989              -0.000370641               0.001897265               0.001526625               0.000000000               0.000000000               0.000000000               0.000000000               0.001032222               0.005293660              -0.000584525              -0.000274624               0.001856077               0.001581453               0.000000000               0.000000000               0.000000000               0.000000000               0.001302204               0.005229791              -0.000429490              -0.000165397               0.001798379               0.001632982               0.000000000               0.000000000               0.000000000               0.000000000               0.001587720               0.005127429              -0.000234644              -0.000045534               0.001724304               0.001678770               0.000000000               0.000000000               0.000000000               0.000000000               0.001799599               0.005092320              -0.000134884               0.000038309               0.001684654               0.001722962               0.000000000               0.000000000               0.000000000               0.000000000              -0.007968750              -0.000604504               0.000300337              -0.002912716               0.000769399              -0.002143317               0.000000000               0.000000000               0.000000000               0.000000000              -0.005022951               0.000051500              -0.000212349              -0.001890042               0.000647176              -0.001242866               0.000000000               0.000000000               0.000000000               0.000000000              -0.002782462               0.000684694              -0.000685062              -0.001129008               0.000604563              -0.000524445               0.000000000               0.000000000               0.000000000               0.000000000              -0.001643545               0.001576987              -0.000828076              -0.000813451               0.000796807              -0.000016644               0.000000000               0.000000000               0.000000000               0.000000000              -0.000985313               0.002435753              -0.000841166              -0.000673960               0.001036563               0.000362603               0.000000000               0.000000000               0.000000000               0.000000000              -0.000566821               0.003156533              -0.000803840              -0.000607123               0.001254541               0.000647418               0.000000000               0.000000000               0.000000000               0.000000000              -0.000275629               0.003721971              -0.000747259              -0.000568606               0.001430180               0.000861574               0.000000000               0.000000000               0.000000000               0.000000000              -0.000049256               0.004157028              -0.000686096              -0.000538098               0.001565028               0.001026930               0.000000000               0.000000000               0.000000000               0.000000000               0.000150263               0.004490630              -0.000624727              -0.000504979               0.001665188               0.001160209               0.000000000               0.000000000               0.000000000               0.000000000               0.000348280               0.004744146              -0.000565545              -0.000462412               0.001735504               0.001273091               0.000000000               0.000000000               0.000000000               0.000000000               0.000555499               0.004928297              -0.000513368              -0.000407724               0.001778657               0.001370933               0.000000000               0.000000000               0.000000000               0.000000000               0.000779835               0.005056667              -0.000464785              -0.000339644               0.001798754               0.001459109               0.000000000               0.000000000               0.000000000               0.000000000               0.001027605               0.005135599              -0.000409447              -0.000256597               0.001797382               0.001540784               0.000000000               0.000000000               0.000000000               0.000000000               0.001312810               0.005169226              -0.000342509              -0.000153849               0.001774341               0.001620492               0.000000000               0.000000000               0.000000000               0.000000000               0.001650245               0.005156156              -0.000254237              -0.000025678               0.001727261               0.001701583               0.000000000               0.000000000               0.000000000               0.000000000               0.002052845               0.005093691              -0.000138736               0.000133104               0.001653512               0.001786616               0.000000000               0.000000000               0.000000000               0.000000000               0.002375641               0.005087616              -0.000081579               0.000254911               0.001610885               0.001865796               0.000000000               0.000000000               0.000000000               0.000000000               0.000000000               0.000000000               0.000000000               0.000000000               0.000000000               0.000000000               0.000000000               0.000000000               0.000000000               0.000000000               0.000000000               0.000000000               0.000000000               0.000000000               0.000000000               0.000000000               0.000000000               0.000000000               0.000000000               0.000000000               0.000000000               0.000000000               0.000000000               0.000000000               0.000000000               0.000000000               0.000000000               0.000000000               0.000000000               0.000000000               0.000000000               0.000000000               0.000000000               0.000000000               0.000000000               0.000000000               0.000000000               0.000000000               0.000000000               0.000000000               0.000000000               0.000000000               0.000000000               0.000000000               0.000000000               0.000000000               0.000000000               0.000000000               0.000000000               0.000000000               0.000000000               0.000000000               0.000000000               0.000000000               0.000000000               0.000000000               0.000000000               0.000000000               0.000000000               0.000000000               0.000000000               0.000000000               0.000000000               0.000000000               0.000000000               0.000000000               0.000000000               0.000000000               0.000000000               0.000000000               0.000000000               0.000000000               0.000000000               0.000000000               0.000000000               0.000000000               0.000000000               0.000000000               0.000000000               0.000000000               0.000000000               0.000000000               0.000000000               0.000000000               0.000000000               0.000000000               0.000000000               0.000000000               0.000000000               0.000000000               0.000000000               0.000000000               0.000000000               0.000000000               0.000000000               0.000000000               0.000000000               0.000000000               0.000000000               0.000000000               0.000000000               0.000000000               0.000000000               0.000000000               0.000000000               0.000000000               0.000000000               0.000000000               0.000000000               0.000000000               0.000000000               0.000000000               0.000000000               0.000000000               0.000000000               0.000000000               0.000000000               0.000000000               0.000000000               0.000000000               0.000000000               0.000000000               0.000000000               0.000000000               0.000000000               0.000000000               0.000000000               0.000000000               0.000000000               0.000000000               0.000000000               0.000000000               0.000000000               0.000000000               0.000000000               0.000000000               0.000000000               0.000000000               0.000000000               0.000000000               0.000000000               0.000000000               0.000000000               0.000000000               0.000000000               0.000000000               0.000000000               0.000000000               0.000000000               0.000000000               0.000000000               0.000000000               0.000000000               0.000000000               0.000000000               0.000000000               0.000000000               0.000000000               0.000000000               0.000000000               0.000000000               0.000000000               0.000000000               0.000000000               0.000000000               0.000000000               0.000000000               0.000000000               0.000000000               0.000000000               0.000000000               0.000000000               0.000000000               0.000000000               0.000000000               0.000000000               0.000000000               0.000000000               0.000000000               0.000000000               0.000000000               0.000000000               0.000000000               0.000000000               0.000000000               0.000000000               0.000000000               0.000000000               0.000000000               0.000000000               0.000000000               0.000000000               0.000000000               0.000000000               0.000000000               0.000000000               0.000000000               0.000000000               0.000000000               0.000000000               0.000000000               0.000000000               0.000000000               0.000000000               0.000000000               0.000000000               0.000000000               0.000000000               0.000000000               0.000000000               0.000000000               0.000000000               0.000000000               0.000000000               0.000000000               0.000000000               0.000000000               0.000000000               0.000000000               0.000000000               0.000000000               0.000000000               0.000000000               0.000000000               0.000000000               0.000000000               0.000000000               0.000000000               0.000000000               0.000000000               0.000000000               0.000000000               0.000000000               0.000000000               0.000000000               0.000000000               0.000000000               0.000000000               0.000000000               0.000000000               0.000000000               0.000000000               0.000000000               0.000000000               0.000000000               0.000000000               0.000000000               0.000000000               0.000000000               0.000000000               0.000000000               0.000000000               0.000000000               0.000000000               0.000000000               0.000000000               0.000000000               0.000000000               0.000000000               0.000000000               0.000000000               0.000000000               0.000000000               0.000000000               0.000000000               0.000000000               0.000000000               0.000000000               0.000000000               0.000000000               0.000000000               0.000000000               0.000000000               0.000000000               0.000000000               0.000000000               0.000000000               0.000000000               0.000000000               0.000000000               0.000000000               0.000000000               0.000000000               0.000000000               0.000000000               0.000000000               0.000000000               0.000000000               0.000000000               0.000000000               0.000000000               0.000000000               0.000000000               0.000000000               0.000000000               0.000000000               0.000000000               0.000000000               0.000000000               0.000000000               0.000000000               0.000000000               0.000000000               0.000000000               0.000000000               0.000000000               0.000000000               0.000000000               0.000000000               0.000000000               0.000000000               0.000000000               0.000000000               0.000000000               0.000000000               0.000000000               0.000000000               0.000000000               0.000000000               0.000000000               0.000000000               0.000000000               0.000000000               0.000000000               0.000000000               0.000000000               0.000000000               0.000000000               0.000000000               0.000000000               0.000000000               0.000000000               0.000000000               0.000000000               0.000000000               0.000000000               0.000000000               0.000000000               0.000000000               0.000000000               0.001969720               0.020468888               0.001442533              -0.001819962               0.007429548               0.005609587               0.000000000               0.000000000               0.000000000               0.000000000               0.001873050               0.016213964               0.000747114              -0.001324349               0.005846050               0.004521701               0.000000000               0.000000000               0.000000000               0.000000000               0.002376782               0.012816023               0.000056040              -0.000710708               0.004508868               0.003798160               0.000000000               0.000000000               0.000000000               0.000000000               0.002259587               0.010910876              -0.000232663              -0.000516513               0.003809093               0.003292580               0.000000000               0.000000000               0.000000000               0.000000000               0.001967348               0.009721196              -0.000352872              -0.000477393               0.003399497               0.002922104               0.000000000               0.000000000               0.000000000               0.000000000               0.001642408               0.008909753              -0.000397876              -0.000497815               0.003135826               0.002638011               0.000000000               0.000000000               0.000000000               0.000000000               0.001339370               0.008311262              -0.000404756              -0.000536643               0.002949274               0.002412631               0.000000000               0.000000000               0.000000000               0.000000000               0.001071114               0.007837285              -0.000397249              -0.000577992               0.002805066               0.002227074               0.000000000               0.000000000               0.000000000               0.000000000               0.000838260               0.007435521              -0.000382313              -0.000615091               0.002683513               0.002068421               0.000000000               0.000000000               0.000000000               0.000000000               0.000641216               0.007073147              -0.000362562              -0.000643686               0.002572254               0.001928568               0.000000000               0.000000000               0.000000000               0.000000000               0.000478325               0.006732486              -0.000340492              -0.000662187               0.002464869               0.001802681               0.000000000               0.000000000               0.000000000               0.000000000               0.000345665               0.006397971              -0.000314961              -0.000670120               0.002356009               0.001685889               0.000000000               0.000000000               0.000000000               0.000000000               0.000237866               0.006057567              -0.000288484              -0.000667995               0.002241834               0.001573839               0.000000000               0.000000000               0.000000000               0.000000000               0.000146179               0.005701935              -0.000255548              -0.000657923               0.002119934               0.001462011               0.000000000               0.000000000               0.000000000               0.000000000               0.000070308               0.005319048              -0.000200987              -0.000638514               0.001985836               0.001347322               0.000000000               0.000000000               0.000000000               0.000000000               0.000024638               0.004896651              -0.000115165              -0.000602841               0.001833147               0.001230307               0.000000000               0.000000000               0.000000000               0.000000000              -0.000020902               0.004582882              -0.000070166              -0.000580697               0.001721178               0.001140481               0.000000000               0.000000000               0.000000000               0.000000000               0.002156798               0.019268490               0.002688912              -0.001599759               0.006956019               0.005356259               0.000000000               0.000000000               0.000000000               0.000000000               0.001779890               0.015436951               0.001395768              -0.001262157               0.005566318               0.004304161               0.000000000               0.000000000               0.000000000               0.000000000               0.001984243               0.012478803               0.000120431              -0.000815757               0.004431479               0.003615721               0.000000000               0.000000000               0.000000000               0.000000000               0.001757600               0.010798996              -0.000398016              -0.000690773               0.003829887               0.003139114               0.000000000               0.000000000               0.000000000               0.000000000               0.001448241               0.009725113              -0.000605239              -0.000672547               0.003465854               0.002793307               0.000000000               0.000000000               0.000000000               0.000000000               0.001149893               0.008967588              -0.000677658              -0.000689737               0.003219078               0.002529341               0.000000000               0.000000000               0.000000000               0.000000000               0.000894002               0.008392779              -0.000689359              -0.000713845               0.003035513               0.002321668               0.000000000               0.000000000               0.000000000               0.000000000               0.000679234               0.007928088              -0.000675357              -0.000736296               0.002888102               0.002151805               0.000000000               0.000000000               0.000000000               0.000000000               0.000498659               0.007526776              -0.000645017              -0.000753848               0.002760183               0.002006335               0.000000000               0.000000000               0.000000000               0.000000000               0.000354519               0.007162652              -0.000607138              -0.000762385               0.002641655               0.001879270               0.000000000               0.000000000               0.000000000               0.000000000               0.000241871               0.006820255              -0.000566891              -0.000761828               0.002527338               0.001765510               0.000000000               0.000000000               0.000000000               0.000000000               0.000155869               0.006493831              -0.000520640              -0.000753276               0.002415681               0.001662405               0.000000000               0.000000000               0.000000000               0.000000000               0.000091852               0.006178594              -0.000468758              -0.000737878               0.002305470               0.001567592               0.000000000               0.000000000               0.000000000               0.000000000               0.000047106               0.005867168              -0.000404033              -0.000715729               0.002194280               0.001478550               0.000000000               0.000000000               0.000000000               0.000000000               0.000018959               0.005555591              -0.000308142              -0.000687338               0.002080958               0.001393620               0.000000000               0.000000000               0.000000000               0.000000000               0.000005048               0.005250048              -0.000171663              -0.000654361               0.001968119               0.001313758               0.000000000               0.000000000               0.000000000               0.000000000              -0.000016719               0.005049247              -0.000100077              -0.000637424               0.001895540               0.001258116               0.000000000               0.000000000               0.000000000               0.000000000               0.002358093               0.017443206               0.003588729              -0.001296115               0.006246382               0.004950267               0.000000000               0.000000000               0.000000000               0.000000000               0.001589537               0.014272581               0.001873744              -0.001187994               0.005153477               0.003965483               0.000000000               0.000000000               0.000000000               0.000000000               0.001379613               0.011974968               0.000202540              -0.000979514               0.004318121               0.003338607               0.000000000               0.000000000               0.000000000               0.000000000               0.001028665               0.010611108              -0.000445246              -0.000940637               0.003850546               0.002909909               0.000000000               0.000000000               0.000000000               0.000000000               0.000717353               0.009692187              -0.000691722              -0.000942514               0.003544868               0.002602354               0.000000000               0.000000000               0.000000000               0.000000000               0.000473376               0.009007986              -0.000772725              -0.000948480               0.003318792               0.002370312               0.000000000               0.000000000               0.000000000               0.000000000               0.000295028               0.008463522              -0.000782219              -0.000947303               0.003136913               0.002189610               0.000000000               0.000000000               0.000000000               0.000000000               0.000161163               0.008006922              -0.000760445              -0.000940427               0.002982423               0.002041996               0.000000000               0.000000000               0.000000000               0.000000000               0.000058763               0.007605669              -0.000720350              -0.000928670               0.002844755               0.001916084               0.000000000               0.000000000               0.000000000               0.000000000              -0.000007129               0.007242713              -0.000669777              -0.000908010               0.002716884               0.001808873               0.000000000               0.000000000               0.000000000               0.000000000              -0.000045080               0.006908877              -0.000616703              -0.000880512               0.002596440               0.001715927               0.000000000               0.000000000               0.000000000               0.000000000              -0.000062411               0.006603384              -0.000560174              -0.000848825               0.002484048               0.001635223               0.000000000               0.000000000               0.000000000               0.000000000              -0.000062526               0.006326571              -0.000496584              -0.000814267               0.002380258               0.001565991               0.000000000               0.000000000               0.000000000               0.000000000              -0.000052663               0.006075384              -0.000414936              -0.000779170               0.002284831               0.001505661               0.000000000               0.000000000               0.000000000               0.000000000              -0.000038706               0.005853842              -0.000303340              -0.000746243               0.002200009               0.001453766               0.000000000               0.000000000               0.000000000               0.000000000              -0.000020922               0.005678517              -0.000162180              -0.000717659               0.002132039               0.001414381               0.000000000               0.000000000               0.000000000               0.000000000              -0.000015892               0.005589870              -0.000088135              -0.000704692               0.002098168               0.001393477               0.000000000               0.000000000               0.000000000               0.000000000               0.002453357               0.015207870               0.004067520              -0.000980976               0.005396230               0.004415255               0.000000000               0.000000000               0.000000000               0.000000000               0.001277131               0.012867982               0.002158876              -0.001129572               0.004665808               0.003536236               0.000000000               0.000000000               0.000000000               0.000000000               0.000634320               0.011356143               0.000322086              -0.001181645               0.004179225               0.002997580               0.000000000               0.000000000               0.000000000               0.000000000               0.000198633               0.010340257              -0.000351716              -0.001218042               0.003852732               0.002634690               0.000000000               0.000000000               0.000000000               0.000000000              -0.000070294               0.009583090              -0.000594860              -0.001224243               0.003602412               0.002378169               0.000000000               0.000000000               0.000000000               0.000000000              -0.000227571               0.008975854              -0.000668003              -0.001207318               0.003394361               0.002187043               0.000000000               0.000000000               0.000000000               0.000000000              -0.000311537               0.008465202              -0.000673604              -0.001174974               0.003213364               0.002038390               0.000000000               0.000000000               0.000000000               0.000000000              -0.000345222               0.008023628              -0.000652450              -0.001132409               0.003051986               0.001919577               0.000000000               0.000000000               0.000000000               0.000000000              -0.000347216               0.007629115              -0.000613322              -0.001083843               0.002904294               0.001820451               0.000000000               0.000000000               0.000000000               0.000000000              -0.000324540               0.007276834              -0.000562195              -0.001031304               0.002769355               0.001738051               0.000000000               0.000000000               0.000000000               0.000000000              -0.000286198               0.006964894              -0.000508019              -0.000977934               0.002647586               0.001669652               0.000000000               0.000000000               0.000000000               0.000000000              -0.000233788               0.006689028              -0.000450044              -0.000923797               0.002537586               0.001613789               0.000000000               0.000000000               0.000000000               0.000000000              -0.000172969               0.006445773              -0.000387074              -0.000870583               0.002438764               0.001568181               0.000000000               0.000000000               0.000000000               0.000000000              -0.000117622               0.006240755              -0.000311296              -0.000824201               0.002354964               0.001530764               0.000000000               0.000000000               0.000000000               0.000000000              -0.000069441               0.006085227              -0.000216319              -0.000786692               0.002290619               0.001503927               0.000000000               0.000000000               0.000000000               0.000000000              -0.000029878               0.005986429              -0.000109220              -0.000759506               0.002248625               0.001489119               0.000000000               0.000000000               0.000000000               0.000000000              -0.000015130               0.005947509              -0.000056325              -0.000749110               0.002232187               0.001483076               0.000000000               0.000000000               0.000000000               0.000000000               0.002337960               0.012786078               0.004132252              -0.000721527               0.004502491               0.003780965               0.000000000               0.000000000               0.000000000               0.000000000               0.000839273               0.011368724               0.002275848              -0.001106362               0.004158324               0.003051962               0.000000000               0.000000000               0.000000000               0.000000000              -0.000157061               0.010668903               0.000502387              -0.001392507               0.004020434               0.002627927               0.000000000               0.000000000               0.000000000               0.000000000              -0.000599326               0.009979033              -0.000118617              -0.001472123               0.003817019               0.002344896               0.000000000               0.000000000               0.000000000               0.000000000              -0.000776021               0.009370864              -0.000337596              -0.001462362               0.003611044               0.002148682               0.000000000               0.000000000               0.000000000               0.000000000              -0.000817459               0.008841899              -0.000404758              -0.001411781               0.003417864               0.002006083               0.000000000               0.000000000               0.000000000               0.000000000              -0.000786725               0.008372971              -0.000417673              -0.001341640               0.003238176               0.001896536               0.000000000               0.000000000               0.000000000               0.000000000              -0.000716546               0.007956431              -0.000408378              -0.001263255               0.003073202               0.001809947               0.000000000               0.000000000               0.000000000               0.000000000              -0.000628971               0.007583179              -0.000381035              -0.001183759               0.002922287               0.001738529               0.000000000               0.000000000               0.000000000               0.000000000              -0.000530241               0.007251255              -0.000344069              -0.001105245               0.002785476               0.001680231               0.000000000               0.000000000               0.000000000               0.000000000              -0.000427859               0.006954027              -0.000303855              -0.001029698               0.002661219               0.001631521               0.000000000               0.000000000               0.000000000               0.000000000              -0.000327838               0.006687355              -0.000259918              -0.000958856               0.002548715               0.001589859               0.000000000               0.000000000               0.000000000               0.000000000              -0.000231884               0.006457600              -0.000215596              -0.000894154               0.002450563               0.001556409               0.000000000               0.000000000               0.000000000               0.000000000              -0.000152486               0.006270768              -0.000169527              -0.000841026               0.002370577               0.001529551               0.000000000               0.000000000               0.000000000               0.000000000              -0.000090463               0.006130243              -0.000115147              -0.000800202               0.002310128               0.001509926               0.000000000               0.000000000               0.000000000               0.000000000              -0.000039459               0.006031967              -0.000055751              -0.000768791               0.002266899               0.001498108               0.000000000               0.000000000               0.000000000               0.000000000              -0.000026907               0.005975915              -0.000032453              -0.000757078               0.002244311               0.001487233               0.000000000               0.000000000               0.000000000               0.000000000               0.001958186               0.010376531               0.003850907              -0.000562749               0.003646391               0.003083642               0.000000000               0.000000000               0.000000000               0.000000000               0.000302852               0.009892086               0.002271740              -0.001122940               0.003671642               0.002548702               0.000000000               0.000000000               0.000000000               0.000000000              -0.000902122               0.009947792               0.000752021              -0.001581766               0.003843153               0.002261387               0.000000000               0.000000000               0.000000000               0.000000000              -0.001259770               0.009539303               0.000222185              -0.001664823               0.003734677               0.002069854               0.000000000               0.000000000               0.000000000               0.000000000              -0.001300575               0.009061264               0.000018038              -0.001620370               0.003560514               0.001940145               0.000000000               0.000000000               0.000000000               0.000000000              -0.001212902               0.008603726              -0.000061509              -0.001530300               0.003377980               0.001847680               0.000000000               0.000000000               0.000000000               0.000000000              -0.001073433               0.008183129              -0.000094167              -0.001425425               0.003202824               0.001777399               0.000000000               0.000000000               0.000000000               0.000000000              -0.000914767               0.007805232              -0.000107521              -0.001318688               0.003041281               0.001722592               0.000000000               0.000000000               0.000000000               0.000000000              -0.000751768               0.007456211              -0.000104687              -0.001213936               0.002890024               0.001676088               0.000000000               0.000000000               0.000000000               0.000000000              -0.000599942               0.007126143              -0.000092278              -0.001115743               0.002747272               0.001631528               0.000000000               0.000000000               0.000000000               0.000000000              -0.000465467               0.006817378              -0.000077684              -0.001026720               0.002614676               0.001587956               0.000000000               0.000000000               0.000000000               0.000000000              -0.000346960               0.006541468              -0.000064369              -0.000947791               0.002496398               0.001548607               0.000000000               0.000000000               0.000000000               0.000000000              -0.000247667               0.006309510              -0.000057405              -0.000881562               0.002397003               0.001515441               0.000000000               0.000000000               0.000000000               0.000000000              -0.000169852               0.006121778              -0.000054442              -0.000828915               0.002316877               0.001487963               0.000000000               0.000000000               0.000000000               0.000000000              -0.000105850               0.005970651              -0.000046569              -0.000786023               0.002252205               0.001466182               0.000000000               0.000000000               0.000000000               0.000000000              -0.000050370               0.005843466              -0.000028866              -0.000749320               0.002197576               0.001448256               0.000000000               0.000000000               0.000000000               0.000000000              -0.000043728               0.005757162              -0.000027882              -0.000736041               0.002164382               0.001428341               0.000000000               0.000000000               0.000000000               0.000000000               0.001340495               0.008134956               0.003312844              -0.000514186               0.002883019               0.002368833               0.000000000               0.000000000               0.000000000               0.000000000              -0.000293745               0.008527638               0.002189423              -0.001176108               0.003234553               0.002058445               0.000000000               0.000000000               0.000000000               0.000000000              -0.001523723               0.009215264               0.001059700              -0.001723300               0.003646157               0.001922857               0.000000000               0.000000000               0.000000000               0.000000000              -0.001722812               0.009038131               0.000616342              -0.001775817               0.003604619               0.001828802               0.000000000               0.000000000               0.000000000               0.000000000              -0.001611245               0.008675253               0.000402586              -0.001688619               0.003454595               0.001765976               0.000000000               0.000000000               0.000000000               0.000000000              -0.001403297               0.008290217               0.000290159              -0.001562510               0.003284214               0.001721705               0.000000000               0.000000000               0.000000000               0.000000000              -0.001169728               0.007928683               0.000224883              -0.001429730               0.003119444               0.001689715               0.000000000               0.000000000               0.000000000               0.000000000              -0.000944123               0.007577678               0.000180767              -0.001301252               0.002959618               0.001658366               0.000000000               0.000000000               0.000000000               0.000000000              -0.000744457               0.007223028               0.000155475              -0.001182047               0.002801668               0.001619621               0.000000000               0.000000000               0.000000000               0.000000000              -0.000572093               0.006876076               0.000137587              -0.001074042               0.002650016               0.001575975               0.000000000               0.000000000               0.000000000               0.000000000              -0.000427993               0.006553610               0.000113306              -0.000979696               0.002511080               0.001531384               0.000000000               0.000000000               0.000000000               0.000000000              -0.000314907               0.006273658               0.000081039              -0.000902295               0.002391964               0.001489668               0.000000000               0.000000000               0.000000000               0.000000000              -0.000227686               0.006041732               0.000040456              -0.000840597               0.002294089               0.001453493               0.000000000               0.000000000               0.000000000               0.000000000              -0.000160394               0.005847946              -0.000000169              -0.000791139               0.002213009               0.001421870               0.000000000               0.000000000               0.000000000               0.000000000              -0.000103134               0.005682417              -0.000025037              -0.000748975               0.002143779               0.001394803               0.000000000               0.000000000               0.000000000               0.000000000              -0.000051790               0.005540430              -0.000026159              -0.000711973               0.002084116               0.001372143               0.000000000               0.000000000               0.000000000               0.000000000              -0.000041959               0.005453153              -0.000028873              -0.000697377               0.002050159               0.001352782               0.000000000               0.000000000               0.000000000               0.000000000               0.000586454               0.006234412               0.002626070              -0.000559382               0.002264576               0.001705194               0.000000000               0.000000000               0.000000000               0.000000000              -0.000861636               0.007313088               0.002076445              -0.001237248               0.002850087               0.001612839               0.000000000               0.000000000               0.000000000               0.000000000              -0.001981777               0.008508064               0.001417222              -0.001806670               0.003438216               0.001631546               0.000000000               0.000000000               0.000000000               0.000000000              -0.002015553               0.008565755               0.001029964              -0.001826548               0.003464072               0.001637525               0.000000000               0.000000000               0.000000000               0.000000000              -0.001782143               0.008336034               0.000787218              -0.001710304               0.003348752               0.001638448               0.000000000               0.000000000               0.000000000               0.000000000              -0.001480886               0.008040572               0.000628414              -0.001560400               0.003200297               0.001639897               0.000000000               0.000000000               0.000000000               0.000000000              -0.001181272               0.007727483               0.000523683              -0.001408909               0.003045438               0.001636529               0.000000000               0.000000000               0.000000000               0.000000000              -0.000915579               0.007386531               0.000448923              -0.001266655               0.002884371               0.001617716               0.000000000               0.000000000               0.000000000               0.000000000              -0.000687432               0.007028848               0.000392076              -0.001136390               0.002721723               0.001585332               0.000000000               0.000000000               0.000000000               0.000000000              -0.000495655               0.006674907               0.000337909              -0.001020231               0.002565024               0.001544793               0.000000000               0.000000000               0.000000000               0.000000000              -0.000345334               0.006352300               0.000272158              -0.000923536               0.002425257               0.001501722               0.000000000               0.000000000               0.000000000               0.000000000              -0.000243062               0.006074567               0.000194976              -0.000850467               0.002308324               0.001457857               0.000000000               0.000000000               0.000000000               0.000000000              -0.000183409               0.005837327               0.000116763              -0.000798442               0.002211904               0.001413461               0.000000000               0.000000000               0.000000000               0.000000000              -0.000148439               0.005627299               0.000048139              -0.000759075               0.002128772               0.001369698               0.000000000               0.000000000               0.000000000               0.000000000              -0.000121370               0.005438929              -0.000000435              -0.000725378               0.002054751               0.001329373               0.000000000               0.000000000               0.000000000               0.000000000              -0.000102679               0.005275268              -0.000021188              -0.000697911               0.001991042               0.001293131               0.000000000               0.000000000               0.000000000               0.000000000              -0.000092607               0.005194103              -0.000024603              -0.000683989               0.001959347               0.001275358               0.000000000               0.000000000               0.000000000               0.000000000              -0.000321294               0.004468816               0.001891437              -0.000679087               0.001715952               0.001036865               0.000000000               0.000000000               0.000000000               0.000000000              -0.001321607               0.005923344               0.001944364              -0.001236019               0.002386434               0.001150415               0.000000000               0.000000000               0.000000000               0.000000000              -0.002217780               0.007480031               0.001797202              -0.001766668               0.003082208               0.001315540               0.000000000               0.000000000               0.000000000               0.000000000              -0.002171546               0.007862153               0.001479261              -0.001797095               0.003219723               0.001422628               0.000000000               0.000000000               0.000000000               0.000000000              -0.001891002               0.007858525               0.001209177              -0.001691438               0.003183295               0.001491857               0.000000000               0.000000000               0.000000000               0.000000000              -0.001559812               0.007724116               0.001003216              -0.001550440               0.003091493               0.001541053               0.000000000               0.000000000               0.000000000               0.000000000              -0.001239401               0.007513120               0.000851032              -0.001403912               0.002972319               0.001568407               0.000000000               0.000000000               0.000000000               0.000000000              -0.000955534               0.007246239               0.000732948              -0.001264102               0.002836756               0.001572654               0.000000000               0.000000000               0.000000000               0.000000000              -0.000716609               0.006939358               0.000638875              -0.001136145               0.002691811               0.001555666               0.000000000               0.000000000               0.000000000               0.000000000              -0.000520923               0.006611438               0.000549341              -0.001021773               0.002544382               0.001522608               0.000000000               0.000000000               0.000000000               0.000000000              -0.000365671               0.006296279               0.000449834              -0.000924159               0.002406792               0.001482633               0.000000000               0.000000000               0.000000000               0.000000000              -0.000258712               0.006007728               0.000342361              -0.000847981               0.002285216               0.001437235               0.000000000               0.000000000               0.000000000               0.000000000              -0.000198734               0.005754496               0.000235835              -0.000793835               0.002182758               0.001388923               0.000000000               0.000000000               0.000000000               0.000000000              -0.000179028               0.005533300               0.000140882              -0.000758796               0.002097347               0.001338551               0.000000000               0.000000000               0.000000000               0.000000000              -0.000181310               0.005341482               0.000061254              -0.000735675               0.002025701               0.001290026               0.000000000               0.000000000               0.000000000               0.000000000              -0.000197289               0.005166138               0.000008039              -0.000719749               0.001961945               0.001242196               0.000000000               0.000000000               0.000000000               0.000000000              -0.000206086               0.005078482              -0.000008632              -0.000712091               0.001930174               0.001218083               0.000000000               0.000000000               0.000000000               0.000000000              -0.001518067               0.002871762               0.001151161              -0.000928244               0.001266658               0.000338415               0.000000000               0.000000000               0.000000000               0.000000000              -0.001850516               0.004536716               0.001743960              -0.001261031               0.001932566               0.000671536               0.000000000               0.000000000               0.000000000               0.000000000              -0.002369345               0.006293772               0.002090777              -0.001675223               0.002656310               0.000981087               0.000000000               0.000000000               0.000000000               0.000000000              -0.002250943               0.006980984               0.001901978              -0.001716723               0.002899212               0.001182489               0.000000000               0.000000000               0.000000000               0.000000000              -0.001951367               0.007232210               0.001639075              -0.001635785               0.002955974               0.001320189               0.000000000               0.000000000               0.000000000               0.000000000              -0.001613696               0.007288086               0.001402896              -0.001516143               0.002934719               0.001418575               0.000000000               0.000000000               0.000000000               0.000000000              -0.001296232               0.007213266               0.001210500              -0.001387742               0.002866979               0.001479236               0.000000000               0.000000000               0.000000000               0.000000000              -0.001008143               0.007055058               0.001054739              -0.001259933               0.002771640               0.001511707               0.000000000               0.000000000               0.000000000               0.000000000              -0.000755073               0.006839592               0.000922472              -0.001138099               0.002659207               0.001521109               0.000000000               0.000000000               0.000000000               0.000000000              -0.000545022               0.006583983               0.000800833              -0.001027379               0.002537098               0.001509720               0.000000000               0.000000000               0.000000000               0.000000000              -0.000370439               0.006308462               0.000679419              -0.000927470               0.002411956               0.001484486               0.000000000               0.000000000               0.000000000               0.000000000              -0.000238111               0.006027242               0.000554288              -0.000842695               0.002289959               0.001447264               0.000000000               0.000000000               0.000000000               0.000000000              -0.000154267               0.005765749               0.000426010              -0.000778567               0.002181419               0.001402852               0.000000000               0.000000000               0.000000000               0.000000000              -0.000123883               0.005535498               0.000299410              -0.000738392               0.002091278               0.001352886               0.000000000               0.000000000               0.000000000               0.000000000              -0.000146751               0.005335200               0.000179892              -0.000721930               0.002019025               0.001297096               0.000000000               0.000000000               0.000000000               0.000000000              -0.000212183               0.005157895               0.000075121              -0.000724304               0.001960716               0.001236412               0.000000000               0.000000000               0.000000000               0.000000000              -0.000270150               0.005063347               0.000022157              -0.000734223               0.001932507               0.001198284               0.000000000               0.000000000               0.000000000               0.000000000              -0.002925414               0.001554917               0.000460708              -0.001291393               0.000948763              -0.000342629               0.000000000               0.000000000               0.000000000               0.000000000              -0.002496067               0.003233120               0.001454748              -0.001340162               0.001524416               0.000184253               0.000000000               0.000000000               0.000000000               0.000000000              -0.002477356               0.004968460               0.002200782              -0.001550063               0.002172824               0.000622760               0.000000000               0.000000000               0.000000000               0.000000000              -0.002218173               0.005871471               0.002175155              -0.001565746               0.002479052               0.000913306               0.000000000               0.000000000               0.000000000               0.000000000              -0.001889418               0.006358264               0.001964814              -0.001503312               0.002620504               0.001117192               0.000000000               0.000000000               0.000000000               0.000000000              -0.001553111               0.006612462               0.001733412              -0.001408971               0.002673789               0.001264817               0.000000000               0.000000000               0.000000000               0.000000000              -0.001246278               0.006701079               0.001523514              -0.001304987               0.002668666               0.001363679               0.000000000               0.000000000               0.000000000               0.000000000              -0.000969638               0.006677398               0.001346262              -0.001198287               0.002625206               0.001426919               0.000000000               0.000000000               0.000000000               0.000000000              -0.000721829               0.006573451               0.001189769              -0.001092365               0.002555250               0.001462885               0.000000000               0.000000000               0.000000000               0.000000000              -0.000502633               0.006419522               0.001044143              -0.000990925               0.002470128               0.001479202               0.000000000               0.000000000               0.000000000               0.000000000              -0.000313295               0.006222680               0.000904311              -0.000895319               0.002372645               0.001477327               0.000000000               0.000000000               0.000000000               0.000000000              -0.000155372               0.005994933               0.000765130              -0.000807630               0.002267501               0.001459871               0.000000000               0.000000000               0.000000000               0.000000000              -0.000034705               0.005761759               0.000623660              -0.000733233               0.002164978               0.001431745               0.000000000               0.000000000               0.000000000               0.000000000               0.000036688               0.005540324               0.000474930              -0.000678781               0.002073017               0.001394236               0.000000000               0.000000000               0.000000000               0.000000000               0.000040156               0.005336682               0.000316983              -0.000652025               0.001996218               0.001344193               0.000000000               0.000000000               0.000000000               0.000000000              -0.000031782               0.005157200               0.000155406              -0.000656566               0.001937905               0.001281339               0.000000000               0.000000000               0.000000000               0.000000000              -0.000114206               0.005058642               0.000065479              -0.000675156               0.001911249               0.001236093               0.000000000               0.000000000               0.000000000               0.000000000              -0.004440002               0.000580555              -0.000086330              -0.001737568               0.000772702              -0.000964866               0.000000000               0.000000000               0.000000000               0.000000000              -0.003214305               0.002081767               0.001114166              -0.001465583               0.001182441              -0.000283141               0.000000000               0.000000000               0.000000000               0.000000000              -0.002561331               0.003614177               0.002103691              -0.001412269               0.001675469               0.000263200               0.000000000               0.000000000               0.000000000               0.000000000              -0.002093995               0.004623430               0.002229350              -0.001363174               0.001995518               0.000632344               0.000000000               0.000000000               0.000000000               0.000000000              -0.001708106               0.005299204               0.002096137              -0.001302938               0.002200696               0.000897757               0.000000000               0.000000000               0.000000000               0.000000000              -0.001372300               0.005735076               0.001898784              -0.001231495               0.002322171               0.001090676               0.000000000               0.000000000               0.000000000               0.000000000              -0.001079350               0.005984967               0.001702179              -0.001152875               0.002379260               0.001226385               0.000000000               0.000000000               0.000000000               0.000000000              -0.000818847               0.006109626               0.001524609              -0.001070769               0.002393444               0.001322675               0.000000000               0.000000000               0.000000000               0.000000000              -0.000583954               0.006136652               0.001362524              -0.000986062               0.002374217               0.001388155               0.000000000               0.000000000               0.000000000               0.000000000              -0.000367859               0.006094891               0.001211081              -0.000899807               0.002331545               0.001431738               0.000000000               0.000000000               0.000000000               0.000000000              -0.000170991               0.006001762               0.001065697              -0.000814340               0.002272014               0.001457674               0.000000000               0.000000000               0.000000000               0.000000000               0.000009563               0.005864918               0.000924771              -0.000729527               0.002198129               0.001468602               0.000000000               0.000000000               0.000000000               0.000000000               0.000173024               0.005696420               0.000781996              -0.000647167               0.002114510               0.001467343               0.000000000               0.000000000               0.000000000               0.000000000               0.000305297               0.005514821               0.000621766              -0.000574865               0.002029877               0.001455012               0.000000000               0.000000000               0.000000000               0.000000000               0.000381844               0.005331952               0.000436425              -0.000523301               0.001951733               0.001428432               0.000000000               0.000000000               0.000000000               0.000000000               0.000385297               0.005161392               0.000227479              -0.000500686               0.001887342               0.001386656               0.000000000               0.000000000               0.000000000               0.000000000               0.000348823               0.005071685               0.000111846              -0.000503151               0.001858262               0.001355111               0.000000000               0.000000000               0.000000000               0.000000000              -0.005906668              -0.000061543              -0.000407092              -0.002207306               0.000715249              -0.001492056               0.000000000               0.000000000               0.000000000               0.000000000              -0.003941152               0.001144669               0.000770483              -0.001621013               0.000921887              -0.000699126               0.000000000               0.000000000               0.000000000               0.000000000              -0.002641233               0.002360235               0.001796562              -0.001285490               0.001215232              -0.000070257               0.000000000               0.000000000               0.000000000               0.000000000              -0.001923188               0.003377603               0.002017596              -0.001143394               0.001506987               0.000363593               0.000000000               0.000000000               0.000000000               0.000000000              -0.001449674               0.004171753               0.001960884              -0.001065095               0.001745601               0.000680506               0.000000000               0.000000000               0.000000000               0.000000000              -0.001097278               0.004751787               0.001815891              -0.001005451               0.001919063               0.000913612               0.000000000               0.000000000               0.000000000               0.000000000              -0.000812641               0.005146243               0.001654435              -0.000948019               0.002031403               0.001083384               0.000000000               0.000000000               0.000000000               0.000000000              -0.000568769               0.005403203               0.001500004              -0.000888687               0.002097278               0.001208591               0.000000000               0.000000000               0.000000000               0.000000000              -0.000347998               0.005558124               0.001353714              -0.000825263               0.002127777               0.001302514               0.000000000               0.000000000               0.000000000               0.000000000              -0.000139049               0.005635849               0.001214377              -0.000756623               0.002130805               0.001374182               0.000000000               0.000000000               0.000000000               0.000000000               0.000063548               0.005651066               0.001081915              -0.000682552               0.002111187               0.001428635               0.000000000               0.000000000               0.000000000               0.000000000               0.000265581               0.005616329               0.000957259              -0.000602447               0.002072907               0.001470459               0.000000000               0.000000000               0.000000000               0.000000000               0.000466736               0.005537722               0.000829334              -0.000517188               0.002018285               0.001501097               0.000000000               0.000000000               0.000000000               0.000000000               0.000660987               0.005428954               0.000675137              -0.000430748               0.001953216               0.001522468               0.000000000               0.000000000               0.000000000               0.000000000               0.000835561               0.005297476               0.000487288              -0.000348849               0.001882091               0.001533242               0.000000000               0.000000000               0.000000000               0.000000000               0.000974313               0.005153287               0.000262362              -0.000278793               0.001810676               0.001531883               0.000000000               0.000000000               0.000000000               0.000000000               0.001051953               0.005087764               0.000142297              -0.000241488               0.001776400               0.001534913               0.000000000               0.000000000               0.000000000               0.000000000              -0.007141255              -0.000430063              -0.000467911              -0.002624211               0.000731377              -0.001892833               0.000000000               0.000000000               0.000000000               0.000000000              -0.004580645               0.000462478               0.000463967              -0.001775550               0.000746004              -0.001029546               0.000000000               0.000000000               0.000000000               0.000000000              -0.002722257               0.001344772               0.001306021              -0.001188941               0.000844565              -0.000344376               0.000000000               0.000000000               0.000000000               0.000000000              -0.001760709               0.002304022               0.001534216              -0.000948267               0.001084088               0.000135821               0.000000000               0.000000000               0.000000000               0.000000000              -0.001185482               0.003150321               0.001530316              -0.000838345               0.001329544               0.000491199               0.000000000               0.000000000               0.000000000               0.000000000              -0.000798853               0.003825615               0.001442927              -0.000777771               0.001534449               0.000756678               0.000000000               0.000000000               0.000000000               0.000000000              -0.000513016               0.004328858               0.001330729              -0.000733487               0.001687433               0.000953946               0.000000000               0.000000000               0.000000000               0.000000000              -0.000279237               0.004693254               0.001217351              -0.000691370               0.001794859               0.001103489               0.000000000               0.000000000               0.000000000               0.000000000              -0.000071366               0.004954828               0.001105570              -0.000646115               0.001866964               0.001220849               0.000000000               0.000000000               0.000000000               0.000000000               0.000129464               0.005136609               0.000997487              -0.000593526               0.001910028               0.001316502               0.000000000               0.000000000               0.000000000               0.000000000               0.000334967               0.005249100               0.000898037              -0.000530524               0.001926524               0.001396000               0.000000000               0.000000000               0.000000000               0.000000000               0.000554728               0.005309074               0.000805803              -0.000455610               0.001921544               0.001465933               0.000000000               0.000000000               0.000000000               0.000000000               0.000785360               0.005321209               0.000706989              -0.000370641               0.001897265               0.001526625               0.000000000               0.000000000               0.000000000               0.000000000               0.001032222               0.005293660               0.000584525              -0.000274624               0.001856077               0.001581453               0.000000000               0.000000000               0.000000000               0.000000000               0.001302204               0.005229791               0.000429490              -0.000165397               0.001798379               0.001632982               0.000000000               0.000000000               0.000000000               0.000000000               0.001587720               0.005127429               0.000234644              -0.000045534               0.001724304               0.001678770               0.000000000               0.000000000               0.000000000               0.000000000               0.001799599               0.005092320               0.000134884               0.000038309               0.001684654               0.001722962               0.000000000               0.000000000               0.000000000               0.000000000              -0.007968750              -0.000604504              -0.000300337              -0.002912716               0.000769399              -0.002143317               0.000000000               0.000000000               0.000000000               0.000000000              -0.005022951               0.000051500               0.000212349              -0.001890042               0.000647176              -0.001242866               0.000000000               0.000000000               0.000000000               0.000000000              -0.002782462               0.000684694               0.000685062              -0.001129008               0.000604563              -0.000524445               0.000000000               0.000000000               0.000000000               0.000000000              -0.001643545               0.001576987               0.000828076              -0.000813451               0.000796807              -0.000016644               0.000000000               0.000000000               0.000000000               0.000000000              -0.000985313               0.002435753               0.000841166              -0.000673960               0.001036563               0.000362603               0.000000000               0.000000000               0.000000000               0.000000000              -0.000566821               0.003156533               0.000803840              -0.000607123               0.001254541               0.000647418               0.000000000               0.000000000               0.000000000               0.000000000              -0.000275629               0.003721971               0.000747259              -0.000568606               0.001430180               0.000861574               0.000000000               0.000000000               0.000000000               0.000000000              -0.000049256               0.004157028               0.000686096              -0.000538098               0.001565028               0.001026930               0.000000000               0.000000000               0.000000000               0.000000000               0.000150263               0.004490630               0.000624727              -0.000504979               0.001665188               0.001160209               0.000000000               0.000000000               0.000000000               0.000000000               0.000348280               0.004744146               0.000565545              -0.000462412               0.001735504               0.001273091               0.000000000               0.000000000               0.000000000               0.000000000               0.000555499               0.004928297               0.000513368              -0.000407724               0.001778657               0.001370933               0.000000000               0.000000000               0.000000000               0.000000000               0.000779835               0.005056667               0.000464785              -0.000339644               0.001798754               0.001459109               0.000000000               0.000000000               0.000000000               0.000000000               0.001027605               0.005135599               0.000409447              -0.000256597               0.001797382               0.001540784               0.000000000               0.000000000               0.000000000               0.000000000               0.001312810               0.005169226               0.000342509              -0.000153849               0.001774341               0.001620492               0.000000000               0.000000000               0.000000000               0.000000000               0.001650245               0.005156156               0.000254237              -0.000025678               0.001727261               0.001701583               0.000000000               0.000000000               0.000000000               0.000000000               0.002052845               0.005093691               0.000138736               0.000133104               0.001653512               0.001786616               0.000000000               0.000000000               0.000000000               0.000000000               0.002375641               0.005087616               0.000081579               0.000254911               0.001610885               0.001865796               0.000000000               0.000000000               0.000000000               0.000000000               0.000000000               0.000000000               0.000000000               0.000000000               0.000000000               0.000000000               0.000000000               0.000000000               0.000000000               0.000000000               0.000000000               0.000000000               0.000000000               0.000000000               0.000000000               0.000000000               0.000000000               0.000000000               0.000000000               0.000000000               0.000000000               0.000000000               0.000000000               0.000000000               0.000000000               0.000000000               0.000000000               0.000000000               0.000000000               0.000000000               0.000000000               0.000000000               0.000000000               0.000000000               0.000000000               0.000000000               0.000000000               0.000000000               0.000000000               0.000000000               0.000000000               0.000000000               0.000000000               0.000000000               0.000000000               0.000000000               0.000000000               0.000000000               0.000000000               0.000000000               0.000000000               0.000000000               0.000000000               0.000000000               0.000000000               0.000000000               0.000000000               0.000000000               0.000000000               0.000000000               0.000000000               0.000000000               0.000000000               0.000000000               0.000000000               0.000000000               0.000000000               0.000000000               0.000000000               0.000000000               0.000000000               0.000000000               0.000000000               0.000000000               0.000000000               0.000000000               0.000000000               0.000000000               0.000000000               0.000000000               0.000000000               0.000000000               0.000000000               0.000000000               0.000000000               0.000000000               0.000000000               0.000000000               0.000000000               0.000000000               0.000000000               0.000000000               0.000000000               0.000000000               0.000000000               0.000000000               0.000000000               0.000000000               0.000000000               0.000000000               0.000000000               0.000000000               0.000000000               0.000000000               0.000000000               0.000000000               0.000000000               0.000000000               0.000000000               0.000000000               0.000000000               0.000000000               0.000000000               0.000000000               0.000000000               0.000000000               0.000000000               0.000000000               0.000000000               0.000000000               0.000000000               0.000000000               0.000000000               0.000000000               0.000000000               0.000000000               0.000000000               0.000000000               0.000000000               0.000000000               0.000000000               0.000000000               0.000000000               0.000000000               0.000000000               0.000000000               0.000000000               0.000000000               0.000000000               0.000000000               0.000000000               0.000000000               0.000000000               0.000000000               0.000000000               0.000000000               0.000000000               0.000000000               0.000000000               0.000000000               0.000000000               0.000000000               0.000000000               0.000000000               0.000000000               0.000000000               0.000000000               0.000000000               0.000000000               0.000000000               0.000000000               0.000000000               0.000000000               0.000000000               0.000000000               0.000000000               0.000000000               0.000000000               0.000000000               0.000000000 </DataArray>
</PointData>
</Piece>
</UnstructuredGrid> </VTKFile>
