<?xml version="1.0"?>
<VTKFile type="UnstructuredGrid" version="0.1">
<UnstructuredGrid>
<Piece NumberOfPoints="      1156" NumberOfCells="      1024">
<Points>
<DataArray type="Float64"                                    Name="coordinates"                                                      NumberOfComponents=" 3" format="ascii">
              0.133000000               0.000000000               0.000000000               0.155937500               0.000000000               0.000000000               0.178875000               0.000000000               0.000000000               0.201812500               0.000000000               0.000000000               0.224750000               0.000000000               0.000000000               0.247687500               0.000000000               0.000000000               0.270625000               0.000000000               0.000000000               0.293562500               0.000000000               0.000000000               0.316500000               0.000000000               0.000000000               0.339437500               0.000000000               0.000000000               0.362375000               0.000000000               0.000000000               0.385312500               0.000000000               0.000000000               0.408250000               0.000000000               0.000000000               0.431187500               0.000000000               0.000000000               0.454125000               0.000000000               0.000000000               0.477062500               0.000000000               0.000000000               0.500000000               0.000000000               0.000000000               0.132359569               0.013036280               0.000000000               0.155337096               0.016127762               0.000000000               0.178314623               0.019219245               0.000000000               0.201292150               0.022310727               0.000000000               0.224269676               0.025402210               0.000000000               0.247247203               0.028493692               0.000000000               0.270224730               0.031585175               0.000000000               0.293202257               0.034676657               0.000000000               0.316179784               0.037768140               0.000000000               0.339157311               0.040859622               0.000000000               0.362134838               0.043951105               0.000000000               0.385112365               0.047042587               0.000000000               0.408089892               0.050134070               0.000000000               0.431067419               0.053225552               0.000000000               0.454044946               0.056317035               0.000000000               0.477022473               0.059408517               0.000000000               0.500000000               0.062500000               0.000000000               0.130444442               0.025947013               0.000000000               0.153541665               0.032137825               0.000000000               0.176638887               0.038328636               0.000000000               0.199736109               0.044519448               0.000000000               0.222833332               0.050710260               0.000000000               0.245930554               0.056901071               0.000000000               0.269027776               0.063091883               0.000000000               0.292124999               0.069282695               0.000000000               0.315222221               0.075473506               0.000000000               0.338319444               0.081664318               0.000000000               0.361416666               0.087855130               0.000000000               0.384513888               0.094045942               0.000000000               0.407611111               0.100236753               0.000000000               0.430708333               0.106427565               0.000000000               0.453805555               0.112618377               0.000000000               0.476902778               0.118809188               0.000000000               0.500000000               0.125000000               0.000000000               0.127273065               0.038607862               0.000000000               0.150568498               0.047913621               0.000000000               0.173863932               0.057219379               0.000000000               0.197159365               0.066525138               0.000000000               0.220454798               0.075830897               0.000000000               0.243750232               0.085136655               0.000000000               0.267045665               0.094442414               0.000000000               0.290341099               0.103748172               0.000000000               0.313636532               0.113053931               0.000000000               0.336931966               0.122359690               0.000000000               0.360227399               0.131665448               0.000000000               0.383522833               0.140971207               0.000000000               0.406818266               0.150276966               0.000000000               0.430113700               0.159582724               0.000000000               0.453409133               0.168888483               0.000000000               0.476704567               0.178194241               0.000000000               0.500000000               0.187500000               0.000000000               0.122875978               0.050896897               0.000000000               0.146446229               0.063340840               0.000000000               0.170016481               0.075784784               0.000000000               0.193586732               0.088228728               0.000000000               0.217156983               0.100672672               0.000000000               0.240727235               0.113116616               0.000000000               0.264297486               0.125560560               0.000000000               0.287867738               0.138004504               0.000000000               0.311437989               0.150448448               0.000000000               0.335008240               0.162892392               0.000000000               0.358578492               0.175336336               0.000000000               0.382148743               0.187780280               0.000000000               0.405718994               0.200224224               0.000000000               0.429289246               0.212668168               0.000000000               0.452859497               0.225112112               0.000000000               0.476429749               0.237556056               0.000000000               0.500000000               0.250000000               0.000000000               0.117295528               0.062695766               0.000000000               0.141214558               0.078308531               0.000000000               0.165133587               0.093921295               0.000000000               0.189052617               0.109534060               0.000000000               0.212971646               0.125146824               0.000000000               0.236890676               0.140759589               0.000000000               0.260809705               0.156372354               0.000000000               0.284728735               0.171985118               0.000000000               0.308647764               0.187597883               0.000000000               0.332566794               0.203210648               0.000000000               0.356485823               0.218823412               0.000000000               0.380404853               0.234436177               0.000000000               0.404323882               0.250048941               0.000000000               0.428242912               0.265661706               0.000000000               0.452161941               0.281274471               0.000000000               0.476080971               0.296887235               0.000000000               0.500000000               0.312500000               0.000000000               0.110585458               0.073890841               0.000000000               0.134923867               0.092710163               0.000000000               0.159262276               0.111529486               0.000000000               0.183600685               0.130348808               0.000000000               0.207939094               0.149168131               0.000000000               0.232277503               0.167987453               0.000000000               0.256615912               0.186806776               0.000000000               0.280954320               0.205626098               0.000000000               0.305292729               0.224445420               0.000000000               0.329631138               0.243264743               0.000000000               0.353969547               0.262084065               0.000000000               0.378307956               0.280903388               0.000000000               0.402646365               0.299722710               0.000000000               0.426984773               0.318542033               0.000000000               0.451323182               0.337361355               0.000000000               0.475661591               0.356180678               0.000000000               0.500000000               0.375000000               0.000000000               0.102810390               0.084374307               0.000000000               0.127634741               0.106444663               0.000000000               0.152459092               0.128515018               0.000000000               0.177283442               0.150585374               0.000000000               0.202107793               0.172655730               0.000000000               0.226932143               0.194726086               0.000000000               0.251756494               0.216796442               0.000000000               0.276580845               0.238866798               0.000000000               0.301405195               0.260937153               0.000000000               0.326229546               0.283007509               0.000000000               0.351053896               0.305077865               0.000000000               0.375878247               0.327148221               0.000000000               0.400702598               0.349218577               0.000000000               0.425526948               0.371288933               0.000000000               0.450351299               0.393359288               0.000000000               0.475175649               0.415429644               0.000000000               0.500000000               0.437500000               0.000000000               0.094045202               0.094045202               0.000000000               0.119417377               0.119417377               0.000000000               0.144789552               0.144789552               0.000000000               0.170161727               0.170161727               0.000000000               0.195533901               0.195533901               0.000000000               0.220906076               0.220906076               0.000000000               0.246278251               0.246278251               0.000000000               0.271650426               0.271650426               0.000000000               0.297022601               0.297022601               0.000000000               0.322394776               0.322394776               0.000000000               0.347766951               0.347766951               0.000000000               0.373139126               0.373139126               0.000000000               0.398511300               0.398511300               0.000000000               0.423883475               0.423883475               0.000000000               0.449255650               0.449255650               0.000000000               0.474627825               0.474627825               0.000000000               0.500000000               0.500000000               0.000000000               0.084374307               0.102810390               0.000000000               0.106444663               0.127634741               0.000000000               0.128515018               0.152459092               0.000000000               0.150585374               0.177283442               0.000000000               0.172655730               0.202107793               0.000000000               0.194726086               0.226932143               0.000000000               0.216796442               0.251756494               0.000000000               0.238866798               0.276580845               0.000000000               0.260937153               0.301405195               0.000000000               0.283007509               0.326229546               0.000000000               0.305077865               0.351053896               0.000000000               0.327148221               0.375878247               0.000000000               0.349218577               0.400702598               0.000000000               0.371288933               0.425526948               0.000000000               0.393359288               0.450351299               0.000000000               0.415429644               0.475175649               0.000000000               0.437500000               0.500000000               0.000000000               0.073890841               0.110585458               0.000000000               0.092710163               0.134923867               0.000000000               0.111529486               0.159262276               0.000000000               0.130348808               0.183600685               0.000000000               0.149168131               0.207939094               0.000000000               0.167987453               0.232277503               0.000000000               0.186806776               0.256615912               0.000000000               0.205626098               0.280954320               0.000000000               0.224445420               0.305292729               0.000000000               0.243264743               0.329631138               0.000000000               0.262084065               0.353969547               0.000000000               0.280903388               0.378307956               0.000000000               0.299722710               0.402646365               0.000000000               0.318542033               0.426984773               0.000000000               0.337361355               0.451323182               0.000000000               0.356180678               0.475661591               0.000000000               0.375000000               0.500000000               0.000000000               0.062695766               0.117295528               0.000000000               0.078308531               0.141214558               0.000000000               0.093921295               0.165133587               0.000000000               0.109534060               0.189052617               0.000000000               0.125146824               0.212971646               0.000000000               0.140759589               0.236890676               0.000000000               0.156372354               0.260809705               0.000000000               0.171985118               0.284728735               0.000000000               0.187597883               0.308647764               0.000000000               0.203210648               0.332566794               0.000000000               0.218823412               0.356485823               0.000000000               0.234436177               0.380404853               0.000000000               0.250048941               0.404323882               0.000000000               0.265661706               0.428242912               0.000000000               0.281274471               0.452161941               0.000000000               0.296887235               0.476080971               0.000000000               0.312500000               0.500000000               0.000000000               0.050896897               0.122875978               0.000000000               0.063340840               0.146446229               0.000000000               0.075784784               0.170016481               0.000000000               0.088228728               0.193586732               0.000000000               0.100672672               0.217156983               0.000000000               0.113116616               0.240727235               0.000000000               0.125560560               0.264297486               0.000000000               0.138004504               0.287867738               0.000000000               0.150448448               0.311437989               0.000000000               0.162892392               0.335008240               0.000000000               0.175336336               0.358578492               0.000000000               0.187780280               0.382148743               0.000000000               0.200224224               0.405718994               0.000000000               0.212668168               0.429289246               0.000000000               0.225112112               0.452859497               0.000000000               0.237556056               0.476429749               0.000000000               0.250000000               0.500000000               0.000000000               0.038607862               0.127273065               0.000000000               0.047913621               0.150568498               0.000000000               0.057219379               0.173863932               0.000000000               0.066525138               0.197159365               0.000000000               0.075830897               0.220454798               0.000000000               0.085136655               0.243750232               0.000000000               0.094442414               0.267045665               0.000000000               0.103748172               0.290341099               0.000000000               0.113053931               0.313636532               0.000000000               0.122359690               0.336931966               0.000000000               0.131665448               0.360227399               0.000000000               0.140971207               0.383522833               0.000000000               0.150276966               0.406818266               0.000000000               0.159582724               0.430113700               0.000000000               0.168888483               0.453409133               0.000000000               0.178194241               0.476704567               0.000000000               0.187500000               0.500000000               0.000000000               0.025947013               0.130444442               0.000000000               0.032137825               0.153541665               0.000000000               0.038328636               0.176638887               0.000000000               0.044519448               0.199736109               0.000000000               0.050710260               0.222833332               0.000000000               0.056901071               0.245930554               0.000000000               0.063091883               0.269027776               0.000000000               0.069282695               0.292124999               0.000000000               0.075473506               0.315222221               0.000000000               0.081664318               0.338319444               0.000000000               0.087855130               0.361416666               0.000000000               0.094045942               0.384513888               0.000000000               0.100236753               0.407611111               0.000000000               0.106427565               0.430708333               0.000000000               0.112618377               0.453805555               0.000000000               0.118809188               0.476902778               0.000000000               0.125000000               0.500000000               0.000000000               0.013036280               0.132359569               0.000000000               0.016127762               0.155337096               0.000000000               0.019219245               0.178314623               0.000000000               0.022310727               0.201292150               0.000000000               0.025402210               0.224269676               0.000000000               0.028493692               0.247247203               0.000000000               0.031585175               0.270224730               0.000000000               0.034676657               0.293202257               0.000000000               0.037768140               0.316179784               0.000000000               0.040859622               0.339157311               0.000000000               0.043951105               0.362134838               0.000000000               0.047042587               0.385112365               0.000000000               0.050134070               0.408089892               0.000000000               0.053225552               0.431067419               0.000000000               0.056317035               0.454044946               0.000000000               0.059408517               0.477022473               0.000000000               0.062500000               0.500000000               0.000000000               0.000000000               0.133000000               0.000000000               0.000000000               0.155937500               0.000000000               0.000000000               0.178875000               0.000000000               0.000000000               0.201812500               0.000000000               0.000000000               0.224750000               0.000000000               0.000000000               0.247687500               0.000000000               0.000000000               0.270625000               0.000000000               0.000000000               0.293562500               0.000000000               0.000000000               0.316500000               0.000000000               0.000000000               0.339437500               0.000000000               0.000000000               0.362375000               0.000000000               0.000000000               0.385312500               0.000000000               0.000000000               0.408250000               0.000000000               0.000000000               0.431187500               0.000000000               0.000000000               0.454125000               0.000000000               0.000000000               0.477062500               0.000000000               0.000000000               0.500000000               0.000000000               0.133000000               0.000000000               0.000000000               0.155937500               0.000000000               0.000000000               0.178875000               0.000000000               0.000000000               0.201812500               0.000000000               0.000000000               0.224750000               0.000000000               0.000000000               0.247687500               0.000000000               0.000000000               0.270625000               0.000000000               0.000000000               0.293562500               0.000000000               0.000000000               0.316500000               0.000000000               0.000000000               0.339437500               0.000000000               0.000000000               0.362375000               0.000000000               0.000000000               0.385312500               0.000000000               0.000000000               0.408250000               0.000000000               0.000000000               0.431187500               0.000000000               0.000000000               0.454125000               0.000000000               0.000000000               0.477062500               0.000000000               0.000000000               0.500000000               0.000000000               0.000000000               0.132359569              -0.013036280               0.000000000               0.155337096              -0.016127762               0.000000000               0.178314623              -0.019219245               0.000000000               0.201292150              -0.022310727               0.000000000               0.224269676              -0.025402210               0.000000000               0.247247203              -0.028493692               0.000000000               0.270224730              -0.031585175               0.000000000               0.293202257              -0.034676657               0.000000000               0.316179784              -0.037768140               0.000000000               0.339157311              -0.040859622               0.000000000               0.362134838              -0.043951105               0.000000000               0.385112365              -0.047042587               0.000000000               0.408089892              -0.050134070               0.000000000               0.431067419              -0.053225552               0.000000000               0.454044946              -0.056317035               0.000000000               0.477022473              -0.059408517               0.000000000               0.500000000              -0.062500000               0.000000000               0.130444442              -0.025947013               0.000000000               0.153541665              -0.032137825               0.000000000               0.176638887              -0.038328636               0.000000000               0.199736109              -0.044519448               0.000000000               0.222833332              -0.050710260               0.000000000               0.245930554              -0.056901071               0.000000000               0.269027776              -0.063091883               0.000000000               0.292124999              -0.069282695               0.000000000               0.315222221              -0.075473506               0.000000000               0.338319444              -0.081664318               0.000000000               0.361416666              -0.087855130               0.000000000               0.384513888              -0.094045942               0.000000000               0.407611111              -0.100236753               0.000000000               0.430708333              -0.106427565               0.000000000               0.453805555              -0.112618377               0.000000000               0.476902778              -0.118809188               0.000000000               0.500000000              -0.125000000               0.000000000               0.127273065              -0.038607862               0.000000000               0.150568498              -0.047913621               0.000000000               0.173863932              -0.057219379               0.000000000               0.197159365              -0.066525138               0.000000000               0.220454798              -0.075830897               0.000000000               0.243750232              -0.085136655               0.000000000               0.267045665              -0.094442414               0.000000000               0.290341099              -0.103748172               0.000000000               0.313636532              -0.113053931               0.000000000               0.336931966              -0.122359690               0.000000000               0.360227399              -0.131665448               0.000000000               0.383522833              -0.140971207               0.000000000               0.406818266              -0.150276966               0.000000000               0.430113700              -0.159582724               0.000000000               0.453409133              -0.168888483               0.000000000               0.476704567              -0.178194241               0.000000000               0.500000000              -0.187500000               0.000000000               0.122875978              -0.050896897               0.000000000               0.146446229              -0.063340840               0.000000000               0.170016481              -0.075784784               0.000000000               0.193586732              -0.088228728               0.000000000               0.217156983              -0.100672672               0.000000000               0.240727235              -0.113116616               0.000000000               0.264297486              -0.125560560               0.000000000               0.287867738              -0.138004504               0.000000000               0.311437989              -0.150448448               0.000000000               0.335008240              -0.162892392               0.000000000               0.358578492              -0.175336336               0.000000000               0.382148743              -0.187780280               0.000000000               0.405718994              -0.200224224               0.000000000               0.429289246              -0.212668168               0.000000000               0.452859497              -0.225112112               0.000000000               0.476429749              -0.237556056               0.000000000               0.500000000              -0.250000000               0.000000000               0.117295528              -0.062695766               0.000000000               0.141214558              -0.078308531               0.000000000               0.165133587              -0.093921295               0.000000000               0.189052617              -0.109534060               0.000000000               0.212971646              -0.125146824               0.000000000               0.236890676              -0.140759589               0.000000000               0.260809705              -0.156372354               0.000000000               0.284728735              -0.171985118               0.000000000               0.308647764              -0.187597883               0.000000000               0.332566794              -0.203210648               0.000000000               0.356485823              -0.218823412               0.000000000               0.380404853              -0.234436177               0.000000000               0.404323882              -0.250048941               0.000000000               0.428242912              -0.265661706               0.000000000               0.452161941              -0.281274471               0.000000000               0.476080971              -0.296887235               0.000000000               0.500000000              -0.312500000               0.000000000               0.110585458              -0.073890841               0.000000000               0.134923867              -0.092710163               0.000000000               0.159262276              -0.111529486               0.000000000               0.183600685              -0.130348808               0.000000000               0.207939094              -0.149168131               0.000000000               0.232277503              -0.167987453               0.000000000               0.256615912              -0.186806776               0.000000000               0.280954320              -0.205626098               0.000000000               0.305292729              -0.224445420               0.000000000               0.329631138              -0.243264743               0.000000000               0.353969547              -0.262084065               0.000000000               0.378307956              -0.280903388               0.000000000               0.402646365              -0.299722710               0.000000000               0.426984773              -0.318542033               0.000000000               0.451323182              -0.337361355               0.000000000               0.475661591              -0.356180678               0.000000000               0.500000000              -0.375000000               0.000000000               0.102810390              -0.084374307               0.000000000               0.127634741              -0.106444663               0.000000000               0.152459092              -0.128515018               0.000000000               0.177283442              -0.150585374               0.000000000               0.202107793              -0.172655730               0.000000000               0.226932143              -0.194726086               0.000000000               0.251756494              -0.216796442               0.000000000               0.276580845              -0.238866798               0.000000000               0.301405195              -0.260937153               0.000000000               0.326229546              -0.283007509               0.000000000               0.351053896              -0.305077865               0.000000000               0.375878247              -0.327148221               0.000000000               0.400702598              -0.349218577               0.000000000               0.425526948              -0.371288933               0.000000000               0.450351299              -0.393359288               0.000000000               0.475175649              -0.415429644               0.000000000               0.500000000              -0.437500000               0.000000000               0.094045202              -0.094045202               0.000000000               0.119417377              -0.119417377               0.000000000               0.144789552              -0.144789552               0.000000000               0.170161727              -0.170161727               0.000000000               0.195533901              -0.195533901               0.000000000               0.220906076              -0.220906076               0.000000000               0.246278251              -0.246278251               0.000000000               0.271650426              -0.271650426               0.000000000               0.297022601              -0.297022601               0.000000000               0.322394776              -0.322394776               0.000000000               0.347766951              -0.347766951               0.000000000               0.373139126              -0.373139126               0.000000000               0.398511300              -0.398511300               0.000000000               0.423883475              -0.423883475               0.000000000               0.449255650              -0.449255650               0.000000000               0.474627825              -0.474627825               0.000000000               0.500000000              -0.500000000               0.000000000               0.084374307              -0.102810390               0.000000000               0.106444663              -0.127634741               0.000000000               0.128515018              -0.152459092               0.000000000               0.150585374              -0.177283442               0.000000000               0.172655730              -0.202107793               0.000000000               0.194726086              -0.226932143               0.000000000               0.216796442              -0.251756494               0.000000000               0.238866798              -0.276580845               0.000000000               0.260937153              -0.301405195               0.000000000               0.283007509              -0.326229546               0.000000000               0.305077865              -0.351053896               0.000000000               0.327148221              -0.375878247               0.000000000               0.349218577              -0.400702598               0.000000000               0.371288933              -0.425526948               0.000000000               0.393359288              -0.450351299               0.000000000               0.415429644              -0.475175649               0.000000000               0.437500000              -0.500000000               0.000000000               0.073890841              -0.110585458               0.000000000               0.092710163              -0.134923867               0.000000000               0.111529486              -0.159262276               0.000000000               0.130348808              -0.183600685               0.000000000               0.149168131              -0.207939094               0.000000000               0.167987453              -0.232277503               0.000000000               0.186806776              -0.256615912               0.000000000               0.205626098              -0.280954320               0.000000000               0.224445420              -0.305292729               0.000000000               0.243264743              -0.329631138               0.000000000               0.262084065              -0.353969547               0.000000000               0.280903388              -0.378307956               0.000000000               0.299722710              -0.402646365               0.000000000               0.318542033              -0.426984773               0.000000000               0.337361355              -0.451323182               0.000000000               0.356180678              -0.475661591               0.000000000               0.375000000              -0.500000000               0.000000000               0.062695766              -0.117295528               0.000000000               0.078308531              -0.141214558               0.000000000               0.093921295              -0.165133587               0.000000000               0.109534060              -0.189052617               0.000000000               0.125146824              -0.212971646               0.000000000               0.140759589              -0.236890676               0.000000000               0.156372354              -0.260809705               0.000000000               0.171985118              -0.284728735               0.000000000               0.187597883              -0.308647764               0.000000000               0.203210648              -0.332566794               0.000000000               0.218823412              -0.356485823               0.000000000               0.234436177              -0.380404853               0.000000000               0.250048941              -0.404323882               0.000000000               0.265661706              -0.428242912               0.000000000               0.281274471              -0.452161941               0.000000000               0.296887235              -0.476080971               0.000000000               0.312500000              -0.500000000               0.000000000               0.050896897              -0.122875978               0.000000000               0.063340840              -0.146446229               0.000000000               0.075784784              -0.170016481               0.000000000               0.088228728              -0.193586732               0.000000000               0.100672672              -0.217156983               0.000000000               0.113116616              -0.240727235               0.000000000               0.125560560              -0.264297486               0.000000000               0.138004504              -0.287867738               0.000000000               0.150448448              -0.311437989               0.000000000               0.162892392              -0.335008240               0.000000000               0.175336336              -0.358578492               0.000000000               0.187780280              -0.382148743               0.000000000               0.200224224              -0.405718994               0.000000000               0.212668168              -0.429289246               0.000000000               0.225112112              -0.452859497               0.000000000               0.237556056              -0.476429749               0.000000000               0.250000000              -0.500000000               0.000000000               0.038607862              -0.127273065               0.000000000               0.047913621              -0.150568498               0.000000000               0.057219379              -0.173863932               0.000000000               0.066525138              -0.197159365               0.000000000               0.075830897              -0.220454798               0.000000000               0.085136655              -0.243750232               0.000000000               0.094442414              -0.267045665               0.000000000               0.103748172              -0.290341099               0.000000000               0.113053931              -0.313636532               0.000000000               0.122359690              -0.336931966               0.000000000               0.131665448              -0.360227399               0.000000000               0.140971207              -0.383522833               0.000000000               0.150276966              -0.406818266               0.000000000               0.159582724              -0.430113700               0.000000000               0.168888483              -0.453409133               0.000000000               0.178194241              -0.476704567               0.000000000               0.187500000              -0.500000000               0.000000000               0.025947013              -0.130444442               0.000000000               0.032137825              -0.153541665               0.000000000               0.038328636              -0.176638887               0.000000000               0.044519448              -0.199736109               0.000000000               0.050710260              -0.222833332               0.000000000               0.056901071              -0.245930554               0.000000000               0.063091883              -0.269027776               0.000000000               0.069282695              -0.292124999               0.000000000               0.075473506              -0.315222221               0.000000000               0.081664318              -0.338319444               0.000000000               0.087855130              -0.361416666               0.000000000               0.094045942              -0.384513888               0.000000000               0.100236753              -0.407611111               0.000000000               0.106427565              -0.430708333               0.000000000               0.112618377              -0.453805555               0.000000000               0.118809188              -0.476902778               0.000000000               0.125000000              -0.500000000               0.000000000               0.013036280              -0.132359569               0.000000000               0.016127762              -0.155337096               0.000000000               0.019219245              -0.178314623               0.000000000               0.022310727              -0.201292150               0.000000000               0.025402210              -0.224269676               0.000000000               0.028493692              -0.247247203               0.000000000               0.031585175              -0.270224730               0.000000000               0.034676657              -0.293202257               0.000000000               0.037768140              -0.316179784               0.000000000               0.040859622              -0.339157311               0.000000000               0.043951105              -0.362134838               0.000000000               0.047042587              -0.385112365               0.000000000               0.050134070              -0.408089892               0.000000000               0.053225552              -0.431067419               0.000000000               0.056317035              -0.454044946               0.000000000               0.059408517              -0.477022473               0.000000000               0.062500000              -0.500000000               0.000000000               0.000000000              -0.133000000               0.000000000               0.000000000              -0.155937500               0.000000000               0.000000000              -0.178875000               0.000000000               0.000000000              -0.201812500               0.000000000               0.000000000              -0.224750000               0.000000000               0.000000000              -0.247687500               0.000000000               0.000000000              -0.270625000               0.000000000               0.000000000              -0.293562500               0.000000000               0.000000000              -0.316500000               0.000000000               0.000000000              -0.339437500               0.000000000               0.000000000              -0.362375000               0.000000000               0.000000000              -0.385312500               0.000000000               0.000000000              -0.408250000               0.000000000               0.000000000              -0.431187500               0.000000000               0.000000000              -0.454125000               0.000000000               0.000000000              -0.477062500               0.000000000               0.000000000              -0.500000000               0.000000000              -0.133000000               0.000000000               0.000000000              -0.155937500               0.000000000               0.000000000              -0.178875000               0.000000000               0.000000000              -0.201812500               0.000000000               0.000000000              -0.224750000               0.000000000               0.000000000              -0.247687500               0.000000000               0.000000000              -0.270625000               0.000000000               0.000000000              -0.293562500               0.000000000               0.000000000              -0.316500000               0.000000000               0.000000000              -0.339437500               0.000000000               0.000000000              -0.362375000               0.000000000               0.000000000              -0.385312500               0.000000000               0.000000000              -0.408250000               0.000000000               0.000000000              -0.431187500               0.000000000               0.000000000              -0.454125000               0.000000000               0.000000000              -0.477062500               0.000000000               0.000000000              -0.500000000               0.000000000               0.000000000              -0.132359569              -0.013036280               0.000000000              -0.155337096              -0.016127762               0.000000000              -0.178314623              -0.019219245               0.000000000              -0.201292150              -0.022310727               0.000000000              -0.224269676              -0.025402210               0.000000000              -0.247247203              -0.028493692               0.000000000              -0.270224730              -0.031585175               0.000000000              -0.293202257              -0.034676657               0.000000000              -0.316179784              -0.037768140               0.000000000              -0.339157311              -0.040859622               0.000000000              -0.362134838              -0.043951105               0.000000000              -0.385112365              -0.047042587               0.000000000              -0.408089892              -0.050134070               0.000000000              -0.431067419              -0.053225552               0.000000000              -0.454044946              -0.056317035               0.000000000              -0.477022473              -0.059408517               0.000000000              -0.500000000              -0.062500000               0.000000000              -0.130444442              -0.025947013               0.000000000              -0.153541665              -0.032137825               0.000000000              -0.176638887              -0.038328636               0.000000000              -0.199736109              -0.044519448               0.000000000              -0.222833332              -0.050710260               0.000000000              -0.245930554              -0.056901071               0.000000000              -0.269027776              -0.063091883               0.000000000              -0.292124999              -0.069282695               0.000000000              -0.315222221              -0.075473506               0.000000000              -0.338319444              -0.081664318               0.000000000              -0.361416666              -0.087855130               0.000000000              -0.384513888              -0.094045942               0.000000000              -0.407611111              -0.100236753               0.000000000              -0.430708333              -0.106427565               0.000000000              -0.453805555              -0.112618377               0.000000000              -0.476902778              -0.118809188               0.000000000              -0.500000000              -0.125000000               0.000000000              -0.127273065              -0.038607862               0.000000000              -0.150568498              -0.047913621               0.000000000              -0.173863932              -0.057219379               0.000000000              -0.197159365              -0.066525138               0.000000000              -0.220454798              -0.075830897               0.000000000              -0.243750232              -0.085136655               0.000000000              -0.267045665              -0.094442414               0.000000000              -0.290341099              -0.103748172               0.000000000              -0.313636532              -0.113053931               0.000000000              -0.336931966              -0.122359690               0.000000000              -0.360227399              -0.131665448               0.000000000              -0.383522833              -0.140971207               0.000000000              -0.406818266              -0.150276966               0.000000000              -0.430113700              -0.159582724               0.000000000              -0.453409133              -0.168888483               0.000000000              -0.476704567              -0.178194241               0.000000000              -0.500000000              -0.187500000               0.000000000              -0.122875978              -0.050896897               0.000000000              -0.146446229              -0.063340840               0.000000000              -0.170016481              -0.075784784               0.000000000              -0.193586732              -0.088228728               0.000000000              -0.217156983              -0.100672672               0.000000000              -0.240727235              -0.113116616               0.000000000              -0.264297486              -0.125560560               0.000000000              -0.287867738              -0.138004504               0.000000000              -0.311437989              -0.150448448               0.000000000              -0.335008240              -0.162892392               0.000000000              -0.358578492              -0.175336336               0.000000000              -0.382148743              -0.187780280               0.000000000              -0.405718994              -0.200224224               0.000000000              -0.429289246              -0.212668168               0.000000000              -0.452859497              -0.225112112               0.000000000              -0.476429749              -0.237556056               0.000000000              -0.500000000              -0.250000000               0.000000000              -0.117295528              -0.062695766               0.000000000              -0.141214558              -0.078308531               0.000000000              -0.165133587              -0.093921295               0.000000000              -0.189052617              -0.109534060               0.000000000              -0.212971646              -0.125146824               0.000000000              -0.236890676              -0.140759589               0.000000000              -0.260809705              -0.156372354               0.000000000              -0.284728735              -0.171985118               0.000000000              -0.308647764              -0.187597883               0.000000000              -0.332566794              -0.203210648               0.000000000              -0.356485823              -0.218823412               0.000000000              -0.380404853              -0.234436177               0.000000000              -0.404323882              -0.250048941               0.000000000              -0.428242912              -0.265661706               0.000000000              -0.452161941              -0.281274471               0.000000000              -0.476080971              -0.296887235               0.000000000              -0.500000000              -0.312500000               0.000000000              -0.110585458              -0.073890841               0.000000000              -0.134923867              -0.092710163               0.000000000              -0.159262276              -0.111529486               0.000000000              -0.183600685              -0.130348808               0.000000000              -0.207939094              -0.149168131               0.000000000              -0.232277503              -0.167987453               0.000000000              -0.256615912              -0.186806776               0.000000000              -0.280954320              -0.205626098               0.000000000              -0.305292729              -0.224445420               0.000000000              -0.329631138              -0.243264743               0.000000000              -0.353969547              -0.262084065               0.000000000              -0.378307956              -0.280903388               0.000000000              -0.402646365              -0.299722710               0.000000000              -0.426984773              -0.318542033               0.000000000              -0.451323182              -0.337361355               0.000000000              -0.475661591              -0.356180678               0.000000000              -0.500000000              -0.375000000               0.000000000              -0.102810390              -0.084374307               0.000000000              -0.127634741              -0.106444663               0.000000000              -0.152459092              -0.128515018               0.000000000              -0.177283442              -0.150585374               0.000000000              -0.202107793              -0.172655730               0.000000000              -0.226932143              -0.194726086               0.000000000              -0.251756494              -0.216796442               0.000000000              -0.276580845              -0.238866798               0.000000000              -0.301405195              -0.260937153               0.000000000              -0.326229546              -0.283007509               0.000000000              -0.351053896              -0.305077865               0.000000000              -0.375878247              -0.327148221               0.000000000              -0.400702598              -0.349218577               0.000000000              -0.425526948              -0.371288933               0.000000000              -0.450351299              -0.393359288               0.000000000              -0.475175649              -0.415429644               0.000000000              -0.500000000              -0.437500000               0.000000000              -0.094045202              -0.094045202               0.000000000              -0.119417377              -0.119417377               0.000000000              -0.144789552              -0.144789552               0.000000000              -0.170161727              -0.170161727               0.000000000              -0.195533901              -0.195533901               0.000000000              -0.220906076              -0.220906076               0.000000000              -0.246278251              -0.246278251               0.000000000              -0.271650426              -0.271650426               0.000000000              -0.297022601              -0.297022601               0.000000000              -0.322394776              -0.322394776               0.000000000              -0.347766951              -0.347766951               0.000000000              -0.373139126              -0.373139126               0.000000000              -0.398511300              -0.398511300               0.000000000              -0.423883475              -0.423883475               0.000000000              -0.449255650              -0.449255650               0.000000000              -0.474627825              -0.474627825               0.000000000              -0.500000000              -0.500000000               0.000000000              -0.084374307              -0.102810390               0.000000000              -0.106444663              -0.127634741               0.000000000              -0.128515018              -0.152459092               0.000000000              -0.150585374              -0.177283442               0.000000000              -0.172655730              -0.202107793               0.000000000              -0.194726086              -0.226932143               0.000000000              -0.216796442              -0.251756494               0.000000000              -0.238866798              -0.276580845               0.000000000              -0.260937153              -0.301405195               0.000000000              -0.283007509              -0.326229546               0.000000000              -0.305077865              -0.351053896               0.000000000              -0.327148221              -0.375878247               0.000000000              -0.349218577              -0.400702598               0.000000000              -0.371288933              -0.425526948               0.000000000              -0.393359288              -0.450351299               0.000000000              -0.415429644              -0.475175649               0.000000000              -0.437500000              -0.500000000               0.000000000              -0.073890841              -0.110585458               0.000000000              -0.092710163              -0.134923867               0.000000000              -0.111529486              -0.159262276               0.000000000              -0.130348808              -0.183600685               0.000000000              -0.149168131              -0.207939094               0.000000000              -0.167987453              -0.232277503               0.000000000              -0.186806776              -0.256615912               0.000000000              -0.205626098              -0.280954320               0.000000000              -0.224445420              -0.305292729               0.000000000              -0.243264743              -0.329631138               0.000000000              -0.262084065              -0.353969547               0.000000000              -0.280903388              -0.378307956               0.000000000              -0.299722710              -0.402646365               0.000000000              -0.318542033              -0.426984773               0.000000000              -0.337361355              -0.451323182               0.000000000              -0.356180678              -0.475661591               0.000000000              -0.375000000              -0.500000000               0.000000000              -0.062695766              -0.117295528               0.000000000              -0.078308531              -0.141214558               0.000000000              -0.093921295              -0.165133587               0.000000000              -0.109534060              -0.189052617               0.000000000              -0.125146824              -0.212971646               0.000000000              -0.140759589              -0.236890676               0.000000000              -0.156372354              -0.260809705               0.000000000              -0.171985118              -0.284728735               0.000000000              -0.187597883              -0.308647764               0.000000000              -0.203210648              -0.332566794               0.000000000              -0.218823412              -0.356485823               0.000000000              -0.234436177              -0.380404853               0.000000000              -0.250048941              -0.404323882               0.000000000              -0.265661706              -0.428242912               0.000000000              -0.281274471              -0.452161941               0.000000000              -0.296887235              -0.476080971               0.000000000              -0.312500000              -0.500000000               0.000000000              -0.050896897              -0.122875978               0.000000000              -0.063340840              -0.146446229               0.000000000              -0.075784784              -0.170016481               0.000000000              -0.088228728              -0.193586732               0.000000000              -0.100672672              -0.217156983               0.000000000              -0.113116616              -0.240727235               0.000000000              -0.125560560              -0.264297486               0.000000000              -0.138004504              -0.287867738               0.000000000              -0.150448448              -0.311437989               0.000000000              -0.162892392              -0.335008240               0.000000000              -0.175336336              -0.358578492               0.000000000              -0.187780280              -0.382148743               0.000000000              -0.200224224              -0.405718994               0.000000000              -0.212668168              -0.429289246               0.000000000              -0.225112112              -0.452859497               0.000000000              -0.237556056              -0.476429749               0.000000000              -0.250000000              -0.500000000               0.000000000              -0.038607862              -0.127273065               0.000000000              -0.047913621              -0.150568498               0.000000000              -0.057219379              -0.173863932               0.000000000              -0.066525138              -0.197159365               0.000000000              -0.075830897              -0.220454798               0.000000000              -0.085136655              -0.243750232               0.000000000              -0.094442414              -0.267045665               0.000000000              -0.103748172              -0.290341099               0.000000000              -0.113053931              -0.313636532               0.000000000              -0.122359690              -0.336931966               0.000000000              -0.131665448              -0.360227399               0.000000000              -0.140971207              -0.383522833               0.000000000              -0.150276966              -0.406818266               0.000000000              -0.159582724              -0.430113700               0.000000000              -0.168888483              -0.453409133               0.000000000              -0.178194241              -0.476704567               0.000000000              -0.187500000              -0.500000000               0.000000000              -0.025947013              -0.130444442               0.000000000              -0.032137825              -0.153541665               0.000000000              -0.038328636              -0.176638887               0.000000000              -0.044519448              -0.199736109               0.000000000              -0.050710260              -0.222833332               0.000000000              -0.056901071              -0.245930554               0.000000000              -0.063091883              -0.269027776               0.000000000              -0.069282695              -0.292124999               0.000000000              -0.075473506              -0.315222221               0.000000000              -0.081664318              -0.338319444               0.000000000              -0.087855130              -0.361416666               0.000000000              -0.094045942              -0.384513888               0.000000000              -0.100236753              -0.407611111               0.000000000              -0.106427565              -0.430708333               0.000000000              -0.112618377              -0.453805555               0.000000000              -0.118809188              -0.476902778               0.000000000              -0.125000000              -0.500000000               0.000000000              -0.013036280              -0.132359569               0.000000000              -0.016127762              -0.155337096               0.000000000              -0.019219245              -0.178314623               0.000000000              -0.022310727              -0.201292150               0.000000000              -0.025402210              -0.224269676               0.000000000              -0.028493692              -0.247247203               0.000000000              -0.031585175              -0.270224730               0.000000000              -0.034676657              -0.293202257               0.000000000              -0.037768140              -0.316179784               0.000000000              -0.040859622              -0.339157311               0.000000000              -0.043951105              -0.362134838               0.000000000              -0.047042587              -0.385112365               0.000000000              -0.050134070              -0.408089892               0.000000000              -0.053225552              -0.431067419               0.000000000              -0.056317035              -0.454044946               0.000000000              -0.059408517              -0.477022473               0.000000000              -0.062500000              -0.500000000               0.000000000               0.000000000              -0.133000000               0.000000000               0.000000000              -0.155937500               0.000000000               0.000000000              -0.178875000               0.000000000               0.000000000              -0.201812500               0.000000000               0.000000000              -0.224750000               0.000000000               0.000000000              -0.247687500               0.000000000               0.000000000              -0.270625000               0.000000000               0.000000000              -0.293562500               0.000000000               0.000000000              -0.316500000               0.000000000               0.000000000              -0.339437500               0.000000000               0.000000000              -0.362375000               0.000000000               0.000000000              -0.385312500               0.000000000               0.000000000              -0.408250000               0.000000000               0.000000000              -0.431187500               0.000000000               0.000000000              -0.454125000               0.000000000               0.000000000              -0.477062500               0.000000000               0.000000000              -0.500000000               0.000000000              -0.133000000               0.000000000               0.000000000              -0.155937500               0.000000000               0.000000000              -0.178875000               0.000000000               0.000000000              -0.201812500               0.000000000               0.000000000              -0.224750000               0.000000000               0.000000000              -0.247687500               0.000000000               0.000000000              -0.270625000               0.000000000               0.000000000              -0.293562500               0.000000000               0.000000000              -0.316500000               0.000000000               0.000000000              -0.339437500               0.000000000               0.000000000              -0.362375000               0.000000000               0.000000000              -0.385312500               0.000000000               0.000000000              -0.408250000               0.000000000               0.000000000              -0.431187500               0.000000000               0.000000000              -0.454125000               0.000000000               0.000000000              -0.477062500               0.000000000               0.000000000              -0.500000000               0.000000000               0.000000000              -0.132359569               0.013036280               0.000000000              -0.155337096               0.016127762               0.000000000              -0.178314623               0.019219245               0.000000000              -0.201292150               0.022310727               0.000000000              -0.224269676               0.025402210               0.000000000              -0.247247203               0.028493692               0.000000000              -0.270224730               0.031585175               0.000000000              -0.293202257               0.034676657               0.000000000              -0.316179784               0.037768140               0.000000000              -0.339157311               0.040859622               0.000000000              -0.362134838               0.043951105               0.000000000              -0.385112365               0.047042587               0.000000000              -0.408089892               0.050134070               0.000000000              -0.431067419               0.053225552               0.000000000              -0.454044946               0.056317035               0.000000000              -0.477022473               0.059408517               0.000000000              -0.500000000               0.062500000               0.000000000              -0.130444442               0.025947013               0.000000000              -0.153541665               0.032137825               0.000000000              -0.176638887               0.038328636               0.000000000              -0.199736109               0.044519448               0.000000000              -0.222833332               0.050710260               0.000000000              -0.245930554               0.056901071               0.000000000              -0.269027776               0.063091883               0.000000000              -0.292124999               0.069282695               0.000000000              -0.315222221               0.075473506               0.000000000              -0.338319444               0.081664318               0.000000000              -0.361416666               0.087855130               0.000000000              -0.384513888               0.094045942               0.000000000              -0.407611111               0.100236753               0.000000000              -0.430708333               0.106427565               0.000000000              -0.453805555               0.112618377               0.000000000              -0.476902778               0.118809188               0.000000000              -0.500000000               0.125000000               0.000000000              -0.127273065               0.038607862               0.000000000              -0.150568498               0.047913621               0.000000000              -0.173863932               0.057219379               0.000000000              -0.197159365               0.066525138               0.000000000              -0.220454798               0.075830897               0.000000000              -0.243750232               0.085136655               0.000000000              -0.267045665               0.094442414               0.000000000              -0.290341099               0.103748172               0.000000000              -0.313636532               0.113053931               0.000000000              -0.336931966               0.122359690               0.000000000              -0.360227399               0.131665448               0.000000000              -0.383522833               0.140971207               0.000000000              -0.406818266               0.150276966               0.000000000              -0.430113700               0.159582724               0.000000000              -0.453409133               0.168888483               0.000000000              -0.476704567               0.178194241               0.000000000              -0.500000000               0.187500000               0.000000000              -0.122875978               0.050896897               0.000000000              -0.146446229               0.063340840               0.000000000              -0.170016481               0.075784784               0.000000000              -0.193586732               0.088228728               0.000000000              -0.217156983               0.100672672               0.000000000              -0.240727235               0.113116616               0.000000000              -0.264297486               0.125560560               0.000000000              -0.287867738               0.138004504               0.000000000              -0.311437989               0.150448448               0.000000000              -0.335008240               0.162892392               0.000000000              -0.358578492               0.175336336               0.000000000              -0.382148743               0.187780280               0.000000000              -0.405718994               0.200224224               0.000000000              -0.429289246               0.212668168               0.000000000              -0.452859497               0.225112112               0.000000000              -0.476429749               0.237556056               0.000000000              -0.500000000               0.250000000               0.000000000              -0.117295528               0.062695766               0.000000000              -0.141214558               0.078308531               0.000000000              -0.165133587               0.093921295               0.000000000              -0.189052617               0.109534060               0.000000000              -0.212971646               0.125146824               0.000000000              -0.236890676               0.140759589               0.000000000              -0.260809705               0.156372354               0.000000000              -0.284728735               0.171985118               0.000000000              -0.308647764               0.187597883               0.000000000              -0.332566794               0.203210648               0.000000000              -0.356485823               0.218823412               0.000000000              -0.380404853               0.234436177               0.000000000              -0.404323882               0.250048941               0.000000000              -0.428242912               0.265661706               0.000000000              -0.452161941               0.281274471               0.000000000              -0.476080971               0.296887235               0.000000000              -0.500000000               0.312500000               0.000000000              -0.110585458               0.073890841               0.000000000              -0.134923867               0.092710163               0.000000000              -0.159262276               0.111529486               0.000000000              -0.183600685               0.130348808               0.000000000              -0.207939094               0.149168131               0.000000000              -0.232277503               0.167987453               0.000000000              -0.256615912               0.186806776               0.000000000              -0.280954320               0.205626098               0.000000000              -0.305292729               0.224445420               0.000000000              -0.329631138               0.243264743               0.000000000              -0.353969547               0.262084065               0.000000000              -0.378307956               0.280903388               0.000000000              -0.402646365               0.299722710               0.000000000              -0.426984773               0.318542033               0.000000000              -0.451323182               0.337361355               0.000000000              -0.475661591               0.356180678               0.000000000              -0.500000000               0.375000000               0.000000000              -0.102810390               0.084374307               0.000000000              -0.127634741               0.106444663               0.000000000              -0.152459092               0.128515018               0.000000000              -0.177283442               0.150585374               0.000000000              -0.202107793               0.172655730               0.000000000              -0.226932143               0.194726086               0.000000000              -0.251756494               0.216796442               0.000000000              -0.276580845               0.238866798               0.000000000              -0.301405195               0.260937153               0.000000000              -0.326229546               0.283007509               0.000000000              -0.351053896               0.305077865               0.000000000              -0.375878247               0.327148221               0.000000000              -0.400702598               0.349218577               0.000000000              -0.425526948               0.371288933               0.000000000              -0.450351299               0.393359288               0.000000000              -0.475175649               0.415429644               0.000000000              -0.500000000               0.437500000               0.000000000              -0.094045202               0.094045202               0.000000000              -0.119417377               0.119417377               0.000000000              -0.144789552               0.144789552               0.000000000              -0.170161727               0.170161727               0.000000000              -0.195533901               0.195533901               0.000000000              -0.220906076               0.220906076               0.000000000              -0.246278251               0.246278251               0.000000000              -0.271650426               0.271650426               0.000000000              -0.297022601               0.297022601               0.000000000              -0.322394776               0.322394776               0.000000000              -0.347766951               0.347766951               0.000000000              -0.373139126               0.373139126               0.000000000              -0.398511300               0.398511300               0.000000000              -0.423883475               0.423883475               0.000000000              -0.449255650               0.449255650               0.000000000              -0.474627825               0.474627825               0.000000000              -0.500000000               0.500000000               0.000000000              -0.084374307               0.102810390               0.000000000              -0.106444663               0.127634741               0.000000000              -0.128515018               0.152459092               0.000000000              -0.150585374               0.177283442               0.000000000              -0.172655730               0.202107793               0.000000000              -0.194726086               0.226932143               0.000000000              -0.216796442               0.251756494               0.000000000              -0.238866798               0.276580845               0.000000000              -0.260937153               0.301405195               0.000000000              -0.283007509               0.326229546               0.000000000              -0.305077865               0.351053896               0.000000000              -0.327148221               0.375878247               0.000000000              -0.349218577               0.400702598               0.000000000              -0.371288933               0.425526948               0.000000000              -0.393359288               0.450351299               0.000000000              -0.415429644               0.475175649               0.000000000              -0.437500000               0.500000000               0.000000000              -0.073890841               0.110585458               0.000000000              -0.092710163               0.134923867               0.000000000              -0.111529486               0.159262276               0.000000000              -0.130348808               0.183600685               0.000000000              -0.149168131               0.207939094               0.000000000              -0.167987453               0.232277503               0.000000000              -0.186806776               0.256615912               0.000000000              -0.205626098               0.280954320               0.000000000              -0.224445420               0.305292729               0.000000000              -0.243264743               0.329631138               0.000000000              -0.262084065               0.353969547               0.000000000              -0.280903388               0.378307956               0.000000000              -0.299722710               0.402646365               0.000000000              -0.318542033               0.426984773               0.000000000              -0.337361355               0.451323182               0.000000000              -0.356180678               0.475661591               0.000000000              -0.375000000               0.500000000               0.000000000              -0.062695766               0.117295528               0.000000000              -0.078308531               0.141214558               0.000000000              -0.093921295               0.165133587               0.000000000              -0.109534060               0.189052617               0.000000000              -0.125146824               0.212971646               0.000000000              -0.140759589               0.236890676               0.000000000              -0.156372354               0.260809705               0.000000000              -0.171985118               0.284728735               0.000000000              -0.187597883               0.308647764               0.000000000              -0.203210648               0.332566794               0.000000000              -0.218823412               0.356485823               0.000000000              -0.234436177               0.380404853               0.000000000              -0.250048941               0.404323882               0.000000000              -0.265661706               0.428242912               0.000000000              -0.281274471               0.452161941               0.000000000              -0.296887235               0.476080971               0.000000000              -0.312500000               0.500000000               0.000000000              -0.050896897               0.122875978               0.000000000              -0.063340840               0.146446229               0.000000000              -0.075784784               0.170016481               0.000000000              -0.088228728               0.193586732               0.000000000              -0.100672672               0.217156983               0.000000000              -0.113116616               0.240727235               0.000000000              -0.125560560               0.264297486               0.000000000              -0.138004504               0.287867738               0.000000000              -0.150448448               0.311437989               0.000000000              -0.162892392               0.335008240               0.000000000              -0.175336336               0.358578492               0.000000000              -0.187780280               0.382148743               0.000000000              -0.200224224               0.405718994               0.000000000              -0.212668168               0.429289246               0.000000000              -0.225112112               0.452859497               0.000000000              -0.237556056               0.476429749               0.000000000              -0.250000000               0.500000000               0.000000000              -0.038607862               0.127273065               0.000000000              -0.047913621               0.150568498               0.000000000              -0.057219379               0.173863932               0.000000000              -0.066525138               0.197159365               0.000000000              -0.075830897               0.220454798               0.000000000              -0.085136655               0.243750232               0.000000000              -0.094442414               0.267045665               0.000000000              -0.103748172               0.290341099               0.000000000              -0.113053931               0.313636532               0.000000000              -0.122359690               0.336931966               0.000000000              -0.131665448               0.360227399               0.000000000              -0.140971207               0.383522833               0.000000000              -0.150276966               0.406818266               0.000000000              -0.159582724               0.430113700               0.000000000              -0.168888483               0.453409133               0.000000000              -0.178194241               0.476704567               0.000000000              -0.187500000               0.500000000               0.000000000              -0.025947013               0.130444442               0.000000000              -0.032137825               0.153541665               0.000000000              -0.038328636               0.176638887               0.000000000              -0.044519448               0.199736109               0.000000000              -0.050710260               0.222833332               0.000000000              -0.056901071               0.245930554               0.000000000              -0.063091883               0.269027776               0.000000000              -0.069282695               0.292124999               0.000000000              -0.075473506               0.315222221               0.000000000              -0.081664318               0.338319444               0.000000000              -0.087855130               0.361416666               0.000000000              -0.094045942               0.384513888               0.000000000              -0.100236753               0.407611111               0.000000000              -0.106427565               0.430708333               0.000000000              -0.112618377               0.453805555               0.000000000              -0.118809188               0.476902778               0.000000000              -0.125000000               0.500000000               0.000000000              -0.013036280               0.132359569               0.000000000              -0.016127762               0.155337096               0.000000000              -0.019219245               0.178314623               0.000000000              -0.022310727               0.201292150               0.000000000              -0.025402210               0.224269676               0.000000000              -0.028493692               0.247247203               0.000000000              -0.031585175               0.270224730               0.000000000              -0.034676657               0.293202257               0.000000000              -0.037768140               0.316179784               0.000000000              -0.040859622               0.339157311               0.000000000              -0.043951105               0.362134838               0.000000000              -0.047042587               0.385112365               0.000000000              -0.050134070               0.408089892               0.000000000              -0.053225552               0.431067419               0.000000000              -0.056317035               0.454044946               0.000000000              -0.059408517               0.477022473               0.000000000              -0.062500000               0.500000000               0.000000000               0.000000000               0.133000000               0.000000000               0.000000000               0.155937500               0.000000000               0.000000000               0.178875000               0.000000000               0.000000000               0.201812500               0.000000000               0.000000000               0.224750000               0.000000000               0.000000000               0.247687500               0.000000000               0.000000000               0.270625000               0.000000000               0.000000000               0.293562500               0.000000000               0.000000000               0.316500000               0.000000000               0.000000000               0.339437500               0.000000000               0.000000000               0.362375000               0.000000000               0.000000000               0.385312500               0.000000000               0.000000000               0.408250000               0.000000000               0.000000000               0.431187500               0.000000000               0.000000000               0.454125000               0.000000000               0.000000000               0.477062500               0.000000000               0.000000000               0.500000000               0.000000000 </DataArray>
</Points>
<Cells>
<DataArray type="Int32"                                    Name="connectivity"                                                      NumberOfComponents=" 1" format="ascii">
         0          1         18         17          1          2         19         18          2          3         20         19          3          4         21         20          4          5         22         21          5          6         23         22          6          7         24         23          7          8         25         24          8          9         26         25          9         10         27         26         10         11         28         27         11         12         29         28         12         13         30         29         13         14         31         30         14         15         32         31         15         16         33         32         17         18         35         34         18         19         36         35         19         20         37         36         20         21         38         37         21         22         39         38         22         23         40         39         23         24         41         40         24         25         42         41         25         26         43         42         26         27         44         43         27         28         45         44         28         29         46         45         29         30         47         46         30         31         48         47         31         32         49         48         32         33         50         49         34         35         52         51         35         36         53         52         36         37         54         53         37         38         55         54         38         39         56         55         39         40         57         56         40         41         58         57         41         42         59         58         42         43         60         59         43         44         61         60         44         45         62         61         45         46         63         62         46         47         64         63         47         48         65         64         48         49         66         65         49         50         67         66         51         52         69         68         52         53         70         69         53         54         71         70         54         55         72         71         55         56         73         72         56         57         74         73         57         58         75         74         58         59         76         75         59         60         77         76         60         61         78         77         61         62         79         78         62         63         80         79         63         64         81         80         64         65         82         81         65         66         83         82         66         67         84         83         68         69         86         85         69         70         87         86         70         71         88         87         71         72         89         88         72         73         90         89         73         74         91         90         74         75         92         91         75         76         93         92         76         77         94         93         77         78         95         94         78         79         96         95         79         80         97         96         80         81         98         97         81         82         99         98         82         83        100         99         83         84        101        100         85         86        103        102         86         87        104        103         87         88        105        104         88         89        106        105         89         90        107        106         90         91        108        107         91         92        109        108         92         93        110        109         93         94        111        110         94         95        112        111         95         96        113        112         96         97        114        113         97         98        115        114         98         99        116        115         99        100        117        116        100        101        118        117        102        103        120        119        103        104        121        120        104        105        122        121        105        106        123        122        106        107        124        123        107        108        125        124        108        109        126        125        109        110        127        126        110        111        128        127        111        112        129        128        112        113        130        129        113        114        131        130        114        115        132        131        115        116        133        132        116        117        134        133        117        118        135        134        119        120        137        136        120        121        138        137        121        122        139        138        122        123        140        139        123        124        141        140        124        125        142        141        125        126        143        142        126        127        144        143        127        128        145        144        128        129        146        145        129        130        147        146        130        131        148        147        131        132        149        148        132        133        150        149        133        134        151        150        134        135        152        151        136        137        154        153        137        138        155        154        138        139        156        155        139        140        157        156        140        141        158        157        141        142        159        158        142        143        160        159        143        144        161        160        144        145        162        161        145        146        163        162        146        147        164        163        147        148        165        164        148        149        166        165        149        150        167        166        150        151        168        167        151        152        169        168        153        154        171        170        154        155        172        171        155        156        173        172        156        157        174        173        157        158        175        174        158        159        176        175        159        160        177        176        160        161        178        177        161        162        179        178        162        163        180        179        163        164        181        180        164        165        182        181        165        166        183        182        166        167        184        183        167        168        185        184        168        169        186        185        170        171        188        187        171        172        189        188        172        173        190        189        173        174        191        190        174        175        192        191        175        176        193        192        176        177        194        193        177        178        195        194        178        179        196        195        179        180        197        196        180        181        198        197        181        182        199        198        182        183        200        199        183        184        201        200        184        185        202        201        185        186        203        202        187        188        205        204        188        189        206        205        189        190        207        206        190        191        208        207        191        192        209        208        192        193        210        209        193        194        211        210        194        195        212        211        195        196        213        212        196        197        214        213        197        198        215        214        198        199        216        215        199        200        217        216        200        201        218        217        201        202        219        218        202        203        220        219        204        205        222        221        205        206        223        222        206        207        224        223        207        208        225        224        208        209        226        225        209        210        227        226        210        211        228        227        211        212        229        228        212        213        230        229        213        214        231        230        214        215        232        231        215        216        233        232        216        217        234        233        217        218        235        234        218        219        236        235        219        220        237        236        221        222        239        238        222        223        240        239        223        224        241        240        224        225        242        241        225        226        243        242        226        227        244        243        227        228        245        244        228        229        246        245        229        230        247        246        230        231        248        247        231        232        249        248        232        233        250        249        233        234        251        250        234        235        252        251        235        236        253        252        236        237        254        253        238        239        256        255        239        240        257        256        240        241        258        257        241        242        259        258        242        243        260        259        243        244        261        260        244        245        262        261        245        246        263        262        246        247        264        263        247        248        265        264        248        249        266        265        249        250        267        266        250        251        268        267        251        252        269        268        252        253        270        269        253        254        271        270        255        256        273        272        256        257        274        273        257        258        275        274        258        259        276        275        259        260        277        276        260        261        278        277        261        262        279        278        262        263        280        279        263        264        281        280        264        265        282        281        265        266        283        282        266        267        284        283        267        268        285        284        268        269        286        285        269        270        287        286        270        271        288        287        306        307          1          0        307        308          2          1        308        309          3          2        309        310          4          3        310        311          5          4        311        312          6          5        312        313          7          6        313        314          8          7        314        315          9          8        315        316         10          9        316        317         11         10        317        318         12         11        318        319         13         12        319        320         14         13        320        321         15         14        321        322         16         15        323        324        307        306        324        325        308        307        325        326        309        308        326        327        310        309        327        328        311        310        328        329        312        311        329        330        313        312        330        331        314        313        331        332        315        314        332        333        316        315        333        334        317        316        334        335        318        317        335        336        319        318        336        337        320        319        337        338        321        320        338        339        322        321        340        341        324        323        341        342        325        324        342        343        326        325        343        344        327        326        344        345        328        327        345        346        329        328        346        347        330        329        347        348        331        330        348        349        332        331        349        350        333        332        350        351        334        333        351        352        335        334        352        353        336        335        353        354        337        336        354        355        338        337        355        356        339        338        357        358        341        340        358        359        342        341        359        360        343        342        360        361        344        343        361        362        345        344        362        363        346        345        363        364        347        346        364        365        348        347        365        366        349        348        366        367        350        349        367        368        351        350        368        369        352        351        369        370        353        352        370        371        354        353        371        372        355        354        372        373        356        355        374        375        358        357        375        376        359        358        376        377        360        359        377        378        361        360        378        379        362        361        379        380        363        362        380        381        364        363        381        382        365        364        382        383        366        365        383        384        367        366        384        385        368        367        385        386        369        368        386        387        370        369        387        388        371        370        388        389        372        371        389        390        373        372        391        392        375        374        392        393        376        375        393        394        377        376        394        395        378        377        395        396        379        378        396        397        380        379        397        398        381        380        398        399        382        381        399        400        383        382        400        401        384        383        401        402        385        384        402        403        386        385        403        404        387        386        404        405        388        387        405        406        389        388        406        407        390        389        408        409        392        391        409        410        393        392        410        411        394        393        411        412        395        394        412        413        396        395        413        414        397        396        414        415        398        397        415        416        399        398        416        417        400        399        417        418        401        400        418        419        402        401        419        420        403        402        420        421        404        403        421        422        405        404        422        423        406        405        423        424        407        406        425        426        409        408        426        427        410        409        427        428        411        410        428        429        412        411        429        430        413        412        430        431        414        413        431        432        415        414        432        433        416        415        433        434        417        416        434        435        418        417        435        436        419        418        436        437        420        419        437        438        421        420        438        439        422        421        439        440        423        422        440        441        424        423        442        443        426        425        443        444        427        426        444        445        428        427        445        446        429        428        446        447        430        429        447        448        431        430        448        449        432        431        449        450        433        432        450        451        434        433        451        452        435        434        452        453        436        435        453        454        437        436        454        455        438        437        455        456        439        438        456        457        440        439        457        458        441        440        459        460        443        442        460        461        444        443        461        462        445        444        462        463        446        445        463        464        447        446        464        465        448        447        465        466        449        448        466        467        450        449        467        468        451        450        468        469        452        451        469        470        453        452        470        471        454        453        471        472        455        454        472        473        456        455        473        474        457        456        474        475        458        457        476        477        460        459        477        478        461        460        478        479        462        461        479        480        463        462        480        481        464        463        481        482        465        464        482        483        466        465        483        484        467        466        484        485        468        467        485        486        469        468        486        487        470        469        487        488        471        470        488        489        472        471        489        490        473        472        490        491        474        473        491        492        475        474        493        494        477        476        494        495        478        477        495        496        479        478        496        497        480        479        497        498        481        480        498        499        482        481        499        500        483        482        500        501        484        483        501        502        485        484        502        503        486        485        503        504        487        486        504        505        488        487        505        506        489        488        506        507        490        489        507        508        491        490        508        509        492        491        510        511        494        493        511        512        495        494        512        513        496        495        513        514        497        496        514        515        498        497        515        516        499        498        516        517        500        499        517        518        501        500        518        519        502        501        519        520        503        502        520        521        504        503        521        522        505        504        522        523        506        505        523        524        507        506        524        525        508        507        525        526        509        508        527        528        511        510        528        529        512        511        529        530        513        512        530        531        514        513        531        532        515        514        532        533        516        515        533        534        517        516        534        535        518        517        535        536        519        518        536        537        520        519        537        538        521        520        538        539        522        521        539        540        523        522        540        541        524        523        541        542        525        524        542        543        526        525        544        545        528        527        545        546        529        528        546        547        530        529        547        548        531        530        548        549        532        531        549        550        533        532        550        551        534        533        551        552        535        534        552        553        536        535        553        554        537        536        554        555        538        537        555        556        539        538        556        557        540        539        557        558        541        540        558        559        542        541        559        560        543        542        561        562        545        544        562        563        546        545        563        564        547        546        564        565        548        547        565        566        549        548        566        567        550        549        567        568        551        550        568        569        552        551        569        570        553        552        570        571        554        553        571        572        555        554        572        573        556        555        573        574        557        556        574        575        558        557        575        576        559        558        576        577        560        559        578        579        596        595        579        580        597        596        580        581        598        597        581        582        599        598        582        583        600        599        583        584        601        600        584        585        602        601        585        586        603        602        586        587        604        603        587        588        605        604        588        589        606        605        589        590        607        606        590        591        608        607        591        592        609        608        592        593        610        609        593        594        611        610        595        596        613        612        596        597        614        613        597        598        615        614        598        599        616        615        599        600        617        616        600        601        618        617        601        602        619        618        602        603        620        619        603        604        621        620        604        605        622        621        605        606        623        622        606        607        624        623        607        608        625        624        608        609        626        625        609        610        627        626        610        611        628        627        612        613        630        629        613        614        631        630        614        615        632        631        615        616        633        632        616        617        634        633        617        618        635        634        618        619        636        635        619        620        637        636        620        621        638        637        621        622        639        638        622        623        640        639        623        624        641        640        624        625        642        641        625        626        643        642        626        627        644        643        627        628        645        644        629        630        647        646        630        631        648        647        631        632        649        648        632        633        650        649        633        634        651        650        634        635        652        651        635        636        653        652        636        637        654        653        637        638        655        654        638        639        656        655        639        640        657        656        640        641        658        657        641        642        659        658        642        643        660        659        643        644        661        660        644        645        662        661        646        647        664        663        647        648        665        664        648        649        666        665        649        650        667        666        650        651        668        667        651        652        669        668        652        653        670        669        653        654        671        670        654        655        672        671        655        656        673        672        656        657        674        673        657        658        675        674        658        659        676        675        659        660        677        676        660        661        678        677        661        662        679        678        663        664        681        680        664        665        682        681        665        666        683        682        666        667        684        683        667        668        685        684        668        669        686        685        669        670        687        686        670        671        688        687        671        672        689        688        672        673        690        689        673        674        691        690        674        675        692        691        675        676        693        692        676        677        694        693        677        678        695        694        678        679        696        695        680        681        698        697        681        682        699        698        682        683        700        699        683        684        701        700        684        685        702        701        685        686        703        702        686        687        704        703        687        688        705        704        688        689        706        705        689        690        707        706        690        691        708        707        691        692        709        708        692        693        710        709        693        694        711        710        694        695        712        711        695        696        713        712        697        698        715        714        698        699        716        715        699        700        717        716        700        701        718        717        701        702        719        718        702        703        720        719        703        704        721        720        704        705        722        721        705        706        723        722        706        707        724        723        707        708        725        724        708        709        726        725        709        710        727        726        710        711        728        727        711        712        729        728        712        713        730        729        714        715        732        731        715        716        733        732        716        717        734        733        717        718        735        734        718        719        736        735        719        720        737        736        720        721        738        737        721        722        739        738        722        723        740        739        723        724        741        740        724        725        742        741        725        726        743        742        726        727        744        743        727        728        745        744        728        729        746        745        729        730        747        746        731        732        749        748        732        733        750        749        733        734        751        750        734        735        752        751        735        736        753        752        736        737        754        753        737        738        755        754        738        739        756        755        739        740        757        756        740        741        758        757        741        742        759        758        742        743        760        759        743        744        761        760        744        745        762        761        745        746        763        762        746        747        764        763        748        749        766        765        749        750        767        766        750        751        768        767        751        752        769        768        752        753        770        769        753        754        771        770        754        755        772        771        755        756        773        772        756        757        774        773        757        758        775        774        758        759        776        775        759        760        777        776        760        761        778        777        761        762        779        778        762        763        780        779        763        764        781        780        765        766        783        782        766        767        784        783        767        768        785        784        768        769        786        785        769        770        787        786        770        771        788        787        771        772        789        788        772        773        790        789        773        774        791        790        774        775        792        791        775        776        793        792        776        777        794        793        777        778        795        794        778        779        796        795        779        780        797        796        780        781        798        797        782        783        800        799        783        784        801        800        784        785        802        801        785        786        803        802        786        787        804        803        787        788        805        804        788        789        806        805        789        790        807        806        790        791        808        807        791        792        809        808        792        793        810        809        793        794        811        810        794        795        812        811        795        796        813        812        796        797        814        813        797        798        815        814        799        800        817        816        800        801        818        817        801        802        819        818        802        803        820        819        803        804        821        820        804        805        822        821        805        806        823        822        806        807        824        823        807        808        825        824        808        809        826        825        809        810        827        826        810        811        828        827        811        812        829        828        812        813        830        829        813        814        831        830        814        815        832        831        816        817        834        833        817        818        835        834        818        819        836        835        819        820        837        836        820        821        838        837        821        822        839        838        822        823        840        839        823        824        841        840        824        825        842        841        825        826        843        842        826        827        844        843        827        828        845        844        828        829        846        845        829        830        847        846        830        831        848        847        831        832        849        848        833        834        562        561        834        835        563        562        835        836        564        563        836        837        565        564        837        838        566        565        838        839        567        566        839        840        568        567        840        841        569        568        841        842        570        569        842        843        571        570        843        844        572        571        844        845        573        572        845        846        574        573        846        847        575        574        847        848        576        575        848        849        577        576        884        885        579        578        885        886        580        579        886        887        581        580        887        888        582        581        888        889        583        582        889        890        584        583        890        891        585        584        891        892        586        585        892        893        587        586        893        894        588        587        894        895        589        588        895        896        590        589        896        897        591        590        897        898        592        591        898        899        593        592        899        900        594        593        901        902        885        884        902        903        886        885        903        904        887        886        904        905        888        887        905        906        889        888        906        907        890        889        907        908        891        890        908        909        892        891        909        910        893        892        910        911        894        893        911        912        895        894        912        913        896        895        913        914        897        896        914        915        898        897        915        916        899        898        916        917        900        899        918        919        902        901        919        920        903        902        920        921        904        903        921        922        905        904        922        923        906        905        923        924        907        906        924        925        908        907        925        926        909        908        926        927        910        909        927        928        911        910        928        929        912        911        929        930        913        912        930        931        914        913        931        932        915        914        932        933        916        915        933        934        917        916        935        936        919        918        936        937        920        919        937        938        921        920        938        939        922        921        939        940        923        922        940        941        924        923        941        942        925        924        942        943        926        925        943        944        927        926        944        945        928        927        945        946        929        928        946        947        930        929        947        948        931        930        948        949        932        931        949        950        933        932        950        951        934        933        952        953        936        935        953        954        937        936        954        955        938        937        955        956        939        938        956        957        940        939        957        958        941        940        958        959        942        941        959        960        943        942        960        961        944        943        961        962        945        944        962        963        946        945        963        964        947        946        964        965        948        947        965        966        949        948        966        967        950        949        967        968        951        950        969        970        953        952        970        971        954        953        971        972        955        954        972        973        956        955        973        974        957        956        974        975        958        957        975        976        959        958        976        977        960        959        977        978        961        960        978        979        962        961        979        980        963        962        980        981        964        963        981        982        965        964        982        983        966        965        983        984        967        966        984        985        968        967        986        987        970        969        987        988        971        970        988        989        972        971        989        990        973        972        990        991        974        973        991        992        975        974        992        993        976        975        993        994        977        976        994        995        978        977        995        996        979        978        996        997        980        979        997        998        981        980        998        999        982        981        999       1000        983        982       1000       1001        984        983       1001       1002        985        984       1003       1004        987        986       1004       1005        988        987       1005       1006        989        988       1006       1007        990        989       1007       1008        991        990       1008       1009        992        991       1009       1010        993        992       1010       1011        994        993       1011       1012        995        994       1012       1013        996        995       1013       1014        997        996       1014       1015        998        997       1015       1016        999        998       1016       1017       1000        999       1017       1018       1001       1000       1018       1019       1002       1001       1020       1021       1004       1003       1021       1022       1005       1004       1022       1023       1006       1005       1023       1024       1007       1006       1024       1025       1008       1007       1025       1026       1009       1008       1026       1027       1010       1009       1027       1028       1011       1010       1028       1029       1012       1011       1029       1030       1013       1012       1030       1031       1014       1013       1031       1032       1015       1014       1032       1033       1016       1015       1033       1034       1017       1016       1034       1035       1018       1017       1035       1036       1019       1018       1037       1038       1021       1020       1038       1039       1022       1021       1039       1040       1023       1022       1040       1041       1024       1023       1041       1042       1025       1024       1042       1043       1026       1025       1043       1044       1027       1026       1044       1045       1028       1027       1045       1046       1029       1028       1046       1047       1030       1029       1047       1048       1031       1030       1048       1049       1032       1031       1049       1050       1033       1032       1050       1051       1034       1033       1051       1052       1035       1034       1052       1053       1036       1035       1054       1055       1038       1037       1055       1056       1039       1038       1056       1057       1040       1039       1057       1058       1041       1040       1058       1059       1042       1041       1059       1060       1043       1042       1060       1061       1044       1043       1061       1062       1045       1044       1062       1063       1046       1045       1063       1064       1047       1046       1064       1065       1048       1047       1065       1066       1049       1048       1066       1067       1050       1049       1067       1068       1051       1050       1068       1069       1052       1051       1069       1070       1053       1052       1071       1072       1055       1054       1072       1073       1056       1055       1073       1074       1057       1056       1074       1075       1058       1057       1075       1076       1059       1058       1076       1077       1060       1059       1077       1078       1061       1060       1078       1079       1062       1061       1079       1080       1063       1062       1080       1081       1064       1063       1081       1082       1065       1064       1082       1083       1066       1065       1083       1084       1067       1066       1084       1085       1068       1067       1085       1086       1069       1068       1086       1087       1070       1069       1088       1089       1072       1071       1089       1090       1073       1072       1090       1091       1074       1073       1091       1092       1075       1074       1092       1093       1076       1075       1093       1094       1077       1076       1094       1095       1078       1077       1095       1096       1079       1078       1096       1097       1080       1079       1097       1098       1081       1080       1098       1099       1082       1081       1099       1100       1083       1082       1100       1101       1084       1083       1101       1102       1085       1084       1102       1103       1086       1085       1103       1104       1087       1086       1105       1106       1089       1088       1106       1107       1090       1089       1107       1108       1091       1090       1108       1109       1092       1091       1109       1110       1093       1092       1110       1111       1094       1093       1111       1112       1095       1094       1112       1113       1096       1095       1113       1114       1097       1096       1114       1115       1098       1097       1115       1116       1099       1098       1116       1117       1100       1099       1117       1118       1101       1100       1118       1119       1102       1101       1119       1120       1103       1102       1120       1121       1104       1103       1122       1123       1106       1105       1123       1124       1107       1106       1124       1125       1108       1107       1125       1126       1109       1108       1126       1127       1110       1109       1127       1128       1111       1110       1128       1129       1112       1111       1129       1130       1113       1112       1130       1131       1114       1113       1131       1132       1115       1114       1132       1133       1116       1115       1133       1134       1117       1116       1134       1135       1118       1117       1135       1136       1119       1118       1136       1137       1120       1119       1137       1138       1121       1120        272        273       1123       1122        273        274       1124       1123        274        275       1125       1124        275        276       1126       1125        276        277       1127       1126        277        278       1128       1127        278        279       1129       1128        279        280       1130       1129        280        281       1131       1130        281        282       1132       1131        282        283       1133       1132        283        284       1134       1133        284        285       1135       1134        285        286       1136       1135        286        287       1137       1136        287        288       1138       1137 </DataArray>
<DataArray type="Int32"                                    Name="offsets"                                                      NumberOfComponents=" 1" format="ascii">
         4          8         12         16         20         24         28         32         36         40         44         48         52         56         60         64         68         72         76         80         84         88         92         96        100        104        108        112        116        120        124        128        132        136        140        144        148        152        156        160        164        168        172        176        180        184        188        192        196        200        204        208        212        216        220        224        228        232        236        240        244        248        252        256        260        264        268        272        276        280        284        288        292        296        300        304        308        312        316        320        324        328        332        336        340        344        348        352        356        360        364        368        372        376        380        384        388        392        396        400        404        408        412        416        420        424        428        432        436        440        444        448        452        456        460        464        468        472        476        480        484        488        492        496        500        504        508        512        516        520        524        528        532        536        540        544        548        552        556        560        564        568        572        576        580        584        588        592        596        600        604        608        612        616        620        624        628        632        636        640        644        648        652        656        660        664        668        672        676        680        684        688        692        696        700        704        708        712        716        720        724        728        732        736        740        744        748        752        756        760        764        768        772        776        780        784        788        792        796        800        804        808        812        816        820        824        828        832        836        840        844        848        852        856        860        864        868        872        876        880        884        888        892        896        900        904        908        912        916        920        924        928        932        936        940        944        948        952        956        960        964        968        972        976        980        984        988        992        996       1000       1004       1008       1012       1016       1020       1024       1028       1032       1036       1040       1044       1048       1052       1056       1060       1064       1068       1072       1076       1080       1084       1088       1092       1096       1100       1104       1108       1112       1116       1120       1124       1128       1132       1136       1140       1144       1148       1152       1156       1160       1164       1168       1172       1176       1180       1184       1188       1192       1196       1200       1204       1208       1212       1216       1220       1224       1228       1232       1236       1240       1244       1248       1252       1256       1260       1264       1268       1272       1276       1280       1284       1288       1292       1296       1300       1304       1308       1312       1316       1320       1324       1328       1332       1336       1340       1344       1348       1352       1356       1360       1364       1368       1372       1376       1380       1384       1388       1392       1396       1400       1404       1408       1412       1416       1420       1424       1428       1432       1436       1440       1444       1448       1452       1456       1460       1464       1468       1472       1476       1480       1484       1488       1492       1496       1500       1504       1508       1512       1516       1520       1524       1528       1532       1536       1540       1544       1548       1552       1556       1560       1564       1568       1572       1576       1580       1584       1588       1592       1596       1600       1604       1608       1612       1616       1620       1624       1628       1632       1636       1640       1644       1648       1652       1656       1660       1664       1668       1672       1676       1680       1684       1688       1692       1696       1700       1704       1708       1712       1716       1720       1724       1728       1732       1736       1740       1744       1748       1752       1756       1760       1764       1768       1772       1776       1780       1784       1788       1792       1796       1800       1804       1808       1812       1816       1820       1824       1828       1832       1836       1840       1844       1848       1852       1856       1860       1864       1868       1872       1876       1880       1884       1888       1892       1896       1900       1904       1908       1912       1916       1920       1924       1928       1932       1936       1940       1944       1948       1952       1956       1960       1964       1968       1972       1976       1980       1984       1988       1992       1996       2000       2004       2008       2012       2016       2020       2024       2028       2032       2036       2040       2044       2048       2052       2056       2060       2064       2068       2072       2076       2080       2084       2088       2092       2096       2100       2104       2108       2112       2116       2120       2124       2128       2132       2136       2140       2144       2148       2152       2156       2160       2164       2168       2172       2176       2180       2184       2188       2192       2196       2200       2204       2208       2212       2216       2220       2224       2228       2232       2236       2240       2244       2248       2252       2256       2260       2264       2268       2272       2276       2280       2284       2288       2292       2296       2300       2304       2308       2312       2316       2320       2324       2328       2332       2336       2340       2344       2348       2352       2356       2360       2364       2368       2372       2376       2380       2384       2388       2392       2396       2400       2404       2408       2412       2416       2420       2424       2428       2432       2436       2440       2444       2448       2452       2456       2460       2464       2468       2472       2476       2480       2484       2488       2492       2496       2500       2504       2508       2512       2516       2520       2524       2528       2532       2536       2540       2544       2548       2552       2556       2560       2564       2568       2572       2576       2580       2584       2588       2592       2596       2600       2604       2608       2612       2616       2620       2624       2628       2632       2636       2640       2644       2648       2652       2656       2660       2664       2668       2672       2676       2680       2684       2688       2692       2696       2700       2704       2708       2712       2716       2720       2724       2728       2732       2736       2740       2744       2748       2752       2756       2760       2764       2768       2772       2776       2780       2784       2788       2792       2796       2800       2804       2808       2812       2816       2820       2824       2828       2832       2836       2840       2844       2848       2852       2856       2860       2864       2868       2872       2876       2880       2884       2888       2892       2896       2900       2904       2908       2912       2916       2920       2924       2928       2932       2936       2940       2944       2948       2952       2956       2960       2964       2968       2972       2976       2980       2984       2988       2992       2996       3000       3004       3008       3012       3016       3020       3024       3028       3032       3036       3040       3044       3048       3052       3056       3060       3064       3068       3072       3076       3080       3084       3088       3092       3096       3100       3104       3108       3112       3116       3120       3124       3128       3132       3136       3140       3144       3148       3152       3156       3160       3164       3168       3172       3176       3180       3184       3188       3192       3196       3200       3204       3208       3212       3216       3220       3224       3228       3232       3236       3240       3244       3248       3252       3256       3260       3264       3268       3272       3276       3280       3284       3288       3292       3296       3300       3304       3308       3312       3316       3320       3324       3328       3332       3336       3340       3344       3348       3352       3356       3360       3364       3368       3372       3376       3380       3384       3388       3392       3396       3400       3404       3408       3412       3416       3420       3424       3428       3432       3436       3440       3444       3448       3452       3456       3460       3464       3468       3472       3476       3480       3484       3488       3492       3496       3500       3504       3508       3512       3516       3520       3524       3528       3532       3536       3540       3544       3548       3552       3556       3560       3564       3568       3572       3576       3580       3584       3588       3592       3596       3600       3604       3608       3612       3616       3620       3624       3628       3632       3636       3640       3644       3648       3652       3656       3660       3664       3668       3672       3676       3680       3684       3688       3692       3696       3700       3704       3708       3712       3716       3720       3724       3728       3732       3736       3740       3744       3748       3752       3756       3760       3764       3768       3772       3776       3780       3784       3788       3792       3796       3800       3804       3808       3812       3816       3820       3824       3828       3832       3836       3840       3844       3848       3852       3856       3860       3864       3868       3872       3876       3880       3884       3888       3892       3896       3900       3904       3908       3912       3916       3920       3924       3928       3932       3936       3940       3944       3948       3952       3956       3960       3964       3968       3972       3976       3980       3984       3988       3992       3996       4000       4004       4008       4012       4016       4020       4024       4028       4032       4036       4040       4044       4048       4052       4056       4060       4064       4068       4072       4076       4080       4084       4088       4092       4096 </DataArray>
<DataArray type="UInt8"                                    Name="types"                                                      NumberOfComponents=" 1" format="ascii">
         9          9          9          9          9          9          9          9          9          9          9          9          9          9          9          9          9          9          9          9          9          9          9          9          9          9          9          9          9          9          9          9          9          9          9          9          9          9          9          9          9          9          9          9          9          9          9          9          9          9          9          9          9          9          9          9          9          9          9          9          9          9          9          9          9          9          9          9          9          9          9          9          9          9          9          9          9          9          9          9          9          9          9          9          9          9          9          9          9          9          9          9          9          9          9          9          9          9          9          9          9          9          9          9          9          9          9          9          9          9          9          9          9          9          9          9          9          9          9          9          9          9          9          9          9          9          9          9          9          9          9          9          9          9          9          9          9          9          9          9          9          9          9          9          9          9          9          9          9          9          9          9          9          9          9          9          9          9          9          9          9          9          9          9          9          9          9          9          9          9          9          9          9          9          9          9          9          9          9          9          9          9          9          9          9          9          9          9          9          9          9          9          9          9          9          9          9          9          9          9          9          9          9          9          9          9          9          9          9          9          9          9          9          9          9          9          9          9          9          9          9          9          9          9          9          9          9          9          9          9          9          9          9          9          9          9          9          9          9          9          9          9          9          9          9          9          9          9          9          9          9          9          9          9          9          9          9          9          9          9          9          9          9          9          9          9          9          9          9          9          9          9          9          9          9          9          9          9          9          9          9          9          9          9          9          9          9          9          9          9          9          9          9          9          9          9          9          9          9          9          9          9          9          9          9          9          9          9          9          9          9          9          9          9          9          9          9          9          9          9          9          9          9          9          9          9          9          9          9          9          9          9          9          9          9          9          9          9          9          9          9          9          9          9          9          9          9          9          9          9          9          9          9          9          9          9          9          9          9          9          9          9          9          9          9          9          9          9          9          9          9          9          9          9          9          9          9          9          9          9          9          9          9          9          9          9          9          9          9          9          9          9          9          9          9          9          9          9          9          9          9          9          9          9          9          9          9          9          9          9          9          9          9          9          9          9          9          9          9          9          9          9          9          9          9          9          9          9          9          9          9          9          9          9          9          9          9          9          9          9          9          9          9          9          9          9          9          9          9          9          9          9          9          9          9          9          9          9          9          9          9          9          9          9          9          9          9          9          9          9          9          9          9          9          9          9          9          9          9          9          9          9          9          9          9          9          9          9          9          9          9          9          9          9          9          9          9          9          9          9          9          9          9          9          9          9          9          9          9          9          9          9          9          9          9          9          9          9          9          9          9          9          9          9          9          9          9          9          9          9          9          9          9          9          9          9          9          9          9          9          9          9          9          9          9          9          9          9          9          9          9          9          9          9          9          9          9          9          9          9          9          9          9          9          9          9          9          9          9          9          9          9          9          9          9          9          9          9          9          9          9          9          9          9          9          9          9          9          9          9          9          9          9          9          9          9          9          9          9          9          9          9          9          9          9          9          9          9          9          9          9          9          9          9          9          9          9          9          9          9          9          9          9          9          9          9          9          9          9          9          9          9          9          9          9          9          9          9          9          9          9          9          9          9          9          9          9          9          9          9          9          9          9          9          9          9          9          9          9          9          9          9          9          9          9          9          9          9          9          9          9          9          9          9          9          9          9          9          9          9          9          9          9          9          9          9          9          9          9          9          9          9          9          9          9          9          9          9          9          9          9          9          9          9          9          9          9          9          9          9          9          9          9          9          9          9          9          9          9          9          9          9          9          9          9          9          9          9          9          9          9          9          9          9          9          9          9          9          9          9          9          9          9          9          9          9          9          9          9          9          9          9          9          9          9          9          9          9          9          9          9          9          9          9          9          9          9          9          9          9          9          9          9          9          9          9          9          9          9          9          9          9          9          9          9          9          9          9          9          9          9          9          9          9          9          9          9          9          9          9          9          9          9          9          9          9          9          9          9          9          9          9          9          9          9          9          9          9          9          9          9          9          9          9          9          9          9          9          9          9          9          9          9          9          9          9          9          9          9          9          9          9          9          9          9          9          9          9          9          9          9          9          9          9          9          9          9          9          9          9          9          9          9          9          9          9          9          9          9          9          9          9          9          9          9          9          9          9          9          9          9          9          9          9          9          9          9          9          9          9          9          9          9          9          9          9          9          9          9          9          9          9          9          9          9          9          9          9          9          9          9          9          9          9          9          9          9          9          9          9          9          9          9          9          9          9          9          9          9          9          9          9          9          9          9          9          9          9          9          9          9          9          9          9          9          9          9          9          9          9          9          9          9          9          9          9          9          9          9          9          9          9          9          9          9          9          9          9          9          9          9          9          9          9          9          9          9          9          9          9          9          9          9          9          9          9          9          9          9          9          9          9          9          9          9          9          9          9          9          9          9          9          9          9          9          9          9          9          9          9          9          9          9          9          9          9          9          9          9          9          9          9          9          9 </DataArray>
</Cells>
<CellData>
<DataArray type="Int32"                                    Name="material"                                                      NumberOfComponents=" 1" format="ascii">
         1          1          1          1          1          1          1          1          1          1          1          1          1          1          1          1          1          1          1          1          1          1          1          1          1          1          1          1          1          1          1          1          1          1          1          1          1          1          1          1          1          1          1          1          1          1          1          1          1          1          1          1          1          1          1          1          1          1          1          1          1          1          1          1          1          1          1          1          1          1          1          1          1          1          1          1          1          1          1          1          1          1          1          1          1          1          1          1          1          1          1          1          1          1          1          1          1          1          1          1          1          1          1          1          1          1          1          1          1          1          1          1          1          1          1          1          1          1          1          1          1          1          1          1          1          1          1          1          1          1          1          1          1          1          1          1          1          1          1          1          1          1          1          1          1          1          1          1          1          1          1          1          1          1          1          1          1          1          1          1          1          1          1          1          1          1          1          1          1          1          1          1          1          1          1          1          1          1          1          1          1          1          1          1          1          1          1          1          1          1          1          1          1          1          1          1          1          1          1          1          1          1          1          1          1          1          1          1          1          1          1          1          1          1          1          1          1          1          1          1          1          1          1          1          1          1          1          1          1          1          1          1          1          1          1          1          1          1          1          1          1          1          1          1          1          1          1          1          1          1          1          1          1          1          1          1          1          1          1          1          1          1          1          1          1          1          1          1          1          1          1          1          1          1          1          1          1          1          1          1          1          1          1          1          1          1          1          1          1          1          1          1          1          1          1          1          1          1          1          1          1          1          1          1          1          1          1          1          1          1          1          1          1          1          1          1          1          1          1          1          1          1          1          1          1          1          1          1          1          1          1          1          1          1          1          1          1          1          1          1          1          1          1          1          1          1          1          1          1          1          1          1          1          1          1          1          1          1          1          1          1          1          1          1          1          1          1          1          1          1          1          1          1          1          1          1          1          1          1          1          1          1          1          1          1          1          1          1          1          1          1          1          1          1          1          1          1          1          1          1          1          1          1          1          1          1          1          1          1          1          1          1          1          1          1          1          1          1          1          1          1          1          1          1          1          1          1          1          1          1          1          1          1          1          1          1          1          1          1          1          1          1          1          1          1          1          1          1          1          1          1          1          1          1          1          1          1          1          1          1          1          1          1          1          1          1          1          1          1          1          1          1          1          1          1          1          1          1          1          1          1          1          1          1          1          1          1          1          1          1          1          1          1          1          1          1          1          1          1          1          1          1          1          1          1          1          1          1          1          1          1          1          1          1          1          1          1          1          1          1          1          1          1          1          1          1          1          1          1          1          1          1          1          1          1          1          1          1          1          1          1          1          1          1          1          1          1          1          1          1          1          1          1          1          1          1          1          1          1          1          1          1          1          1          1          1          1          1          1          1          1          1          1          1          1          1          1          1          1          1          1          1          1          1          1          1          1          1          1          1          1          1          1          1          1          1          1          1          1          1          1          1          1          1          1          1          1          1          1          1          1          1          1          1          1          1          1          1          1          1          1          1          1          1          1          1          1          1          1          1          1          1          1          1          1          1          1          1          1          1          1          1          1          1          1          1          1          1          1          1          1          1          1          1          1          1          1          1          1          1          1          1          1          1          1          1          1          1          1          1          1          1          1          1          1          1          1          1          1          1          1          1          1          1          1          1          1          1          1          1          1          1          1          1          1          1          1          1          1          1          1          1          1          1          1          1          1          1          1          1          1          1          1          1          1          1          1          1          1          1          1          1          1          1          1          1          1          1          1          1          1          1          1          1          1          1          1          1          1          1          1          1          1          1          1          1          1          1          1          1          1          1          1          1          1          1          1          1          1          1          1          1          1          1          1          1          1          1          1          1          1          1          1          1          1          1          1          1          1          1          1          1          1          1          1          1          1          1          1          1          1          1          1          1          1          1          1          1          1          1          1          1          1          1          1          1          1          1          1          1          1          1          1          1          1          1          1          1          1          1          1          1          1          1          1          1          1          1          1          1          1          1          1          1          1          1          1          1          1          1          1          1          1          1          1          1          1          1          1          1          1          1          1          1          1          1          1          1          1          1          1          1          1          1          1          1          1          1          1          1          1          1          1          1          1          1          1          1          1          1          1          1          1          1          1          1          1          1          1          1          1          1          1          1          1          1          1          1          1          1          1          1          1          1          1          1          1          1          1          1          1          1          1          1          1          1          1          1          1          1          1          1          1          1          1          1          1          1          1          1          1          1          1          1          1          1          1          1          1          1          1          1          1          1          1          1          1          1          1          1          1          1          1          1          1          1          1          1          1          1          1          1          1          1          1          1          1          1          1          1          1          1          1          1          1          1          1          1          1          1          1          1          1          1          1          1          1          1          1          1          1          1          1          1          1          1          1          1          1          1          1          1          1          1          1          1          1          1          1          1          1          1          1          1          1          1          1          1          1          1          1          1          1          1 </DataArray>
</CellData>
<PointData>
<DataArray type="Float64"                                    Name="u"                                                      NumberOfComponents=" 3" format="ascii">
             -0.000276397               0.000000000               0.999999988              -0.000311642               0.000000000               0.999999988              -0.000327790               0.000000000               0.999999988              -0.000337053               0.000000000               0.999999988              -0.000344308               0.000000000               0.999999988              -0.000351539               0.000000000               0.999999988              -0.000359633              -0.000000000               0.999999988              -0.000368928              -0.000000000               0.999999988              -0.000379552               0.000000000               0.999999988              -0.000391442               0.000000000               0.999999988              -0.000404489               0.000000000               0.999999988              -0.000418534               0.000000000               0.999999988              -0.000433332               0.000000000               0.999999988              -0.000448620               0.000000000               0.999999988              -0.000464253               0.000000000               0.999999988              -0.000480034               0.000000000               0.999999988              -0.000495499               0.000000000               0.999999988              -0.000274828               0.000089218               0.999999988              -0.000308004               0.000075798               0.999999988              -0.000322919               0.000070749               0.999999988              -0.000331475               0.000070151               0.999999988              -0.000338274               0.000072288               0.999999988              -0.000345274               0.000076045               0.999999988              -0.000353262               0.000080737               0.999999988              -0.000362507               0.000086029               0.999999988              -0.000373052               0.000091666               0.999999988              -0.000384769               0.000097316               0.999999988              -0.000397566               0.000102928               0.999999988              -0.000411212               0.000108347               0.999999988              -0.000425536               0.000113292               0.999999988              -0.000440379               0.000117524               0.999999988              -0.000455467               0.000121020               0.999999988              -0.000470509               0.000123309               0.999999988              -0.000485250               0.000123690               0.999999988              -0.000270207               0.000177485               0.999999988              -0.000297361               0.000150888               0.999999988              -0.000308771               0.000141446               0.999999988              -0.000315451               0.000140821               0.999999988              -0.000321299               0.000145415               0.999999988              -0.000327858               0.000153134               0.999999988              -0.000335694               0.000162645               0.999999988              -0.000344816               0.000173219               0.999999988              -0.000355090               0.000184380               0.999999988              -0.000366462               0.000195747               0.999999988              -0.000378800               0.000206935               0.999999988              -0.000391802               0.000217621               0.999999988              -0.000405259               0.000227465               0.999999988              -0.000418914               0.000236147               0.999999988              -0.000432608               0.000243397               0.999999988              -0.000446163               0.000248747               0.999999988              -0.000459332               0.000251459               0.999999988              -0.000262658               0.000263873               0.999999988              -0.000280315               0.000224737               0.999999988              -0.000286723               0.000212016               0.999999988              -0.000290977               0.000212300               0.999999988              -0.000295864               0.000219895               0.999999988              -0.000302183               0.000231859               0.999999988              -0.000310005               0.000246258               0.999999988              -0.000319117               0.000262002               0.999999988              -0.000329397               0.000278595               0.999999988              -0.000340554               0.000295501               0.999999988              -0.000352365               0.000312096               0.999999988              -0.000364533               0.000327807               0.999999988              -0.000376819               0.000342543               0.999999988              -0.000389045               0.000355791               0.999999988              -0.000400999               0.000367268               0.999999988              -0.000412454               0.000376557               0.999999988              -0.000423337               0.000383020               0.999999988              -0.000252332               0.000347510               0.999999988              -0.000257836               0.000296983               0.999999988              -0.000258749               0.000282336               0.999999988              -0.000260771               0.000284481               0.999999988              -0.000265062               0.000295723               0.999999988              -0.000271510               0.000312121               0.999999988              -0.000279713               0.000331435               0.999999988              -0.000289229               0.000352263               0.999999988              -0.000299649               0.000374083               0.999999988              -0.000310660               0.000396102               0.999999988              -0.000321875               0.000417630               0.999999988              -0.000333021               0.000438160               0.999999988              -0.000343806               0.000457582               0.999999988              -0.000354050               0.000475564               0.999999988              -0.000363653               0.000491622               0.999999988              -0.000372561               0.000505445               0.999999988              -0.000380942               0.000516984               0.999999988              -0.000239385               0.000427626               0.999999988              -0.000231102               0.000367402               0.999999988              -0.000226902               0.000352233               0.999999988              -0.000227540               0.000357035               0.999999988              -0.000232047               0.000372200               0.999999988              -0.000239250               0.000393127               0.999999988              -0.000248248               0.000417261               0.999999988              -0.000258314               0.000443084               0.999999988              -0.000269015               0.000469694               0.999999988              -0.000279848               0.000496404               0.999999988              -0.000290335               0.000522441               0.999999988              -0.000300218               0.000547335               0.999999988              -0.000309321               0.000571094               0.999999988              -0.000317632               0.000593441               0.999999988              -0.000325079               0.000613791               0.999999988              -0.000331792               0.000632398               0.999999988              -0.000338036               0.000649501               0.999999988              -0.000224094               0.000503435               0.999999988              -0.000201521               0.000435852               0.999999988              -0.000193542               0.000421278               0.999999988              -0.000194128               0.000429133               0.999999988              -0.000199698               0.000448277               0.999999988              -0.000208186               0.000473621               0.999999988              -0.000218246               0.000502358               0.999999988              -0.000229084               0.000532717               0.999999988              -0.000240010               0.000563819               0.999999988              -0.000250467               0.000594718               0.999999988              -0.000260096               0.000624797               0.999999988              -0.000268728               0.000653568               0.999999988              -0.000276330               0.000681096               0.999999988              -0.000282805               0.000707159               0.999999988              -0.000288214               0.000731560               0.999999988              -0.000292825               0.000754619               0.999999988              -0.000296951               0.000776685               0.999999988              -0.000206780               0.000574139               0.999999988              -0.000170694               0.000502149               0.999999988              -0.000160763               0.000488911               0.999999988              -0.000162574               0.000499844               0.999999988              -0.000169897               0.000522765               0.999999988              -0.000180043               0.000552262               0.999999988              -0.000191463               0.000585169               0.999999988              -0.000203005               0.000619805               0.999999988              -0.000213931               0.000654849               0.999999988              -0.000223772               0.000689495               0.999999988              -0.000232275               0.000723080               0.999999988              -0.000239339               0.000755336               0.999999988              -0.000245001               0.000786396               0.999999988              -0.000249325               0.000816002               0.999999988              -0.000252536               0.000844134               0.999999988              -0.000255002               0.000871235               0.999999988              -0.000256928               0.000897599               0.999999988              -0.000188195               0.000638541               0.999999988              -0.000139793               0.000566203               0.999999988              -0.000130299               0.000554453               0.999999988              -0.000134225               0.000568106               0.999999988              -0.000143813               0.000594471               0.999999988              -0.000155860               0.000627764               0.999999988              -0.000168454               0.000664624               0.999999988              -0.000180334               0.000703082               0.999999988              -0.000190789               0.000741788               0.999999988              -0.000199523               0.000779738               0.999999988              -0.000206341               0.000816595               0.999999988              -0.000211336               0.000852201               0.999999988              -0.000214644               0.000886573               0.999999988              -0.000216537               0.000919599               0.999999988              -0.000217476               0.000951416               0.999999988              -0.000217846               0.000982568               0.999999988              -0.000217779               0.001013136               0.999999988              -0.000169552               0.000698900               0.999999988              -0.000115033               0.000635149               0.999999988              -0.000102638               0.000618977               0.999999988              -0.000104949               0.000626936               0.999999988              -0.000113331               0.000647790               0.999999988              -0.000124329               0.000676259               0.999999988              -0.000135959               0.000709257               0.999999988              -0.000147056               0.000744563               0.999999988              -0.000157076               0.000780839               0.999999988              -0.000165447               0.000817262               0.999999988              -0.000171873               0.000853207               0.999999988              -0.000176564               0.000888384               0.999999988              -0.000179643               0.000922753               0.999999988              -0.000181095               0.000956155               0.999999988              -0.000181062               0.000988660               0.999999988              -0.000180151               0.001020429               0.999999988              -0.000178885               0.001051743               0.999999988              -0.000148887               0.000753469               0.999999988              -0.000092682               0.000701269               0.999999988              -0.000077521               0.000684497               0.999999988              -0.000077735               0.000688351               0.999999988              -0.000084485               0.000704668               0.999999988              -0.000094004               0.000728818               0.999999988              -0.000104449               0.000757991               0.999999988              -0.000114585               0.000790105               0.999999988              -0.000123737               0.000823852               0.999999988              -0.000131582               0.000858374               0.999999988              -0.000137587               0.000892999               0.999999988              -0.000141923               0.000927284               0.999999988              -0.000144599               0.000961178               0.999999988              -0.000145506               0.000994520               0.999999988              -0.000144486               0.001027259               0.999999988              -0.000141898               0.001059523               0.999999988              -0.000138511               0.001091481               0.999999988              -0.000126665               0.000801129               0.999999988              -0.000072754               0.000762733               0.999999988              -0.000055872               0.000748161               0.999999988              -0.000053895               0.000750166               0.999999988              -0.000058684               0.000763304               0.999999988              -0.000066431               0.000784015               0.999999988              -0.000075277               0.000809943               0.999999988              -0.000084072               0.000839240               0.999999988              -0.000092031               0.000870641               0.999999988              -0.000098987               0.000903278               0.999999988              -0.000104566               0.000936513               0.999999988              -0.000108294               0.000969902               0.999999988              -0.000110310               0.001003238               0.999999988              -0.000110488               0.001036268               0.999999988              -0.000108366               0.001068990               0.999999988              -0.000103948               0.001101394               0.999999988              -0.000097811               0.001133662               0.999999988              -0.000103083               0.000841116               0.999999988              -0.000055210               0.000817189               0.999999988              -0.000038147               0.000806939               0.999999988              -0.000034469               0.000809093               0.999999988              -0.000037268               0.000820687               0.999999988              -0.000043031               0.000839171               0.999999988              -0.000049944               0.000862757               0.999999988              -0.000057008               0.000889968               0.999999988              -0.000063604               0.000919550               0.999999988              -0.000069442               0.000950710               0.999999988              -0.000074162               0.000982899               0.999999988              -0.000077257               0.001015596               0.999999988              -0.000078480               0.001048517               0.999999988              -0.000077673               0.001081480               0.999999988              -0.000074460               0.001114294               0.999999988              -0.000068282               0.001146885               0.999999988              -0.000059053               0.001179521               0.999999988              -0.000078360               0.000872855               0.999999988              -0.000039650               0.000862337               0.999999988              -0.000024350               0.000857575               0.999999988              -0.000019935               0.000861278               0.999999988              -0.000021011               0.000872688               0.999999988              -0.000024846               0.000890207               0.999999988              -0.000029723               0.000912446               0.999999988              -0.000034953               0.000938279               0.999999988              -0.000040079               0.000966737               0.999999988              -0.000044611               0.000997091               0.999999988              -0.000048335               0.001028720               0.999999988              -0.000050722               0.001061237               0.999999988              -0.000051376               0.001094223               0.999999988              -0.000049860               0.001127470               0.999999988              -0.000045776               0.001160797               0.999999988              -0.000038354               0.001194118               0.999999988              -0.000026744               0.001227536               0.999999988              -0.000052758               0.000895896               0.999999988              -0.000025592               0.000896119               0.999999988              -0.000014049               0.000896649               0.999999988              -0.000010109               0.000902581               0.999999988              -0.000010133               0.000914555               0.999999988              -0.000012265               0.000931903               0.999999988              -0.000015387               0.000953586               0.999999988              -0.000018790               0.000978739               0.999999988              -0.000022235               0.001006647               0.999999988              -0.000025399               0.001036773               0.999999988              -0.000027999               0.001068593               0.999999988              -0.000029678               0.001101607               0.999999988              -0.000029926               0.001135398               0.999999988              -0.000028261               0.001169620               0.999999988              -0.000024257               0.001204120               0.999999988              -0.000017109               0.001238748               0.999999988              -0.000005534               0.001273331               0.999999988              -0.000026546               0.000909881               0.999999988              -0.000012537               0.000917048               0.999999988              -0.000006332               0.000921338               0.999999988              -0.000004013               0.000929124               0.999999988              -0.000003755               0.000941788               0.999999988              -0.000004708               0.000959194               0.999999988              -0.000006216               0.000980723               0.999999988              -0.000007881               0.001005659               0.999999988              -0.000009592               0.001033496               0.999999988              -0.000011209               0.001063791               0.999999988              -0.000012537               0.001096034               0.999999988              -0.000013445               0.001129810               0.999999988              -0.000013467               0.001164677               0.999999988              -0.000012414               0.001200260               0.999999988              -0.000009922               0.001236292               0.999999988              -0.000005479               0.001272475               0.999999988               0.000002090               0.001308454               0.999999988              -0.000000000               0.000914579               0.999999988               0.000000000               0.000924139               0.999999988              -0.000000000               0.000929772               0.999999988               0.000000000               0.000938308               0.999999988               0.000000000               0.000951282               0.999999988               0.000000000               0.000968691               0.999999988               0.000000000               0.000990173               0.999999988              -0.000000000               0.001015136               0.999999988              -0.000000000               0.001042993               0.999999988              -0.000000000               0.001073340               0.999999988              -0.000000000               0.001105835               0.999999988              -0.000000000               0.001139951               0.999999988              -0.000000000               0.001175289               0.999999988               0.000000000               0.001211483               0.999999988              -0.000000000               0.001248269               0.999999988              -0.000000000               0.001285296               0.999999988              -0.000000000               0.001321949               0.999999988              -0.000276397               0.000000000               0.999999988              -0.000311642               0.000000000               0.999999988              -0.000327790               0.000000000               0.999999988              -0.000337053               0.000000000               0.999999988              -0.000344308               0.000000000               0.999999988              -0.000351539               0.000000000               0.999999988              -0.000359633              -0.000000000               0.999999988              -0.000368928              -0.000000000               0.999999988              -0.000379552               0.000000000               0.999999988              -0.000391442               0.000000000               0.999999988              -0.000404489               0.000000000               0.999999988              -0.000418534               0.000000000               0.999999988              -0.000433332               0.000000000               0.999999988              -0.000448620               0.000000000               0.999999988              -0.000464253               0.000000000               0.999999988              -0.000480034               0.000000000               0.999999988              -0.000495499               0.000000000               0.999999988              -0.000274828              -0.000089218               0.999999988              -0.000308004              -0.000075798               0.999999988              -0.000322919              -0.000070749               0.999999988              -0.000331475              -0.000070151               0.999999988              -0.000338274              -0.000072288               0.999999988              -0.000345274              -0.000076045               0.999999988              -0.000353262              -0.000080737               0.999999988              -0.000362507              -0.000086029               0.999999988              -0.000373052              -0.000091666               0.999999988              -0.000384769              -0.000097316               0.999999988              -0.000397566              -0.000102928               0.999999988              -0.000411212              -0.000108347               0.999999988              -0.000425536              -0.000113292               0.999999988              -0.000440379              -0.000117524               0.999999988              -0.000455467              -0.000121020               0.999999988              -0.000470509              -0.000123309               0.999999988              -0.000485250              -0.000123690               0.999999988              -0.000270207              -0.000177485               0.999999988              -0.000297361              -0.000150888               0.999999988              -0.000308771              -0.000141446               0.999999988              -0.000315451              -0.000140821               0.999999988              -0.000321299              -0.000145415               0.999999988              -0.000327858              -0.000153134               0.999999988              -0.000335694              -0.000162645               0.999999988              -0.000344816              -0.000173219               0.999999988              -0.000355090              -0.000184380               0.999999988              -0.000366462              -0.000195747               0.999999988              -0.000378800              -0.000206935               0.999999988              -0.000391802              -0.000217621               0.999999988              -0.000405259              -0.000227465               0.999999988              -0.000418914              -0.000236147               0.999999988              -0.000432608              -0.000243397               0.999999988              -0.000446163              -0.000248747               0.999999988              -0.000459332              -0.000251459               0.999999988              -0.000262658              -0.000263873               0.999999988              -0.000280315              -0.000224737               0.999999988              -0.000286723              -0.000212016               0.999999988              -0.000290977              -0.000212300               0.999999988              -0.000295864              -0.000219895               0.999999988              -0.000302183              -0.000231859               0.999999988              -0.000310005              -0.000246258               0.999999988              -0.000319117              -0.000262002               0.999999988              -0.000329397              -0.000278595               0.999999988              -0.000340554              -0.000295501               0.999999988              -0.000352365              -0.000312096               0.999999988              -0.000364533              -0.000327807               0.999999988              -0.000376819              -0.000342543               0.999999988              -0.000389045              -0.000355791               0.999999988              -0.000400999              -0.000367268               0.999999988              -0.000412454              -0.000376557               0.999999988              -0.000423337              -0.000383020               0.999999988              -0.000252332              -0.000347510               0.999999988              -0.000257836              -0.000296983               0.999999988              -0.000258749              -0.000282336               0.999999988              -0.000260771              -0.000284481               0.999999988              -0.000265062              -0.000295723               0.999999988              -0.000271510              -0.000312121               0.999999988              -0.000279713              -0.000331435               0.999999988              -0.000289229              -0.000352263               0.999999988              -0.000299649              -0.000374083               0.999999988              -0.000310660              -0.000396102               0.999999988              -0.000321875              -0.000417630               0.999999988              -0.000333021              -0.000438160               0.999999988              -0.000343806              -0.000457582               0.999999988              -0.000354050              -0.000475564               0.999999988              -0.000363653              -0.000491622               0.999999988              -0.000372561              -0.000505445               0.999999988              -0.000380942              -0.000516984               0.999999988              -0.000239385              -0.000427626               0.999999988              -0.000231102              -0.000367402               0.999999988              -0.000226902              -0.000352233               0.999999988              -0.000227540              -0.000357035               0.999999988              -0.000232047              -0.000372200               0.999999988              -0.000239250              -0.000393127               0.999999988              -0.000248248              -0.000417261               0.999999988              -0.000258314              -0.000443084               0.999999988              -0.000269015              -0.000469694               0.999999988              -0.000279848              -0.000496404               0.999999988              -0.000290335              -0.000522441               0.999999988              -0.000300218              -0.000547335               0.999999988              -0.000309321              -0.000571094               0.999999988              -0.000317632              -0.000593441               0.999999988              -0.000325079              -0.000613791               0.999999988              -0.000331792              -0.000632398               0.999999988              -0.000338036              -0.000649501               0.999999988              -0.000224094              -0.000503435               0.999999988              -0.000201521              -0.000435852               0.999999988              -0.000193542              -0.000421278               0.999999988              -0.000194128              -0.000429133               0.999999988              -0.000199698              -0.000448277               0.999999988              -0.000208186              -0.000473621               0.999999988              -0.000218246              -0.000502358               0.999999988              -0.000229084              -0.000532717               0.999999988              -0.000240010              -0.000563819               0.999999988              -0.000250467              -0.000594718               0.999999988              -0.000260096              -0.000624797               0.999999988              -0.000268728              -0.000653568               0.999999988              -0.000276330              -0.000681096               0.999999988              -0.000282805              -0.000707159               0.999999988              -0.000288214              -0.000731560               0.999999988              -0.000292825              -0.000754619               0.999999988              -0.000296951              -0.000776685               0.999999988              -0.000206780              -0.000574139               0.999999988              -0.000170694              -0.000502149               0.999999988              -0.000160763              -0.000488911               0.999999988              -0.000162574              -0.000499844               0.999999988              -0.000169897              -0.000522765               0.999999988              -0.000180043              -0.000552262               0.999999988              -0.000191463              -0.000585169               0.999999988              -0.000203005              -0.000619805               0.999999988              -0.000213931              -0.000654849               0.999999988              -0.000223772              -0.000689495               0.999999988              -0.000232275              -0.000723080               0.999999988              -0.000239339              -0.000755336               0.999999988              -0.000245001              -0.000786396               0.999999988              -0.000249325              -0.000816002               0.999999988              -0.000252536              -0.000844134               0.999999988              -0.000255002              -0.000871235               0.999999988              -0.000256928              -0.000897599               0.999999988              -0.000188195              -0.000638541               0.999999988              -0.000139793              -0.000566203               0.999999988              -0.000130299              -0.000554453               0.999999988              -0.000134225              -0.000568106               0.999999988              -0.000143813              -0.000594471               0.999999988              -0.000155860              -0.000627764               0.999999988              -0.000168454              -0.000664624               0.999999988              -0.000180334              -0.000703082               0.999999988              -0.000190789              -0.000741788               0.999999988              -0.000199523              -0.000779738               0.999999988              -0.000206341              -0.000816595               0.999999988              -0.000211336              -0.000852201               0.999999988              -0.000214644              -0.000886573               0.999999988              -0.000216537              -0.000919599               0.999999988              -0.000217476              -0.000951416               0.999999988              -0.000217846              -0.000982568               0.999999988              -0.000217779              -0.001013136               0.999999988              -0.000169552              -0.000698900               0.999999988              -0.000115033              -0.000635149               0.999999988              -0.000102638              -0.000618977               0.999999988              -0.000104949              -0.000626936               0.999999988              -0.000113331              -0.000647790               0.999999988              -0.000124329              -0.000676259               0.999999988              -0.000135959              -0.000709257               0.999999988              -0.000147056              -0.000744563               0.999999988              -0.000157076              -0.000780839               0.999999988              -0.000165447              -0.000817262               0.999999988              -0.000171873              -0.000853207               0.999999988              -0.000176564              -0.000888384               0.999999988              -0.000179643              -0.000922753               0.999999988              -0.000181095              -0.000956155               0.999999988              -0.000181062              -0.000988660               0.999999988              -0.000180151              -0.001020429               0.999999988              -0.000178885              -0.001051743               0.999999988              -0.000148887              -0.000753469               0.999999988              -0.000092682              -0.000701269               0.999999988              -0.000077521              -0.000684497               0.999999988              -0.000077735              -0.000688351               0.999999988              -0.000084485              -0.000704668               0.999999988              -0.000094004              -0.000728818               0.999999988              -0.000104449              -0.000757991               0.999999988              -0.000114585              -0.000790105               0.999999988              -0.000123737              -0.000823852               0.999999988              -0.000131582              -0.000858374               0.999999988              -0.000137587              -0.000892999               0.999999988              -0.000141923              -0.000927284               0.999999988              -0.000144599              -0.000961178               0.999999988              -0.000145506              -0.000994520               0.999999988              -0.000144486              -0.001027259               0.999999988              -0.000141898              -0.001059523               0.999999988              -0.000138511              -0.001091481               0.999999988              -0.000126665              -0.000801129               0.999999988              -0.000072754              -0.000762733               0.999999988              -0.000055872              -0.000748161               0.999999988              -0.000053895              -0.000750166               0.999999988              -0.000058684              -0.000763304               0.999999988              -0.000066431              -0.000784015               0.999999988              -0.000075277              -0.000809943               0.999999988              -0.000084072              -0.000839240               0.999999988              -0.000092031              -0.000870641               0.999999988              -0.000098987              -0.000903278               0.999999988              -0.000104566              -0.000936513               0.999999988              -0.000108294              -0.000969902               0.999999988              -0.000110310              -0.001003238               0.999999988              -0.000110488              -0.001036268               0.999999988              -0.000108366              -0.001068990               0.999999988              -0.000103948              -0.001101394               0.999999988              -0.000097811              -0.001133662               0.999999988              -0.000103083              -0.000841116               0.999999988              -0.000055210              -0.000817189               0.999999988              -0.000038147              -0.000806939               0.999999988              -0.000034469              -0.000809093               0.999999988              -0.000037268              -0.000820687               0.999999988              -0.000043031              -0.000839171               0.999999988              -0.000049944              -0.000862757               0.999999988              -0.000057008              -0.000889968               0.999999988              -0.000063604              -0.000919550               0.999999988              -0.000069442              -0.000950710               0.999999988              -0.000074162              -0.000982899               0.999999988              -0.000077257              -0.001015596               0.999999988              -0.000078480              -0.001048517               0.999999988              -0.000077673              -0.001081480               0.999999988              -0.000074460              -0.001114294               0.999999988              -0.000068282              -0.001146885               0.999999988              -0.000059053              -0.001179521               0.999999988              -0.000078360              -0.000872855               0.999999988              -0.000039650              -0.000862337               0.999999988              -0.000024350              -0.000857575               0.999999988              -0.000019935              -0.000861278               0.999999988              -0.000021011              -0.000872688               0.999999988              -0.000024846              -0.000890207               0.999999988              -0.000029723              -0.000912446               0.999999988              -0.000034953              -0.000938279               0.999999988              -0.000040079              -0.000966737               0.999999988              -0.000044611              -0.000997091               0.999999988              -0.000048335              -0.001028720               0.999999988              -0.000050722              -0.001061237               0.999999988              -0.000051376              -0.001094223               0.999999988              -0.000049860              -0.001127470               0.999999988              -0.000045776              -0.001160797               0.999999988              -0.000038354              -0.001194118               0.999999988              -0.000026744              -0.001227536               0.999999988              -0.000052758              -0.000895896               0.999999988              -0.000025592              -0.000896119               0.999999988              -0.000014049              -0.000896649               0.999999988              -0.000010109              -0.000902581               0.999999988              -0.000010133              -0.000914555               0.999999988              -0.000012265              -0.000931903               0.999999988              -0.000015387              -0.000953586               0.999999988              -0.000018790              -0.000978739               0.999999988              -0.000022235              -0.001006647               0.999999988              -0.000025399              -0.001036773               0.999999988              -0.000027999              -0.001068593               0.999999988              -0.000029678              -0.001101607               0.999999988              -0.000029926              -0.001135398               0.999999988              -0.000028261              -0.001169620               0.999999988              -0.000024257              -0.001204120               0.999999988              -0.000017109              -0.001238748               0.999999988              -0.000005534              -0.001273331               0.999999988              -0.000026546              -0.000909881               0.999999988              -0.000012537              -0.000917048               0.999999988              -0.000006332              -0.000921338               0.999999988              -0.000004013              -0.000929124               0.999999988              -0.000003755              -0.000941788               0.999999988              -0.000004708              -0.000959194               0.999999988              -0.000006216              -0.000980723               0.999999988              -0.000007881              -0.001005659               0.999999988              -0.000009592              -0.001033496               0.999999988              -0.000011209              -0.001063791               0.999999988              -0.000012537              -0.001096034               0.999999988              -0.000013445              -0.001129810               0.999999988              -0.000013467              -0.001164677               0.999999988              -0.000012414              -0.001200260               0.999999988              -0.000009922              -0.001236292               0.999999988              -0.000005479              -0.001272475               0.999999988               0.000002090              -0.001308454               0.999999988              -0.000000000              -0.000914579               0.999999988              -0.000000000              -0.000924139               0.999999988               0.000000000              -0.000929772               0.999999988              -0.000000000              -0.000938308               0.999999988              -0.000000000              -0.000951282               0.999999988               0.000000000              -0.000968691               0.999999988              -0.000000000              -0.000990173               0.999999988               0.000000000              -0.001015136               0.999999988               0.000000000              -0.001042993               0.999999988               0.000000000              -0.001073340               0.999999988               0.000000000              -0.001105835               0.999999988               0.000000000              -0.001139951               0.999999988               0.000000000              -0.001175289               0.999999988              -0.000000000              -0.001211483               0.999999988              -0.000000000              -0.001248269               0.999999988              -0.000000000              -0.001285296               0.999999988              -0.000000000              -0.001321949               0.999999988               0.000276397              -0.000000000               0.999999988               0.000311642              -0.000000000               0.999999988               0.000327790               0.000000000               0.999999988               0.000337053              -0.000000000               0.999999988               0.000344308               0.000000000               0.999999988               0.000351539              -0.000000000               0.999999988               0.000359633               0.000000000               0.999999988               0.000368928               0.000000000               0.999999988               0.000379552              -0.000000000               0.999999988               0.000391442               0.000000000               0.999999988               0.000404489               0.000000000               0.999999988               0.000418534               0.000000000               0.999999988               0.000433332               0.000000000               0.999999988               0.000448620              -0.000000000               0.999999988               0.000464253               0.000000000               0.999999988               0.000480034              -0.000000000               0.999999988               0.000495499              -0.000000000               0.999999988               0.000274828              -0.000089218               0.999999988               0.000308004              -0.000075798               0.999999988               0.000322919              -0.000070749               0.999999988               0.000331475              -0.000070151               0.999999988               0.000338274              -0.000072288               0.999999988               0.000345274              -0.000076045               0.999999988               0.000353262              -0.000080737               0.999999988               0.000362507              -0.000086029               0.999999988               0.000373052              -0.000091666               0.999999988               0.000384769              -0.000097316               0.999999988               0.000397566              -0.000102928               0.999999988               0.000411212              -0.000108347               0.999999988               0.000425536              -0.000113292               0.999999988               0.000440379              -0.000117524               0.999999988               0.000455467              -0.000121020               0.999999988               0.000470509              -0.000123309               0.999999988               0.000485250              -0.000123690               0.999999988               0.000270207              -0.000177485               0.999999988               0.000297361              -0.000150888               0.999999988               0.000308771              -0.000141446               0.999999988               0.000315451              -0.000140821               0.999999988               0.000321299              -0.000145415               0.999999988               0.000327858              -0.000153134               0.999999988               0.000335694              -0.000162645               0.999999988               0.000344816              -0.000173219               0.999999988               0.000355090              -0.000184380               0.999999988               0.000366462              -0.000195747               0.999999988               0.000378800              -0.000206935               0.999999988               0.000391802              -0.000217621               0.999999988               0.000405259              -0.000227465               0.999999988               0.000418914              -0.000236147               0.999999988               0.000432608              -0.000243397               0.999999988               0.000446163              -0.000248747               0.999999988               0.000459332              -0.000251459               0.999999988               0.000262658              -0.000263873               0.999999988               0.000280315              -0.000224737               0.999999988               0.000286723              -0.000212016               0.999999988               0.000290977              -0.000212300               0.999999988               0.000295864              -0.000219895               0.999999988               0.000302183              -0.000231859               0.999999988               0.000310005              -0.000246258               0.999999988               0.000319117              -0.000262002               0.999999988               0.000329397              -0.000278595               0.999999988               0.000340554              -0.000295501               0.999999988               0.000352365              -0.000312096               0.999999988               0.000364533              -0.000327807               0.999999988               0.000376819              -0.000342543               0.999999988               0.000389045              -0.000355791               0.999999988               0.000400999              -0.000367268               0.999999988               0.000412454              -0.000376557               0.999999988               0.000423337              -0.000383020               0.999999988               0.000252332              -0.000347510               0.999999988               0.000257836              -0.000296983               0.999999988               0.000258749              -0.000282336               0.999999988               0.000260771              -0.000284481               0.999999988               0.000265062              -0.000295723               0.999999988               0.000271510              -0.000312121               0.999999988               0.000279713              -0.000331435               0.999999988               0.000289229              -0.000352263               0.999999988               0.000299649              -0.000374083               0.999999988               0.000310660              -0.000396102               0.999999988               0.000321875              -0.000417630               0.999999988               0.000333021              -0.000438160               0.999999988               0.000343806              -0.000457582               0.999999988               0.000354050              -0.000475564               0.999999988               0.000363653              -0.000491622               0.999999988               0.000372561              -0.000505445               0.999999988               0.000380942              -0.000516984               0.999999988               0.000239385              -0.000427626               0.999999988               0.000231102              -0.000367402               0.999999988               0.000226902              -0.000352233               0.999999988               0.000227540              -0.000357035               0.999999988               0.000232047              -0.000372200               0.999999988               0.000239250              -0.000393127               0.999999988               0.000248248              -0.000417261               0.999999988               0.000258314              -0.000443084               0.999999988               0.000269015              -0.000469694               0.999999988               0.000279848              -0.000496404               0.999999988               0.000290335              -0.000522441               0.999999988               0.000300218              -0.000547335               0.999999988               0.000309321              -0.000571094               0.999999988               0.000317632              -0.000593441               0.999999988               0.000325079              -0.000613791               0.999999988               0.000331792              -0.000632398               0.999999988               0.000338036              -0.000649501               0.999999988               0.000224094              -0.000503435               0.999999988               0.000201521              -0.000435852               0.999999988               0.000193542              -0.000421278               0.999999988               0.000194128              -0.000429133               0.999999988               0.000199698              -0.000448277               0.999999988               0.000208186              -0.000473621               0.999999988               0.000218246              -0.000502358               0.999999988               0.000229084              -0.000532717               0.999999988               0.000240010              -0.000563819               0.999999988               0.000250467              -0.000594718               0.999999988               0.000260096              -0.000624797               0.999999988               0.000268728              -0.000653568               0.999999988               0.000276330              -0.000681096               0.999999988               0.000282805              -0.000707159               0.999999988               0.000288214              -0.000731560               0.999999988               0.000292825              -0.000754619               0.999999988               0.000296951              -0.000776685               0.999999988               0.000206780              -0.000574139               0.999999988               0.000170694              -0.000502149               0.999999988               0.000160763              -0.000488911               0.999999988               0.000162574              -0.000499844               0.999999988               0.000169897              -0.000522765               0.999999988               0.000180043              -0.000552262               0.999999988               0.000191463              -0.000585169               0.999999988               0.000203005              -0.000619805               0.999999988               0.000213931              -0.000654849               0.999999988               0.000223772              -0.000689495               0.999999988               0.000232275              -0.000723080               0.999999988               0.000239339              -0.000755336               0.999999988               0.000245001              -0.000786396               0.999999988               0.000249325              -0.000816002               0.999999988               0.000252536              -0.000844134               0.999999988               0.000255002              -0.000871235               0.999999988               0.000256928              -0.000897599               0.999999988               0.000188195              -0.000638541               0.999999988               0.000139793              -0.000566203               0.999999988               0.000130299              -0.000554453               0.999999988               0.000134225              -0.000568106               0.999999988               0.000143813              -0.000594471               0.999999988               0.000155860              -0.000627764               0.999999988               0.000168454              -0.000664624               0.999999988               0.000180334              -0.000703082               0.999999988               0.000190789              -0.000741788               0.999999988               0.000199523              -0.000779738               0.999999988               0.000206341              -0.000816595               0.999999988               0.000211336              -0.000852201               0.999999988               0.000214644              -0.000886573               0.999999988               0.000216537              -0.000919599               0.999999988               0.000217476              -0.000951416               0.999999988               0.000217846              -0.000982568               0.999999988               0.000217779              -0.001013136               0.999999988               0.000169552              -0.000698900               0.999999988               0.000115033              -0.000635149               0.999999988               0.000102638              -0.000618977               0.999999988               0.000104949              -0.000626936               0.999999988               0.000113331              -0.000647790               0.999999988               0.000124329              -0.000676259               0.999999988               0.000135959              -0.000709257               0.999999988               0.000147056              -0.000744563               0.999999988               0.000157076              -0.000780839               0.999999988               0.000165447              -0.000817262               0.999999988               0.000171873              -0.000853207               0.999999988               0.000176564              -0.000888384               0.999999988               0.000179643              -0.000922753               0.999999988               0.000181095              -0.000956155               0.999999988               0.000181062              -0.000988660               0.999999988               0.000180151              -0.001020429               0.999999988               0.000178885              -0.001051743               0.999999988               0.000148887              -0.000753469               0.999999988               0.000092682              -0.000701269               0.999999988               0.000077521              -0.000684497               0.999999988               0.000077735              -0.000688351               0.999999988               0.000084485              -0.000704668               0.999999988               0.000094004              -0.000728818               0.999999988               0.000104449              -0.000757991               0.999999988               0.000114585              -0.000790105               0.999999988               0.000123737              -0.000823852               0.999999988               0.000131582              -0.000858374               0.999999988               0.000137587              -0.000892999               0.999999988               0.000141923              -0.000927284               0.999999988               0.000144599              -0.000961178               0.999999988               0.000145506              -0.000994520               0.999999988               0.000144486              -0.001027259               0.999999988               0.000141898              -0.001059523               0.999999988               0.000138511              -0.001091481               0.999999988               0.000126665              -0.000801129               0.999999988               0.000072754              -0.000762733               0.999999988               0.000055872              -0.000748161               0.999999988               0.000053895              -0.000750166               0.999999988               0.000058684              -0.000763304               0.999999988               0.000066431              -0.000784015               0.999999988               0.000075277              -0.000809943               0.999999988               0.000084072              -0.000839240               0.999999988               0.000092031              -0.000870641               0.999999988               0.000098987              -0.000903278               0.999999988               0.000104566              -0.000936513               0.999999988               0.000108294              -0.000969902               0.999999988               0.000110310              -0.001003238               0.999999988               0.000110488              -0.001036268               0.999999988               0.000108366              -0.001068990               0.999999988               0.000103948              -0.001101394               0.999999988               0.000097811              -0.001133662               0.999999988               0.000103083              -0.000841116               0.999999988               0.000055210              -0.000817189               0.999999988               0.000038147              -0.000806939               0.999999988               0.000034469              -0.000809093               0.999999988               0.000037268              -0.000820687               0.999999988               0.000043031              -0.000839171               0.999999988               0.000049944              -0.000862757               0.999999988               0.000057008              -0.000889968               0.999999988               0.000063604              -0.000919550               0.999999988               0.000069442              -0.000950710               0.999999988               0.000074162              -0.000982899               0.999999988               0.000077257              -0.001015596               0.999999988               0.000078480              -0.001048517               0.999999988               0.000077673              -0.001081480               0.999999988               0.000074460              -0.001114294               0.999999988               0.000068282              -0.001146885               0.999999988               0.000059053              -0.001179521               0.999999988               0.000078360              -0.000872855               0.999999988               0.000039650              -0.000862337               0.999999988               0.000024350              -0.000857575               0.999999988               0.000019935              -0.000861278               0.999999988               0.000021011              -0.000872688               0.999999988               0.000024846              -0.000890207               0.999999988               0.000029723              -0.000912446               0.999999988               0.000034953              -0.000938279               0.999999988               0.000040079              -0.000966737               0.999999988               0.000044611              -0.000997091               0.999999988               0.000048335              -0.001028720               0.999999988               0.000050722              -0.001061237               0.999999988               0.000051376              -0.001094223               0.999999988               0.000049860              -0.001127470               0.999999988               0.000045776              -0.001160797               0.999999988               0.000038354              -0.001194118               0.999999988               0.000026744              -0.001227536               0.999999988               0.000052758              -0.000895896               0.999999988               0.000025592              -0.000896119               0.999999988               0.000014049              -0.000896649               0.999999988               0.000010109              -0.000902581               0.999999988               0.000010133              -0.000914555               0.999999988               0.000012265              -0.000931903               0.999999988               0.000015387              -0.000953586               0.999999988               0.000018790              -0.000978739               0.999999988               0.000022235              -0.001006647               0.999999988               0.000025399              -0.001036773               0.999999988               0.000027999              -0.001068593               0.999999988               0.000029678              -0.001101607               0.999999988               0.000029926              -0.001135398               0.999999988               0.000028261              -0.001169620               0.999999988               0.000024257              -0.001204120               0.999999988               0.000017109              -0.001238748               0.999999988               0.000005534              -0.001273331               0.999999988               0.000026546              -0.000909881               0.999999988               0.000012537              -0.000917048               0.999999988               0.000006332              -0.000921338               0.999999988               0.000004013              -0.000929124               0.999999988               0.000003755              -0.000941788               0.999999988               0.000004708              -0.000959194               0.999999988               0.000006216              -0.000980723               0.999999988               0.000007881              -0.001005659               0.999999988               0.000009592              -0.001033496               0.999999988               0.000011209              -0.001063791               0.999999988               0.000012537              -0.001096034               0.999999988               0.000013445              -0.001129810               0.999999988               0.000013467              -0.001164677               0.999999988               0.000012414              -0.001200260               0.999999988               0.000009922              -0.001236292               0.999999988               0.000005479              -0.001272475               0.999999988              -0.000002090              -0.001308454               0.999999988              -0.000000000              -0.000914579               0.999999988              -0.000000000              -0.000924139               0.999999988               0.000000000              -0.000929772               0.999999988              -0.000000000              -0.000938308               0.999999988              -0.000000000              -0.000951282               0.999999988               0.000000000              -0.000968691               0.999999988              -0.000000000              -0.000990173               0.999999988               0.000000000              -0.001015136               0.999999988               0.000000000              -0.001042993               0.999999988               0.000000000              -0.001073340               0.999999988               0.000000000              -0.001105835               0.999999988               0.000000000              -0.001139951               0.999999988               0.000000000              -0.001175289               0.999999988              -0.000000000              -0.001211483               0.999999988              -0.000000000              -0.001248269               0.999999988              -0.000000000              -0.001285296               0.999999988              -0.000000000              -0.001321949               0.999999988               0.000276397              -0.000000000               0.999999988               0.000311642              -0.000000000               0.999999988               0.000327790               0.000000000               0.999999988               0.000337053              -0.000000000               0.999999988               0.000344308               0.000000000               0.999999988               0.000351539              -0.000000000               0.999999988               0.000359633               0.000000000               0.999999988               0.000368928               0.000000000               0.999999988               0.000379552              -0.000000000               0.999999988               0.000391442               0.000000000               0.999999988               0.000404489               0.000000000               0.999999988               0.000418534               0.000000000               0.999999988               0.000433332               0.000000000               0.999999988               0.000448620              -0.000000000               0.999999988               0.000464253               0.000000000               0.999999988               0.000480034              -0.000000000               0.999999988               0.000495499              -0.000000000               0.999999988               0.000274828               0.000089218               0.999999988               0.000308004               0.000075798               0.999999988               0.000322919               0.000070749               0.999999988               0.000331475               0.000070151               0.999999988               0.000338274               0.000072288               0.999999988               0.000345274               0.000076045               0.999999988               0.000353262               0.000080737               0.999999988               0.000362507               0.000086029               0.999999988               0.000373052               0.000091666               0.999999988               0.000384769               0.000097316               0.999999988               0.000397566               0.000102928               0.999999988               0.000411212               0.000108347               0.999999988               0.000425536               0.000113292               0.999999988               0.000440379               0.000117524               0.999999988               0.000455467               0.000121020               0.999999988               0.000470509               0.000123309               0.999999988               0.000485250               0.000123690               0.999999988               0.000270207               0.000177485               0.999999988               0.000297361               0.000150888               0.999999988               0.000308771               0.000141446               0.999999988               0.000315451               0.000140821               0.999999988               0.000321299               0.000145415               0.999999988               0.000327858               0.000153134               0.999999988               0.000335694               0.000162645               0.999999988               0.000344816               0.000173219               0.999999988               0.000355090               0.000184380               0.999999988               0.000366462               0.000195747               0.999999988               0.000378800               0.000206935               0.999999988               0.000391802               0.000217621               0.999999988               0.000405259               0.000227465               0.999999988               0.000418914               0.000236147               0.999999988               0.000432608               0.000243397               0.999999988               0.000446163               0.000248747               0.999999988               0.000459332               0.000251459               0.999999988               0.000262658               0.000263873               0.999999988               0.000280315               0.000224737               0.999999988               0.000286723               0.000212016               0.999999988               0.000290977               0.000212300               0.999999988               0.000295864               0.000219895               0.999999988               0.000302183               0.000231859               0.999999988               0.000310005               0.000246258               0.999999988               0.000319117               0.000262002               0.999999988               0.000329397               0.000278595               0.999999988               0.000340554               0.000295501               0.999999988               0.000352365               0.000312096               0.999999988               0.000364533               0.000327807               0.999999988               0.000376819               0.000342543               0.999999988               0.000389045               0.000355791               0.999999988               0.000400999               0.000367268               0.999999988               0.000412454               0.000376557               0.999999988               0.000423337               0.000383020               0.999999988               0.000252332               0.000347510               0.999999988               0.000257836               0.000296983               0.999999988               0.000258749               0.000282336               0.999999988               0.000260771               0.000284481               0.999999988               0.000265062               0.000295723               0.999999988               0.000271510               0.000312121               0.999999988               0.000279713               0.000331435               0.999999988               0.000289229               0.000352263               0.999999988               0.000299649               0.000374083               0.999999988               0.000310660               0.000396102               0.999999988               0.000321875               0.000417630               0.999999988               0.000333021               0.000438160               0.999999988               0.000343806               0.000457582               0.999999988               0.000354050               0.000475564               0.999999988               0.000363653               0.000491622               0.999999988               0.000372561               0.000505445               0.999999988               0.000380942               0.000516984               0.999999988               0.000239385               0.000427626               0.999999988               0.000231102               0.000367402               0.999999988               0.000226902               0.000352233               0.999999988               0.000227540               0.000357035               0.999999988               0.000232047               0.000372200               0.999999988               0.000239250               0.000393127               0.999999988               0.000248248               0.000417261               0.999999988               0.000258314               0.000443084               0.999999988               0.000269015               0.000469694               0.999999988               0.000279848               0.000496404               0.999999988               0.000290335               0.000522441               0.999999988               0.000300218               0.000547335               0.999999988               0.000309321               0.000571094               0.999999988               0.000317632               0.000593441               0.999999988               0.000325079               0.000613791               0.999999988               0.000331792               0.000632398               0.999999988               0.000338036               0.000649501               0.999999988               0.000224094               0.000503435               0.999999988               0.000201521               0.000435852               0.999999988               0.000193542               0.000421278               0.999999988               0.000194128               0.000429133               0.999999988               0.000199698               0.000448277               0.999999988               0.000208186               0.000473621               0.999999988               0.000218246               0.000502358               0.999999988               0.000229084               0.000532717               0.999999988               0.000240010               0.000563819               0.999999988               0.000250467               0.000594718               0.999999988               0.000260096               0.000624797               0.999999988               0.000268728               0.000653568               0.999999988               0.000276330               0.000681096               0.999999988               0.000282805               0.000707159               0.999999988               0.000288214               0.000731560               0.999999988               0.000292825               0.000754619               0.999999988               0.000296951               0.000776685               0.999999988               0.000206780               0.000574139               0.999999988               0.000170694               0.000502149               0.999999988               0.000160763               0.000488911               0.999999988               0.000162574               0.000499844               0.999999988               0.000169897               0.000522765               0.999999988               0.000180043               0.000552262               0.999999988               0.000191463               0.000585169               0.999999988               0.000203005               0.000619805               0.999999988               0.000213931               0.000654849               0.999999988               0.000223772               0.000689495               0.999999988               0.000232275               0.000723080               0.999999988               0.000239339               0.000755336               0.999999988               0.000245001               0.000786396               0.999999988               0.000249325               0.000816002               0.999999988               0.000252536               0.000844134               0.999999988               0.000255002               0.000871235               0.999999988               0.000256928               0.000897599               0.999999988               0.000188195               0.000638541               0.999999988               0.000139793               0.000566203               0.999999988               0.000130299               0.000554453               0.999999988               0.000134225               0.000568106               0.999999988               0.000143813               0.000594471               0.999999988               0.000155860               0.000627764               0.999999988               0.000168454               0.000664624               0.999999988               0.000180334               0.000703082               0.999999988               0.000190789               0.000741788               0.999999988               0.000199523               0.000779738               0.999999988               0.000206341               0.000816595               0.999999988               0.000211336               0.000852201               0.999999988               0.000214644               0.000886573               0.999999988               0.000216537               0.000919599               0.999999988               0.000217476               0.000951416               0.999999988               0.000217846               0.000982568               0.999999988               0.000217779               0.001013136               0.999999988               0.000169552               0.000698900               0.999999988               0.000115033               0.000635149               0.999999988               0.000102638               0.000618977               0.999999988               0.000104949               0.000626936               0.999999988               0.000113331               0.000647790               0.999999988               0.000124329               0.000676259               0.999999988               0.000135959               0.000709257               0.999999988               0.000147056               0.000744563               0.999999988               0.000157076               0.000780839               0.999999988               0.000165447               0.000817262               0.999999988               0.000171873               0.000853207               0.999999988               0.000176564               0.000888384               0.999999988               0.000179643               0.000922753               0.999999988               0.000181095               0.000956155               0.999999988               0.000181062               0.000988660               0.999999988               0.000180151               0.001020429               0.999999988               0.000178885               0.001051743               0.999999988               0.000148887               0.000753469               0.999999988               0.000092682               0.000701269               0.999999988               0.000077521               0.000684497               0.999999988               0.000077735               0.000688351               0.999999988               0.000084485               0.000704668               0.999999988               0.000094004               0.000728818               0.999999988               0.000104449               0.000757991               0.999999988               0.000114585               0.000790105               0.999999988               0.000123737               0.000823852               0.999999988               0.000131582               0.000858374               0.999999988               0.000137587               0.000892999               0.999999988               0.000141923               0.000927284               0.999999988               0.000144599               0.000961178               0.999999988               0.000145506               0.000994520               0.999999988               0.000144486               0.001027259               0.999999988               0.000141898               0.001059523               0.999999988               0.000138511               0.001091481               0.999999988               0.000126665               0.000801129               0.999999988               0.000072754               0.000762733               0.999999988               0.000055872               0.000748161               0.999999988               0.000053895               0.000750166               0.999999988               0.000058684               0.000763304               0.999999988               0.000066431               0.000784015               0.999999988               0.000075277               0.000809943               0.999999988               0.000084072               0.000839240               0.999999988               0.000092031               0.000870641               0.999999988               0.000098987               0.000903278               0.999999988               0.000104566               0.000936513               0.999999988               0.000108294               0.000969902               0.999999988               0.000110310               0.001003238               0.999999988               0.000110488               0.001036268               0.999999988               0.000108366               0.001068990               0.999999988               0.000103948               0.001101394               0.999999988               0.000097811               0.001133662               0.999999988               0.000103083               0.000841116               0.999999988               0.000055210               0.000817189               0.999999988               0.000038147               0.000806939               0.999999988               0.000034469               0.000809093               0.999999988               0.000037268               0.000820687               0.999999988               0.000043031               0.000839171               0.999999988               0.000049944               0.000862757               0.999999988               0.000057008               0.000889968               0.999999988               0.000063604               0.000919550               0.999999988               0.000069442               0.000950710               0.999999988               0.000074162               0.000982899               0.999999988               0.000077257               0.001015596               0.999999988               0.000078480               0.001048517               0.999999988               0.000077673               0.001081480               0.999999988               0.000074460               0.001114294               0.999999988               0.000068282               0.001146885               0.999999988               0.000059053               0.001179521               0.999999988               0.000078360               0.000872855               0.999999988               0.000039650               0.000862337               0.999999988               0.000024350               0.000857575               0.999999988               0.000019935               0.000861278               0.999999988               0.000021011               0.000872688               0.999999988               0.000024846               0.000890207               0.999999988               0.000029723               0.000912446               0.999999988               0.000034953               0.000938279               0.999999988               0.000040079               0.000966737               0.999999988               0.000044611               0.000997091               0.999999988               0.000048335               0.001028720               0.999999988               0.000050722               0.001061237               0.999999988               0.000051376               0.001094223               0.999999988               0.000049860               0.001127470               0.999999988               0.000045776               0.001160797               0.999999988               0.000038354               0.001194118               0.999999988               0.000026744               0.001227536               0.999999988               0.000052758               0.000895896               0.999999988               0.000025592               0.000896119               0.999999988               0.000014049               0.000896649               0.999999988               0.000010109               0.000902581               0.999999988               0.000010133               0.000914555               0.999999988               0.000012265               0.000931903               0.999999988               0.000015387               0.000953586               0.999999988               0.000018790               0.000978739               0.999999988               0.000022235               0.001006647               0.999999988               0.000025399               0.001036773               0.999999988               0.000027999               0.001068593               0.999999988               0.000029678               0.001101607               0.999999988               0.000029926               0.001135398               0.999999988               0.000028261               0.001169620               0.999999988               0.000024257               0.001204120               0.999999988               0.000017109               0.001238748               0.999999988               0.000005534               0.001273331               0.999999988               0.000026546               0.000909881               0.999999988               0.000012537               0.000917048               0.999999988               0.000006332               0.000921338               0.999999988               0.000004013               0.000929124               0.999999988               0.000003755               0.000941788               0.999999988               0.000004708               0.000959194               0.999999988               0.000006216               0.000980723               0.999999988               0.000007881               0.001005659               0.999999988               0.000009592               0.001033496               0.999999988               0.000011209               0.001063791               0.999999988               0.000012537               0.001096034               0.999999988               0.000013445               0.001129810               0.999999988               0.000013467               0.001164677               0.999999988               0.000012414               0.001200260               0.999999988               0.000009922               0.001236292               0.999999988               0.000005479               0.001272475               0.999999988              -0.000002090               0.001308454               0.999999988              -0.000000000               0.000914579               0.999999988               0.000000000               0.000924139               0.999999988              -0.000000000               0.000929772               0.999999988               0.000000000               0.000938308               0.999999988               0.000000000               0.000951282               0.999999988               0.000000000               0.000968691               0.999999988               0.000000000               0.000990173               0.999999988              -0.000000000               0.001015136               0.999999988              -0.000000000               0.001042993               0.999999988              -0.000000000               0.001073340               0.999999988              -0.000000000               0.001105835               0.999999988              -0.000000000               0.001139951               0.999999988              -0.000000000               0.001175289               0.999999988               0.000000000               0.001211483               0.999999988              -0.000000000               0.001248269               0.999999988              -0.000000000               0.001285296               0.999999988              -0.000000000               0.001321949               0.999999988 </DataArray>
<DataArray type="Float64"                                    Name="defo"                                                      NumberOfComponents=" 3" format="ascii">
             -0.000276397               0.000000000               0.999999988              -0.000311642               0.000000000               0.999999988              -0.000327790               0.000000000               0.999999988              -0.000337053               0.000000000               0.999999988              -0.000344308               0.000000000               0.999999988              -0.000351539               0.000000000               0.999999988              -0.000359633              -0.000000000               0.999999988              -0.000368928              -0.000000000               0.999999988              -0.000379552               0.000000000               0.999999988              -0.000391442               0.000000000               0.999999988              -0.000404489               0.000000000               0.999999988              -0.000418534               0.000000000               0.999999988              -0.000433332               0.000000000               0.999999988              -0.000448620               0.000000000               0.999999988              -0.000464253               0.000000000               0.999999988              -0.000480034               0.000000000               0.999999988              -0.000495499               0.000000000               0.999999988              -0.000274828               0.000089218               0.999999988              -0.000308004               0.000075798               0.999999988              -0.000322919               0.000070749               0.999999988              -0.000331475               0.000070151               0.999999988              -0.000338274               0.000072288               0.999999988              -0.000345274               0.000076045               0.999999988              -0.000353262               0.000080737               0.999999988              -0.000362507               0.000086029               0.999999988              -0.000373052               0.000091666               0.999999988              -0.000384769               0.000097316               0.999999988              -0.000397566               0.000102928               0.999999988              -0.000411212               0.000108347               0.999999988              -0.000425536               0.000113292               0.999999988              -0.000440379               0.000117524               0.999999988              -0.000455467               0.000121020               0.999999988              -0.000470509               0.000123309               0.999999988              -0.000485250               0.000123690               0.999999988              -0.000270207               0.000177485               0.999999988              -0.000297361               0.000150888               0.999999988              -0.000308771               0.000141446               0.999999988              -0.000315451               0.000140821               0.999999988              -0.000321299               0.000145415               0.999999988              -0.000327858               0.000153134               0.999999988              -0.000335694               0.000162645               0.999999988              -0.000344816               0.000173219               0.999999988              -0.000355090               0.000184380               0.999999988              -0.000366462               0.000195747               0.999999988              -0.000378800               0.000206935               0.999999988              -0.000391802               0.000217621               0.999999988              -0.000405259               0.000227465               0.999999988              -0.000418914               0.000236147               0.999999988              -0.000432608               0.000243397               0.999999988              -0.000446163               0.000248747               0.999999988              -0.000459332               0.000251459               0.999999988              -0.000262658               0.000263873               0.999999988              -0.000280315               0.000224737               0.999999988              -0.000286723               0.000212016               0.999999988              -0.000290977               0.000212300               0.999999988              -0.000295864               0.000219895               0.999999988              -0.000302183               0.000231859               0.999999988              -0.000310005               0.000246258               0.999999988              -0.000319117               0.000262002               0.999999988              -0.000329397               0.000278595               0.999999988              -0.000340554               0.000295501               0.999999988              -0.000352365               0.000312096               0.999999988              -0.000364533               0.000327807               0.999999988              -0.000376819               0.000342543               0.999999988              -0.000389045               0.000355791               0.999999988              -0.000400999               0.000367268               0.999999988              -0.000412454               0.000376557               0.999999988              -0.000423337               0.000383020               0.999999988              -0.000252332               0.000347510               0.999999988              -0.000257836               0.000296983               0.999999988              -0.000258749               0.000282336               0.999999988              -0.000260771               0.000284481               0.999999988              -0.000265062               0.000295723               0.999999988              -0.000271510               0.000312121               0.999999988              -0.000279713               0.000331435               0.999999988              -0.000289229               0.000352263               0.999999988              -0.000299649               0.000374083               0.999999988              -0.000310660               0.000396102               0.999999988              -0.000321875               0.000417630               0.999999988              -0.000333021               0.000438160               0.999999988              -0.000343806               0.000457582               0.999999988              -0.000354050               0.000475564               0.999999988              -0.000363653               0.000491622               0.999999988              -0.000372561               0.000505445               0.999999988              -0.000380942               0.000516984               0.999999988              -0.000239385               0.000427626               0.999999988              -0.000231102               0.000367402               0.999999988              -0.000226902               0.000352233               0.999999988              -0.000227540               0.000357035               0.999999988              -0.000232047               0.000372200               0.999999988              -0.000239250               0.000393127               0.999999988              -0.000248248               0.000417261               0.999999988              -0.000258314               0.000443084               0.999999988              -0.000269015               0.000469694               0.999999988              -0.000279848               0.000496404               0.999999988              -0.000290335               0.000522441               0.999999988              -0.000300218               0.000547335               0.999999988              -0.000309321               0.000571094               0.999999988              -0.000317632               0.000593441               0.999999988              -0.000325079               0.000613791               0.999999988              -0.000331792               0.000632398               0.999999988              -0.000338036               0.000649501               0.999999988              -0.000224094               0.000503435               0.999999988              -0.000201521               0.000435852               0.999999988              -0.000193542               0.000421278               0.999999988              -0.000194128               0.000429133               0.999999988              -0.000199698               0.000448277               0.999999988              -0.000208186               0.000473621               0.999999988              -0.000218246               0.000502358               0.999999988              -0.000229084               0.000532717               0.999999988              -0.000240010               0.000563819               0.999999988              -0.000250467               0.000594718               0.999999988              -0.000260096               0.000624797               0.999999988              -0.000268728               0.000653568               0.999999988              -0.000276330               0.000681096               0.999999988              -0.000282805               0.000707159               0.999999988              -0.000288214               0.000731560               0.999999988              -0.000292825               0.000754619               0.999999988              -0.000296951               0.000776685               0.999999988              -0.000206780               0.000574139               0.999999988              -0.000170694               0.000502149               0.999999988              -0.000160763               0.000488911               0.999999988              -0.000162574               0.000499844               0.999999988              -0.000169897               0.000522765               0.999999988              -0.000180043               0.000552262               0.999999988              -0.000191463               0.000585169               0.999999988              -0.000203005               0.000619805               0.999999988              -0.000213931               0.000654849               0.999999988              -0.000223772               0.000689495               0.999999988              -0.000232275               0.000723080               0.999999988              -0.000239339               0.000755336               0.999999988              -0.000245001               0.000786396               0.999999988              -0.000249325               0.000816002               0.999999988              -0.000252536               0.000844134               0.999999988              -0.000255002               0.000871235               0.999999988              -0.000256928               0.000897599               0.999999988              -0.000188195               0.000638541               0.999999988              -0.000139793               0.000566203               0.999999988              -0.000130299               0.000554453               0.999999988              -0.000134225               0.000568106               0.999999988              -0.000143813               0.000594471               0.999999988              -0.000155860               0.000627764               0.999999988              -0.000168454               0.000664624               0.999999988              -0.000180334               0.000703082               0.999999988              -0.000190789               0.000741788               0.999999988              -0.000199523               0.000779738               0.999999988              -0.000206341               0.000816595               0.999999988              -0.000211336               0.000852201               0.999999988              -0.000214644               0.000886573               0.999999988              -0.000216537               0.000919599               0.999999988              -0.000217476               0.000951416               0.999999988              -0.000217846               0.000982568               0.999999988              -0.000217779               0.001013136               0.999999988              -0.000169552               0.000698900               0.999999988              -0.000115033               0.000635149               0.999999988              -0.000102638               0.000618977               0.999999988              -0.000104949               0.000626936               0.999999988              -0.000113331               0.000647790               0.999999988              -0.000124329               0.000676259               0.999999988              -0.000135959               0.000709257               0.999999988              -0.000147056               0.000744563               0.999999988              -0.000157076               0.000780839               0.999999988              -0.000165447               0.000817262               0.999999988              -0.000171873               0.000853207               0.999999988              -0.000176564               0.000888384               0.999999988              -0.000179643               0.000922753               0.999999988              -0.000181095               0.000956155               0.999999988              -0.000181062               0.000988660               0.999999988              -0.000180151               0.001020429               0.999999988              -0.000178885               0.001051743               0.999999988              -0.000148887               0.000753469               0.999999988              -0.000092682               0.000701269               0.999999988              -0.000077521               0.000684497               0.999999988              -0.000077735               0.000688351               0.999999988              -0.000084485               0.000704668               0.999999988              -0.000094004               0.000728818               0.999999988              -0.000104449               0.000757991               0.999999988              -0.000114585               0.000790105               0.999999988              -0.000123737               0.000823852               0.999999988              -0.000131582               0.000858374               0.999999988              -0.000137587               0.000892999               0.999999988              -0.000141923               0.000927284               0.999999988              -0.000144599               0.000961178               0.999999988              -0.000145506               0.000994520               0.999999988              -0.000144486               0.001027259               0.999999988              -0.000141898               0.001059523               0.999999988              -0.000138511               0.001091481               0.999999988              -0.000126665               0.000801129               0.999999988              -0.000072754               0.000762733               0.999999988              -0.000055872               0.000748161               0.999999988              -0.000053895               0.000750166               0.999999988              -0.000058684               0.000763304               0.999999988              -0.000066431               0.000784015               0.999999988              -0.000075277               0.000809943               0.999999988              -0.000084072               0.000839240               0.999999988              -0.000092031               0.000870641               0.999999988              -0.000098987               0.000903278               0.999999988              -0.000104566               0.000936513               0.999999988              -0.000108294               0.000969902               0.999999988              -0.000110310               0.001003238               0.999999988              -0.000110488               0.001036268               0.999999988              -0.000108366               0.001068990               0.999999988              -0.000103948               0.001101394               0.999999988              -0.000097811               0.001133662               0.999999988              -0.000103083               0.000841116               0.999999988              -0.000055210               0.000817189               0.999999988              -0.000038147               0.000806939               0.999999988              -0.000034469               0.000809093               0.999999988              -0.000037268               0.000820687               0.999999988              -0.000043031               0.000839171               0.999999988              -0.000049944               0.000862757               0.999999988              -0.000057008               0.000889968               0.999999988              -0.000063604               0.000919550               0.999999988              -0.000069442               0.000950710               0.999999988              -0.000074162               0.000982899               0.999999988              -0.000077257               0.001015596               0.999999988              -0.000078480               0.001048517               0.999999988              -0.000077673               0.001081480               0.999999988              -0.000074460               0.001114294               0.999999988              -0.000068282               0.001146885               0.999999988              -0.000059053               0.001179521               0.999999988              -0.000078360               0.000872855               0.999999988              -0.000039650               0.000862337               0.999999988              -0.000024350               0.000857575               0.999999988              -0.000019935               0.000861278               0.999999988              -0.000021011               0.000872688               0.999999988              -0.000024846               0.000890207               0.999999988              -0.000029723               0.000912446               0.999999988              -0.000034953               0.000938279               0.999999988              -0.000040079               0.000966737               0.999999988              -0.000044611               0.000997091               0.999999988              -0.000048335               0.001028720               0.999999988              -0.000050722               0.001061237               0.999999988              -0.000051376               0.001094223               0.999999988              -0.000049860               0.001127470               0.999999988              -0.000045776               0.001160797               0.999999988              -0.000038354               0.001194118               0.999999988              -0.000026744               0.001227536               0.999999988              -0.000052758               0.000895896               0.999999988              -0.000025592               0.000896119               0.999999988              -0.000014049               0.000896649               0.999999988              -0.000010109               0.000902581               0.999999988              -0.000010133               0.000914555               0.999999988              -0.000012265               0.000931903               0.999999988              -0.000015387               0.000953586               0.999999988              -0.000018790               0.000978739               0.999999988              -0.000022235               0.001006647               0.999999988              -0.000025399               0.001036773               0.999999988              -0.000027999               0.001068593               0.999999988              -0.000029678               0.001101607               0.999999988              -0.000029926               0.001135398               0.999999988              -0.000028261               0.001169620               0.999999988              -0.000024257               0.001204120               0.999999988              -0.000017109               0.001238748               0.999999988              -0.000005534               0.001273331               0.999999988              -0.000026546               0.000909881               0.999999988              -0.000012537               0.000917048               0.999999988              -0.000006332               0.000921338               0.999999988              -0.000004013               0.000929124               0.999999988              -0.000003755               0.000941788               0.999999988              -0.000004708               0.000959194               0.999999988              -0.000006216               0.000980723               0.999999988              -0.000007881               0.001005659               0.999999988              -0.000009592               0.001033496               0.999999988              -0.000011209               0.001063791               0.999999988              -0.000012537               0.001096034               0.999999988              -0.000013445               0.001129810               0.999999988              -0.000013467               0.001164677               0.999999988              -0.000012414               0.001200260               0.999999988              -0.000009922               0.001236292               0.999999988              -0.000005479               0.001272475               0.999999988               0.000002090               0.001308454               0.999999988              -0.000000000               0.000914579               0.999999988               0.000000000               0.000924139               0.999999988              -0.000000000               0.000929772               0.999999988               0.000000000               0.000938308               0.999999988               0.000000000               0.000951282               0.999999988               0.000000000               0.000968691               0.999999988               0.000000000               0.000990173               0.999999988              -0.000000000               0.001015136               0.999999988              -0.000000000               0.001042993               0.999999988              -0.000000000               0.001073340               0.999999988              -0.000000000               0.001105835               0.999999988              -0.000000000               0.001139951               0.999999988              -0.000000000               0.001175289               0.999999988               0.000000000               0.001211483               0.999999988              -0.000000000               0.001248269               0.999999988              -0.000000000               0.001285296               0.999999988              -0.000000000               0.001321949               0.999999988              -0.000276397               0.000000000               0.999999988              -0.000311642               0.000000000               0.999999988              -0.000327790               0.000000000               0.999999988              -0.000337053               0.000000000               0.999999988              -0.000344308               0.000000000               0.999999988              -0.000351539               0.000000000               0.999999988              -0.000359633              -0.000000000               0.999999988              -0.000368928              -0.000000000               0.999999988              -0.000379552               0.000000000               0.999999988              -0.000391442               0.000000000               0.999999988              -0.000404489               0.000000000               0.999999988              -0.000418534               0.000000000               0.999999988              -0.000433332               0.000000000               0.999999988              -0.000448620               0.000000000               0.999999988              -0.000464253               0.000000000               0.999999988              -0.000480034               0.000000000               0.999999988              -0.000495499               0.000000000               0.999999988              -0.000274828              -0.000089218               0.999999988              -0.000308004              -0.000075798               0.999999988              -0.000322919              -0.000070749               0.999999988              -0.000331475              -0.000070151               0.999999988              -0.000338274              -0.000072288               0.999999988              -0.000345274              -0.000076045               0.999999988              -0.000353262              -0.000080737               0.999999988              -0.000362507              -0.000086029               0.999999988              -0.000373052              -0.000091666               0.999999988              -0.000384769              -0.000097316               0.999999988              -0.000397566              -0.000102928               0.999999988              -0.000411212              -0.000108347               0.999999988              -0.000425536              -0.000113292               0.999999988              -0.000440379              -0.000117524               0.999999988              -0.000455467              -0.000121020               0.999999988              -0.000470509              -0.000123309               0.999999988              -0.000485250              -0.000123690               0.999999988              -0.000270207              -0.000177485               0.999999988              -0.000297361              -0.000150888               0.999999988              -0.000308771              -0.000141446               0.999999988              -0.000315451              -0.000140821               0.999999988              -0.000321299              -0.000145415               0.999999988              -0.000327858              -0.000153134               0.999999988              -0.000335694              -0.000162645               0.999999988              -0.000344816              -0.000173219               0.999999988              -0.000355090              -0.000184380               0.999999988              -0.000366462              -0.000195747               0.999999988              -0.000378800              -0.000206935               0.999999988              -0.000391802              -0.000217621               0.999999988              -0.000405259              -0.000227465               0.999999988              -0.000418914              -0.000236147               0.999999988              -0.000432608              -0.000243397               0.999999988              -0.000446163              -0.000248747               0.999999988              -0.000459332              -0.000251459               0.999999988              -0.000262658              -0.000263873               0.999999988              -0.000280315              -0.000224737               0.999999988              -0.000286723              -0.000212016               0.999999988              -0.000290977              -0.000212300               0.999999988              -0.000295864              -0.000219895               0.999999988              -0.000302183              -0.000231859               0.999999988              -0.000310005              -0.000246258               0.999999988              -0.000319117              -0.000262002               0.999999988              -0.000329397              -0.000278595               0.999999988              -0.000340554              -0.000295501               0.999999988              -0.000352365              -0.000312096               0.999999988              -0.000364533              -0.000327807               0.999999988              -0.000376819              -0.000342543               0.999999988              -0.000389045              -0.000355791               0.999999988              -0.000400999              -0.000367268               0.999999988              -0.000412454              -0.000376557               0.999999988              -0.000423337              -0.000383020               0.999999988              -0.000252332              -0.000347510               0.999999988              -0.000257836              -0.000296983               0.999999988              -0.000258749              -0.000282336               0.999999988              -0.000260771              -0.000284481               0.999999988              -0.000265062              -0.000295723               0.999999988              -0.000271510              -0.000312121               0.999999988              -0.000279713              -0.000331435               0.999999988              -0.000289229              -0.000352263               0.999999988              -0.000299649              -0.000374083               0.999999988              -0.000310660              -0.000396102               0.999999988              -0.000321875              -0.000417630               0.999999988              -0.000333021              -0.000438160               0.999999988              -0.000343806              -0.000457582               0.999999988              -0.000354050              -0.000475564               0.999999988              -0.000363653              -0.000491622               0.999999988              -0.000372561              -0.000505445               0.999999988              -0.000380942              -0.000516984               0.999999988              -0.000239385              -0.000427626               0.999999988              -0.000231102              -0.000367402               0.999999988              -0.000226902              -0.000352233               0.999999988              -0.000227540              -0.000357035               0.999999988              -0.000232047              -0.000372200               0.999999988              -0.000239250              -0.000393127               0.999999988              -0.000248248              -0.000417261               0.999999988              -0.000258314              -0.000443084               0.999999988              -0.000269015              -0.000469694               0.999999988              -0.000279848              -0.000496404               0.999999988              -0.000290335              -0.000522441               0.999999988              -0.000300218              -0.000547335               0.999999988              -0.000309321              -0.000571094               0.999999988              -0.000317632              -0.000593441               0.999999988              -0.000325079              -0.000613791               0.999999988              -0.000331792              -0.000632398               0.999999988              -0.000338036              -0.000649501               0.999999988              -0.000224094              -0.000503435               0.999999988              -0.000201521              -0.000435852               0.999999988              -0.000193542              -0.000421278               0.999999988              -0.000194128              -0.000429133               0.999999988              -0.000199698              -0.000448277               0.999999988              -0.000208186              -0.000473621               0.999999988              -0.000218246              -0.000502358               0.999999988              -0.000229084              -0.000532717               0.999999988              -0.000240010              -0.000563819               0.999999988              -0.000250467              -0.000594718               0.999999988              -0.000260096              -0.000624797               0.999999988              -0.000268728              -0.000653568               0.999999988              -0.000276330              -0.000681096               0.999999988              -0.000282805              -0.000707159               0.999999988              -0.000288214              -0.000731560               0.999999988              -0.000292825              -0.000754619               0.999999988              -0.000296951              -0.000776685               0.999999988              -0.000206780              -0.000574139               0.999999988              -0.000170694              -0.000502149               0.999999988              -0.000160763              -0.000488911               0.999999988              -0.000162574              -0.000499844               0.999999988              -0.000169897              -0.000522765               0.999999988              -0.000180043              -0.000552262               0.999999988              -0.000191463              -0.000585169               0.999999988              -0.000203005              -0.000619805               0.999999988              -0.000213931              -0.000654849               0.999999988              -0.000223772              -0.000689495               0.999999988              -0.000232275              -0.000723080               0.999999988              -0.000239339              -0.000755336               0.999999988              -0.000245001              -0.000786396               0.999999988              -0.000249325              -0.000816002               0.999999988              -0.000252536              -0.000844134               0.999999988              -0.000255002              -0.000871235               0.999999988              -0.000256928              -0.000897599               0.999999988              -0.000188195              -0.000638541               0.999999988              -0.000139793              -0.000566203               0.999999988              -0.000130299              -0.000554453               0.999999988              -0.000134225              -0.000568106               0.999999988              -0.000143813              -0.000594471               0.999999988              -0.000155860              -0.000627764               0.999999988              -0.000168454              -0.000664624               0.999999988              -0.000180334              -0.000703082               0.999999988              -0.000190789              -0.000741788               0.999999988              -0.000199523              -0.000779738               0.999999988              -0.000206341              -0.000816595               0.999999988              -0.000211336              -0.000852201               0.999999988              -0.000214644              -0.000886573               0.999999988              -0.000216537              -0.000919599               0.999999988              -0.000217476              -0.000951416               0.999999988              -0.000217846              -0.000982568               0.999999988              -0.000217779              -0.001013136               0.999999988              -0.000169552              -0.000698900               0.999999988              -0.000115033              -0.000635149               0.999999988              -0.000102638              -0.000618977               0.999999988              -0.000104949              -0.000626936               0.999999988              -0.000113331              -0.000647790               0.999999988              -0.000124329              -0.000676259               0.999999988              -0.000135959              -0.000709257               0.999999988              -0.000147056              -0.000744563               0.999999988              -0.000157076              -0.000780839               0.999999988              -0.000165447              -0.000817262               0.999999988              -0.000171873              -0.000853207               0.999999988              -0.000176564              -0.000888384               0.999999988              -0.000179643              -0.000922753               0.999999988              -0.000181095              -0.000956155               0.999999988              -0.000181062              -0.000988660               0.999999988              -0.000180151              -0.001020429               0.999999988              -0.000178885              -0.001051743               0.999999988              -0.000148887              -0.000753469               0.999999988              -0.000092682              -0.000701269               0.999999988              -0.000077521              -0.000684497               0.999999988              -0.000077735              -0.000688351               0.999999988              -0.000084485              -0.000704668               0.999999988              -0.000094004              -0.000728818               0.999999988              -0.000104449              -0.000757991               0.999999988              -0.000114585              -0.000790105               0.999999988              -0.000123737              -0.000823852               0.999999988              -0.000131582              -0.000858374               0.999999988              -0.000137587              -0.000892999               0.999999988              -0.000141923              -0.000927284               0.999999988              -0.000144599              -0.000961178               0.999999988              -0.000145506              -0.000994520               0.999999988              -0.000144486              -0.001027259               0.999999988              -0.000141898              -0.001059523               0.999999988              -0.000138511              -0.001091481               0.999999988              -0.000126665              -0.000801129               0.999999988              -0.000072754              -0.000762733               0.999999988              -0.000055872              -0.000748161               0.999999988              -0.000053895              -0.000750166               0.999999988              -0.000058684              -0.000763304               0.999999988              -0.000066431              -0.000784015               0.999999988              -0.000075277              -0.000809943               0.999999988              -0.000084072              -0.000839240               0.999999988              -0.000092031              -0.000870641               0.999999988              -0.000098987              -0.000903278               0.999999988              -0.000104566              -0.000936513               0.999999988              -0.000108294              -0.000969902               0.999999988              -0.000110310              -0.001003238               0.999999988              -0.000110488              -0.001036268               0.999999988              -0.000108366              -0.001068990               0.999999988              -0.000103948              -0.001101394               0.999999988              -0.000097811              -0.001133662               0.999999988              -0.000103083              -0.000841116               0.999999988              -0.000055210              -0.000817189               0.999999988              -0.000038147              -0.000806939               0.999999988              -0.000034469              -0.000809093               0.999999988              -0.000037268              -0.000820687               0.999999988              -0.000043031              -0.000839171               0.999999988              -0.000049944              -0.000862757               0.999999988              -0.000057008              -0.000889968               0.999999988              -0.000063604              -0.000919550               0.999999988              -0.000069442              -0.000950710               0.999999988              -0.000074162              -0.000982899               0.999999988              -0.000077257              -0.001015596               0.999999988              -0.000078480              -0.001048517               0.999999988              -0.000077673              -0.001081480               0.999999988              -0.000074460              -0.001114294               0.999999988              -0.000068282              -0.001146885               0.999999988              -0.000059053              -0.001179521               0.999999988              -0.000078360              -0.000872855               0.999999988              -0.000039650              -0.000862337               0.999999988              -0.000024350              -0.000857575               0.999999988              -0.000019935              -0.000861278               0.999999988              -0.000021011              -0.000872688               0.999999988              -0.000024846              -0.000890207               0.999999988              -0.000029723              -0.000912446               0.999999988              -0.000034953              -0.000938279               0.999999988              -0.000040079              -0.000966737               0.999999988              -0.000044611              -0.000997091               0.999999988              -0.000048335              -0.001028720               0.999999988              -0.000050722              -0.001061237               0.999999988              -0.000051376              -0.001094223               0.999999988              -0.000049860              -0.001127470               0.999999988              -0.000045776              -0.001160797               0.999999988              -0.000038354              -0.001194118               0.999999988              -0.000026744              -0.001227536               0.999999988              -0.000052758              -0.000895896               0.999999988              -0.000025592              -0.000896119               0.999999988              -0.000014049              -0.000896649               0.999999988              -0.000010109              -0.000902581               0.999999988              -0.000010133              -0.000914555               0.999999988              -0.000012265              -0.000931903               0.999999988              -0.000015387              -0.000953586               0.999999988              -0.000018790              -0.000978739               0.999999988              -0.000022235              -0.001006647               0.999999988              -0.000025399              -0.001036773               0.999999988              -0.000027999              -0.001068593               0.999999988              -0.000029678              -0.001101607               0.999999988              -0.000029926              -0.001135398               0.999999988              -0.000028261              -0.001169620               0.999999988              -0.000024257              -0.001204120               0.999999988              -0.000017109              -0.001238748               0.999999988              -0.000005534              -0.001273331               0.999999988              -0.000026546              -0.000909881               0.999999988              -0.000012537              -0.000917048               0.999999988              -0.000006332              -0.000921338               0.999999988              -0.000004013              -0.000929124               0.999999988              -0.000003755              -0.000941788               0.999999988              -0.000004708              -0.000959194               0.999999988              -0.000006216              -0.000980723               0.999999988              -0.000007881              -0.001005659               0.999999988              -0.000009592              -0.001033496               0.999999988              -0.000011209              -0.001063791               0.999999988              -0.000012537              -0.001096034               0.999999988              -0.000013445              -0.001129810               0.999999988              -0.000013467              -0.001164677               0.999999988              -0.000012414              -0.001200260               0.999999988              -0.000009922              -0.001236292               0.999999988              -0.000005479              -0.001272475               0.999999988               0.000002090              -0.001308454               0.999999988              -0.000000000              -0.000914579               0.999999988              -0.000000000              -0.000924139               0.999999988               0.000000000              -0.000929772               0.999999988              -0.000000000              -0.000938308               0.999999988              -0.000000000              -0.000951282               0.999999988               0.000000000              -0.000968691               0.999999988              -0.000000000              -0.000990173               0.999999988               0.000000000              -0.001015136               0.999999988               0.000000000              -0.001042993               0.999999988               0.000000000              -0.001073340               0.999999988               0.000000000              -0.001105835               0.999999988               0.000000000              -0.001139951               0.999999988               0.000000000              -0.001175289               0.999999988              -0.000000000              -0.001211483               0.999999988              -0.000000000              -0.001248269               0.999999988              -0.000000000              -0.001285296               0.999999988              -0.000000000              -0.001321949               0.999999988               0.000276397              -0.000000000               0.999999988               0.000311642              -0.000000000               0.999999988               0.000327790               0.000000000               0.999999988               0.000337053              -0.000000000               0.999999988               0.000344308               0.000000000               0.999999988               0.000351539              -0.000000000               0.999999988               0.000359633               0.000000000               0.999999988               0.000368928               0.000000000               0.999999988               0.000379552              -0.000000000               0.999999988               0.000391442               0.000000000               0.999999988               0.000404489               0.000000000               0.999999988               0.000418534               0.000000000               0.999999988               0.000433332               0.000000000               0.999999988               0.000448620              -0.000000000               0.999999988               0.000464253               0.000000000               0.999999988               0.000480034              -0.000000000               0.999999988               0.000495499              -0.000000000               0.999999988               0.000274828              -0.000089218               0.999999988               0.000308004              -0.000075798               0.999999988               0.000322919              -0.000070749               0.999999988               0.000331475              -0.000070151               0.999999988               0.000338274              -0.000072288               0.999999988               0.000345274              -0.000076045               0.999999988               0.000353262              -0.000080737               0.999999988               0.000362507              -0.000086029               0.999999988               0.000373052              -0.000091666               0.999999988               0.000384769              -0.000097316               0.999999988               0.000397566              -0.000102928               0.999999988               0.000411212              -0.000108347               0.999999988               0.000425536              -0.000113292               0.999999988               0.000440379              -0.000117524               0.999999988               0.000455467              -0.000121020               0.999999988               0.000470509              -0.000123309               0.999999988               0.000485250              -0.000123690               0.999999988               0.000270207              -0.000177485               0.999999988               0.000297361              -0.000150888               0.999999988               0.000308771              -0.000141446               0.999999988               0.000315451              -0.000140821               0.999999988               0.000321299              -0.000145415               0.999999988               0.000327858              -0.000153134               0.999999988               0.000335694              -0.000162645               0.999999988               0.000344816              -0.000173219               0.999999988               0.000355090              -0.000184380               0.999999988               0.000366462              -0.000195747               0.999999988               0.000378800              -0.000206935               0.999999988               0.000391802              -0.000217621               0.999999988               0.000405259              -0.000227465               0.999999988               0.000418914              -0.000236147               0.999999988               0.000432608              -0.000243397               0.999999988               0.000446163              -0.000248747               0.999999988               0.000459332              -0.000251459               0.999999988               0.000262658              -0.000263873               0.999999988               0.000280315              -0.000224737               0.999999988               0.000286723              -0.000212016               0.999999988               0.000290977              -0.000212300               0.999999988               0.000295864              -0.000219895               0.999999988               0.000302183              -0.000231859               0.999999988               0.000310005              -0.000246258               0.999999988               0.000319117              -0.000262002               0.999999988               0.000329397              -0.000278595               0.999999988               0.000340554              -0.000295501               0.999999988               0.000352365              -0.000312096               0.999999988               0.000364533              -0.000327807               0.999999988               0.000376819              -0.000342543               0.999999988               0.000389045              -0.000355791               0.999999988               0.000400999              -0.000367268               0.999999988               0.000412454              -0.000376557               0.999999988               0.000423337              -0.000383020               0.999999988               0.000252332              -0.000347510               0.999999988               0.000257836              -0.000296983               0.999999988               0.000258749              -0.000282336               0.999999988               0.000260771              -0.000284481               0.999999988               0.000265062              -0.000295723               0.999999988               0.000271510              -0.000312121               0.999999988               0.000279713              -0.000331435               0.999999988               0.000289229              -0.000352263               0.999999988               0.000299649              -0.000374083               0.999999988               0.000310660              -0.000396102               0.999999988               0.000321875              -0.000417630               0.999999988               0.000333021              -0.000438160               0.999999988               0.000343806              -0.000457582               0.999999988               0.000354050              -0.000475564               0.999999988               0.000363653              -0.000491622               0.999999988               0.000372561              -0.000505445               0.999999988               0.000380942              -0.000516984               0.999999988               0.000239385              -0.000427626               0.999999988               0.000231102              -0.000367402               0.999999988               0.000226902              -0.000352233               0.999999988               0.000227540              -0.000357035               0.999999988               0.000232047              -0.000372200               0.999999988               0.000239250              -0.000393127               0.999999988               0.000248248              -0.000417261               0.999999988               0.000258314              -0.000443084               0.999999988               0.000269015              -0.000469694               0.999999988               0.000279848              -0.000496404               0.999999988               0.000290335              -0.000522441               0.999999988               0.000300218              -0.000547335               0.999999988               0.000309321              -0.000571094               0.999999988               0.000317632              -0.000593441               0.999999988               0.000325079              -0.000613791               0.999999988               0.000331792              -0.000632398               0.999999988               0.000338036              -0.000649501               0.999999988               0.000224094              -0.000503435               0.999999988               0.000201521              -0.000435852               0.999999988               0.000193542              -0.000421278               0.999999988               0.000194128              -0.000429133               0.999999988               0.000199698              -0.000448277               0.999999988               0.000208186              -0.000473621               0.999999988               0.000218246              -0.000502358               0.999999988               0.000229084              -0.000532717               0.999999988               0.000240010              -0.000563819               0.999999988               0.000250467              -0.000594718               0.999999988               0.000260096              -0.000624797               0.999999988               0.000268728              -0.000653568               0.999999988               0.000276330              -0.000681096               0.999999988               0.000282805              -0.000707159               0.999999988               0.000288214              -0.000731560               0.999999988               0.000292825              -0.000754619               0.999999988               0.000296951              -0.000776685               0.999999988               0.000206780              -0.000574139               0.999999988               0.000170694              -0.000502149               0.999999988               0.000160763              -0.000488911               0.999999988               0.000162574              -0.000499844               0.999999988               0.000169897              -0.000522765               0.999999988               0.000180043              -0.000552262               0.999999988               0.000191463              -0.000585169               0.999999988               0.000203005              -0.000619805               0.999999988               0.000213931              -0.000654849               0.999999988               0.000223772              -0.000689495               0.999999988               0.000232275              -0.000723080               0.999999988               0.000239339              -0.000755336               0.999999988               0.000245001              -0.000786396               0.999999988               0.000249325              -0.000816002               0.999999988               0.000252536              -0.000844134               0.999999988               0.000255002              -0.000871235               0.999999988               0.000256928              -0.000897599               0.999999988               0.000188195              -0.000638541               0.999999988               0.000139793              -0.000566203               0.999999988               0.000130299              -0.000554453               0.999999988               0.000134225              -0.000568106               0.999999988               0.000143813              -0.000594471               0.999999988               0.000155860              -0.000627764               0.999999988               0.000168454              -0.000664624               0.999999988               0.000180334              -0.000703082               0.999999988               0.000190789              -0.000741788               0.999999988               0.000199523              -0.000779738               0.999999988               0.000206341              -0.000816595               0.999999988               0.000211336              -0.000852201               0.999999988               0.000214644              -0.000886573               0.999999988               0.000216537              -0.000919599               0.999999988               0.000217476              -0.000951416               0.999999988               0.000217846              -0.000982568               0.999999988               0.000217779              -0.001013136               0.999999988               0.000169552              -0.000698900               0.999999988               0.000115033              -0.000635149               0.999999988               0.000102638              -0.000618977               0.999999988               0.000104949              -0.000626936               0.999999988               0.000113331              -0.000647790               0.999999988               0.000124329              -0.000676259               0.999999988               0.000135959              -0.000709257               0.999999988               0.000147056              -0.000744563               0.999999988               0.000157076              -0.000780839               0.999999988               0.000165447              -0.000817262               0.999999988               0.000171873              -0.000853207               0.999999988               0.000176564              -0.000888384               0.999999988               0.000179643              -0.000922753               0.999999988               0.000181095              -0.000956155               0.999999988               0.000181062              -0.000988660               0.999999988               0.000180151              -0.001020429               0.999999988               0.000178885              -0.001051743               0.999999988               0.000148887              -0.000753469               0.999999988               0.000092682              -0.000701269               0.999999988               0.000077521              -0.000684497               0.999999988               0.000077735              -0.000688351               0.999999988               0.000084485              -0.000704668               0.999999988               0.000094004              -0.000728818               0.999999988               0.000104449              -0.000757991               0.999999988               0.000114585              -0.000790105               0.999999988               0.000123737              -0.000823852               0.999999988               0.000131582              -0.000858374               0.999999988               0.000137587              -0.000892999               0.999999988               0.000141923              -0.000927284               0.999999988               0.000144599              -0.000961178               0.999999988               0.000145506              -0.000994520               0.999999988               0.000144486              -0.001027259               0.999999988               0.000141898              -0.001059523               0.999999988               0.000138511              -0.001091481               0.999999988               0.000126665              -0.000801129               0.999999988               0.000072754              -0.000762733               0.999999988               0.000055872              -0.000748161               0.999999988               0.000053895              -0.000750166               0.999999988               0.000058684              -0.000763304               0.999999988               0.000066431              -0.000784015               0.999999988               0.000075277              -0.000809943               0.999999988               0.000084072              -0.000839240               0.999999988               0.000092031              -0.000870641               0.999999988               0.000098987              -0.000903278               0.999999988               0.000104566              -0.000936513               0.999999988               0.000108294              -0.000969902               0.999999988               0.000110310              -0.001003238               0.999999988               0.000110488              -0.001036268               0.999999988               0.000108366              -0.001068990               0.999999988               0.000103948              -0.001101394               0.999999988               0.000097811              -0.001133662               0.999999988               0.000103083              -0.000841116               0.999999988               0.000055210              -0.000817189               0.999999988               0.000038147              -0.000806939               0.999999988               0.000034469              -0.000809093               0.999999988               0.000037268              -0.000820687               0.999999988               0.000043031              -0.000839171               0.999999988               0.000049944              -0.000862757               0.999999988               0.000057008              -0.000889968               0.999999988               0.000063604              -0.000919550               0.999999988               0.000069442              -0.000950710               0.999999988               0.000074162              -0.000982899               0.999999988               0.000077257              -0.001015596               0.999999988               0.000078480              -0.001048517               0.999999988               0.000077673              -0.001081480               0.999999988               0.000074460              -0.001114294               0.999999988               0.000068282              -0.001146885               0.999999988               0.000059053              -0.001179521               0.999999988               0.000078360              -0.000872855               0.999999988               0.000039650              -0.000862337               0.999999988               0.000024350              -0.000857575               0.999999988               0.000019935              -0.000861278               0.999999988               0.000021011              -0.000872688               0.999999988               0.000024846              -0.000890207               0.999999988               0.000029723              -0.000912446               0.999999988               0.000034953              -0.000938279               0.999999988               0.000040079              -0.000966737               0.999999988               0.000044611              -0.000997091               0.999999988               0.000048335              -0.001028720               0.999999988               0.000050722              -0.001061237               0.999999988               0.000051376              -0.001094223               0.999999988               0.000049860              -0.001127470               0.999999988               0.000045776              -0.001160797               0.999999988               0.000038354              -0.001194118               0.999999988               0.000026744              -0.001227536               0.999999988               0.000052758              -0.000895896               0.999999988               0.000025592              -0.000896119               0.999999988               0.000014049              -0.000896649               0.999999988               0.000010109              -0.000902581               0.999999988               0.000010133              -0.000914555               0.999999988               0.000012265              -0.000931903               0.999999988               0.000015387              -0.000953586               0.999999988               0.000018790              -0.000978739               0.999999988               0.000022235              -0.001006647               0.999999988               0.000025399              -0.001036773               0.999999988               0.000027999              -0.001068593               0.999999988               0.000029678              -0.001101607               0.999999988               0.000029926              -0.001135398               0.999999988               0.000028261              -0.001169620               0.999999988               0.000024257              -0.001204120               0.999999988               0.000017109              -0.001238748               0.999999988               0.000005534              -0.001273331               0.999999988               0.000026546              -0.000909881               0.999999988               0.000012537              -0.000917048               0.999999988               0.000006332              -0.000921338               0.999999988               0.000004013              -0.000929124               0.999999988               0.000003755              -0.000941788               0.999999988               0.000004708              -0.000959194               0.999999988               0.000006216              -0.000980723               0.999999988               0.000007881              -0.001005659               0.999999988               0.000009592              -0.001033496               0.999999988               0.000011209              -0.001063791               0.999999988               0.000012537              -0.001096034               0.999999988               0.000013445              -0.001129810               0.999999988               0.000013467              -0.001164677               0.999999988               0.000012414              -0.001200260               0.999999988               0.000009922              -0.001236292               0.999999988               0.000005479              -0.001272475               0.999999988              -0.000002090              -0.001308454               0.999999988              -0.000000000              -0.000914579               0.999999988              -0.000000000              -0.000924139               0.999999988               0.000000000              -0.000929772               0.999999988              -0.000000000              -0.000938308               0.999999988              -0.000000000              -0.000951282               0.999999988               0.000000000              -0.000968691               0.999999988              -0.000000000              -0.000990173               0.999999988               0.000000000              -0.001015136               0.999999988               0.000000000              -0.001042993               0.999999988               0.000000000              -0.001073340               0.999999988               0.000000000              -0.001105835               0.999999988               0.000000000              -0.001139951               0.999999988               0.000000000              -0.001175289               0.999999988              -0.000000000              -0.001211483               0.999999988              -0.000000000              -0.001248269               0.999999988              -0.000000000              -0.001285296               0.999999988              -0.000000000              -0.001321949               0.999999988               0.000276397              -0.000000000               0.999999988               0.000311642              -0.000000000               0.999999988               0.000327790               0.000000000               0.999999988               0.000337053              -0.000000000               0.999999988               0.000344308               0.000000000               0.999999988               0.000351539              -0.000000000               0.999999988               0.000359633               0.000000000               0.999999988               0.000368928               0.000000000               0.999999988               0.000379552              -0.000000000               0.999999988               0.000391442               0.000000000               0.999999988               0.000404489               0.000000000               0.999999988               0.000418534               0.000000000               0.999999988               0.000433332               0.000000000               0.999999988               0.000448620              -0.000000000               0.999999988               0.000464253               0.000000000               0.999999988               0.000480034              -0.000000000               0.999999988               0.000495499              -0.000000000               0.999999988               0.000274828               0.000089218               0.999999988               0.000308004               0.000075798               0.999999988               0.000322919               0.000070749               0.999999988               0.000331475               0.000070151               0.999999988               0.000338274               0.000072288               0.999999988               0.000345274               0.000076045               0.999999988               0.000353262               0.000080737               0.999999988               0.000362507               0.000086029               0.999999988               0.000373052               0.000091666               0.999999988               0.000384769               0.000097316               0.999999988               0.000397566               0.000102928               0.999999988               0.000411212               0.000108347               0.999999988               0.000425536               0.000113292               0.999999988               0.000440379               0.000117524               0.999999988               0.000455467               0.000121020               0.999999988               0.000470509               0.000123309               0.999999988               0.000485250               0.000123690               0.999999988               0.000270207               0.000177485               0.999999988               0.000297361               0.000150888               0.999999988               0.000308771               0.000141446               0.999999988               0.000315451               0.000140821               0.999999988               0.000321299               0.000145415               0.999999988               0.000327858               0.000153134               0.999999988               0.000335694               0.000162645               0.999999988               0.000344816               0.000173219               0.999999988               0.000355090               0.000184380               0.999999988               0.000366462               0.000195747               0.999999988               0.000378800               0.000206935               0.999999988               0.000391802               0.000217621               0.999999988               0.000405259               0.000227465               0.999999988               0.000418914               0.000236147               0.999999988               0.000432608               0.000243397               0.999999988               0.000446163               0.000248747               0.999999988               0.000459332               0.000251459               0.999999988               0.000262658               0.000263873               0.999999988               0.000280315               0.000224737               0.999999988               0.000286723               0.000212016               0.999999988               0.000290977               0.000212300               0.999999988               0.000295864               0.000219895               0.999999988               0.000302183               0.000231859               0.999999988               0.000310005               0.000246258               0.999999988               0.000319117               0.000262002               0.999999988               0.000329397               0.000278595               0.999999988               0.000340554               0.000295501               0.999999988               0.000352365               0.000312096               0.999999988               0.000364533               0.000327807               0.999999988               0.000376819               0.000342543               0.999999988               0.000389045               0.000355791               0.999999988               0.000400999               0.000367268               0.999999988               0.000412454               0.000376557               0.999999988               0.000423337               0.000383020               0.999999988               0.000252332               0.000347510               0.999999988               0.000257836               0.000296983               0.999999988               0.000258749               0.000282336               0.999999988               0.000260771               0.000284481               0.999999988               0.000265062               0.000295723               0.999999988               0.000271510               0.000312121               0.999999988               0.000279713               0.000331435               0.999999988               0.000289229               0.000352263               0.999999988               0.000299649               0.000374083               0.999999988               0.000310660               0.000396102               0.999999988               0.000321875               0.000417630               0.999999988               0.000333021               0.000438160               0.999999988               0.000343806               0.000457582               0.999999988               0.000354050               0.000475564               0.999999988               0.000363653               0.000491622               0.999999988               0.000372561               0.000505445               0.999999988               0.000380942               0.000516984               0.999999988               0.000239385               0.000427626               0.999999988               0.000231102               0.000367402               0.999999988               0.000226902               0.000352233               0.999999988               0.000227540               0.000357035               0.999999988               0.000232047               0.000372200               0.999999988               0.000239250               0.000393127               0.999999988               0.000248248               0.000417261               0.999999988               0.000258314               0.000443084               0.999999988               0.000269015               0.000469694               0.999999988               0.000279848               0.000496404               0.999999988               0.000290335               0.000522441               0.999999988               0.000300218               0.000547335               0.999999988               0.000309321               0.000571094               0.999999988               0.000317632               0.000593441               0.999999988               0.000325079               0.000613791               0.999999988               0.000331792               0.000632398               0.999999988               0.000338036               0.000649501               0.999999988               0.000224094               0.000503435               0.999999988               0.000201521               0.000435852               0.999999988               0.000193542               0.000421278               0.999999988               0.000194128               0.000429133               0.999999988               0.000199698               0.000448277               0.999999988               0.000208186               0.000473621               0.999999988               0.000218246               0.000502358               0.999999988               0.000229084               0.000532717               0.999999988               0.000240010               0.000563819               0.999999988               0.000250467               0.000594718               0.999999988               0.000260096               0.000624797               0.999999988               0.000268728               0.000653568               0.999999988               0.000276330               0.000681096               0.999999988               0.000282805               0.000707159               0.999999988               0.000288214               0.000731560               0.999999988               0.000292825               0.000754619               0.999999988               0.000296951               0.000776685               0.999999988               0.000206780               0.000574139               0.999999988               0.000170694               0.000502149               0.999999988               0.000160763               0.000488911               0.999999988               0.000162574               0.000499844               0.999999988               0.000169897               0.000522765               0.999999988               0.000180043               0.000552262               0.999999988               0.000191463               0.000585169               0.999999988               0.000203005               0.000619805               0.999999988               0.000213931               0.000654849               0.999999988               0.000223772               0.000689495               0.999999988               0.000232275               0.000723080               0.999999988               0.000239339               0.000755336               0.999999988               0.000245001               0.000786396               0.999999988               0.000249325               0.000816002               0.999999988               0.000252536               0.000844134               0.999999988               0.000255002               0.000871235               0.999999988               0.000256928               0.000897599               0.999999988               0.000188195               0.000638541               0.999999988               0.000139793               0.000566203               0.999999988               0.000130299               0.000554453               0.999999988               0.000134225               0.000568106               0.999999988               0.000143813               0.000594471               0.999999988               0.000155860               0.000627764               0.999999988               0.000168454               0.000664624               0.999999988               0.000180334               0.000703082               0.999999988               0.000190789               0.000741788               0.999999988               0.000199523               0.000779738               0.999999988               0.000206341               0.000816595               0.999999988               0.000211336               0.000852201               0.999999988               0.000214644               0.000886573               0.999999988               0.000216537               0.000919599               0.999999988               0.000217476               0.000951416               0.999999988               0.000217846               0.000982568               0.999999988               0.000217779               0.001013136               0.999999988               0.000169552               0.000698900               0.999999988               0.000115033               0.000635149               0.999999988               0.000102638               0.000618977               0.999999988               0.000104949               0.000626936               0.999999988               0.000113331               0.000647790               0.999999988               0.000124329               0.000676259               0.999999988               0.000135959               0.000709257               0.999999988               0.000147056               0.000744563               0.999999988               0.000157076               0.000780839               0.999999988               0.000165447               0.000817262               0.999999988               0.000171873               0.000853207               0.999999988               0.000176564               0.000888384               0.999999988               0.000179643               0.000922753               0.999999988               0.000181095               0.000956155               0.999999988               0.000181062               0.000988660               0.999999988               0.000180151               0.001020429               0.999999988               0.000178885               0.001051743               0.999999988               0.000148887               0.000753469               0.999999988               0.000092682               0.000701269               0.999999988               0.000077521               0.000684497               0.999999988               0.000077735               0.000688351               0.999999988               0.000084485               0.000704668               0.999999988               0.000094004               0.000728818               0.999999988               0.000104449               0.000757991               0.999999988               0.000114585               0.000790105               0.999999988               0.000123737               0.000823852               0.999999988               0.000131582               0.000858374               0.999999988               0.000137587               0.000892999               0.999999988               0.000141923               0.000927284               0.999999988               0.000144599               0.000961178               0.999999988               0.000145506               0.000994520               0.999999988               0.000144486               0.001027259               0.999999988               0.000141898               0.001059523               0.999999988               0.000138511               0.001091481               0.999999988               0.000126665               0.000801129               0.999999988               0.000072754               0.000762733               0.999999988               0.000055872               0.000748161               0.999999988               0.000053895               0.000750166               0.999999988               0.000058684               0.000763304               0.999999988               0.000066431               0.000784015               0.999999988               0.000075277               0.000809943               0.999999988               0.000084072               0.000839240               0.999999988               0.000092031               0.000870641               0.999999988               0.000098987               0.000903278               0.999999988               0.000104566               0.000936513               0.999999988               0.000108294               0.000969902               0.999999988               0.000110310               0.001003238               0.999999988               0.000110488               0.001036268               0.999999988               0.000108366               0.001068990               0.999999988               0.000103948               0.001101394               0.999999988               0.000097811               0.001133662               0.999999988               0.000103083               0.000841116               0.999999988               0.000055210               0.000817189               0.999999988               0.000038147               0.000806939               0.999999988               0.000034469               0.000809093               0.999999988               0.000037268               0.000820687               0.999999988               0.000043031               0.000839171               0.999999988               0.000049944               0.000862757               0.999999988               0.000057008               0.000889968               0.999999988               0.000063604               0.000919550               0.999999988               0.000069442               0.000950710               0.999999988               0.000074162               0.000982899               0.999999988               0.000077257               0.001015596               0.999999988               0.000078480               0.001048517               0.999999988               0.000077673               0.001081480               0.999999988               0.000074460               0.001114294               0.999999988               0.000068282               0.001146885               0.999999988               0.000059053               0.001179521               0.999999988               0.000078360               0.000872855               0.999999988               0.000039650               0.000862337               0.999999988               0.000024350               0.000857575               0.999999988               0.000019935               0.000861278               0.999999988               0.000021011               0.000872688               0.999999988               0.000024846               0.000890207               0.999999988               0.000029723               0.000912446               0.999999988               0.000034953               0.000938279               0.999999988               0.000040079               0.000966737               0.999999988               0.000044611               0.000997091               0.999999988               0.000048335               0.001028720               0.999999988               0.000050722               0.001061237               0.999999988               0.000051376               0.001094223               0.999999988               0.000049860               0.001127470               0.999999988               0.000045776               0.001160797               0.999999988               0.000038354               0.001194118               0.999999988               0.000026744               0.001227536               0.999999988               0.000052758               0.000895896               0.999999988               0.000025592               0.000896119               0.999999988               0.000014049               0.000896649               0.999999988               0.000010109               0.000902581               0.999999988               0.000010133               0.000914555               0.999999988               0.000012265               0.000931903               0.999999988               0.000015387               0.000953586               0.999999988               0.000018790               0.000978739               0.999999988               0.000022235               0.001006647               0.999999988               0.000025399               0.001036773               0.999999988               0.000027999               0.001068593               0.999999988               0.000029678               0.001101607               0.999999988               0.000029926               0.001135398               0.999999988               0.000028261               0.001169620               0.999999988               0.000024257               0.001204120               0.999999988               0.000017109               0.001238748               0.999999988               0.000005534               0.001273331               0.999999988               0.000026546               0.000909881               0.999999988               0.000012537               0.000917048               0.999999988               0.000006332               0.000921338               0.999999988               0.000004013               0.000929124               0.999999988               0.000003755               0.000941788               0.999999988               0.000004708               0.000959194               0.999999988               0.000006216               0.000980723               0.999999988               0.000007881               0.001005659               0.999999988               0.000009592               0.001033496               0.999999988               0.000011209               0.001063791               0.999999988               0.000012537               0.001096034               0.999999988               0.000013445               0.001129810               0.999999988               0.000013467               0.001164677               0.999999988               0.000012414               0.001200260               0.999999988               0.000009922               0.001236292               0.999999988               0.000005479               0.001272475               0.999999988              -0.000002090               0.001308454               0.999999988              -0.000000000               0.000914579               0.999999988               0.000000000               0.000924139               0.999999988              -0.000000000               0.000929772               0.999999988               0.000000000               0.000938308               0.999999988               0.000000000               0.000951282               0.999999988               0.000000000               0.000968691               0.999999988               0.000000000               0.000990173               0.999999988              -0.000000000               0.001015136               0.999999988              -0.000000000               0.001042993               0.999999988              -0.000000000               0.001073340               0.999999988              -0.000000000               0.001105835               0.999999988              -0.000000000               0.001139951               0.999999988              -0.000000000               0.001175289               0.999999988               0.000000000               0.001211483               0.999999988              -0.000000000               0.001248269               0.999999988              -0.000000000               0.001285296               0.999999988              -0.000000000               0.001321949               0.999999988 </DataArray>
<DataArray type="Float64"                                    Name="stress"                                                      NumberOfComponents="10" format="ascii">
              0.001474359               0.016501643               0.000000000              -0.001509817               0.006003765               0.004493948               0.000000000               0.000000000               0.000000000               0.000000000               0.001541195               0.013242741               0.000000000              -0.001077392               0.004773333               0.003695942               0.000000000               0.000000000               0.000000000               0.000000000               0.002087302               0.010598973              -0.000000000              -0.000542132               0.003713666               0.003171534               0.000000000               0.000000000               0.000000000               0.000000000               0.002080966               0.009124821              -0.000000000              -0.000360239               0.003161657               0.002801417               0.000000000               0.000000000               0.000000000               0.000000000               0.001891865               0.008243386               0.000000000              -0.000320973               0.002854759               0.002533786               0.000000000               0.000000000               0.000000000               0.000000000               0.001648242               0.007678547              -0.000000000              -0.000341727               0.002673399               0.002331672               0.000000000               0.000000000               0.000000000               0.000000000               0.001396653               0.007289065              -0.000000000              -0.000387387               0.002558793               0.002171406               0.000000000               0.000000000               0.000000000               0.000000000               0.001156272               0.007004735               0.000000000              -0.000441989               0.002482218               0.002040229               0.000000000               0.000000000               0.000000000               0.000000000               0.000936109               0.006783817               0.000000000              -0.000496935               0.002426895               0.001929960               0.000000000               0.000000000               0.000000000               0.000000000               0.000737444               0.006596247               0.000000000              -0.000547988               0.002381390               0.001833402               0.000000000               0.000000000               0.000000000               0.000000000               0.000562152               0.006430118              -0.000000000              -0.000592956               0.002341003               0.001748047               0.000000000               0.000000000               0.000000000               0.000000000               0.000413611               0.006274912              -0.000000000              -0.000629258               0.002301369               0.001672111               0.000000000               0.000000000               0.000000000               0.000000000               0.000289687               0.006116073               0.000000000              -0.000655875               0.002257296               0.001601421               0.000000000               0.000000000               0.000000000               0.000000000               0.000185200               0.005943471               0.000000000              -0.000673482               0.002205631               0.001532149               0.000000000               0.000000000               0.000000000               0.000000000               0.000099089               0.005753765               0.000000000              -0.000682061               0.002145256               0.001463195               0.000000000               0.000000000               0.000000000               0.000000000               0.000038775               0.005533551               0.000000000              -0.000677152               0.002070216               0.001393064               0.000000000               0.000000000               0.000000000               0.000000000              -0.000001784               0.005359812               0.000000000              -0.000670644               0.002010134               0.001339490               0.000000000               0.000000000               0.000000000               0.000000000               0.001544723               0.016186724              -0.001179286              -0.001444066               0.005876876               0.004432810               0.000000000               0.000000000               0.000000000               0.000000000               0.001535541               0.013029755              -0.000668961              -0.001052889               0.004694171               0.003641282               0.000000000               0.000000000               0.000000000               0.000000000               0.002001418               0.010498752              -0.000154509              -0.000561811               0.003686819               0.003125008               0.000000000               0.000000000               0.000000000               0.000000000               0.001966159               0.009086172               0.000076309              -0.000398461               0.003161514               0.002763053               0.000000000               0.000000000               0.000000000               0.000000000               0.001768724               0.008233836               0.000182951              -0.000365957               0.002866570               0.002500613               0.000000000               0.000000000               0.000000000               0.000000000               0.001524496               0.007681883               0.000226171              -0.000388548               0.002690118               0.002301570               0.000000000               0.000000000               0.000000000               0.000000000               0.001279403               0.007298304               0.000238929              -0.000432511               0.002576914               0.002144403               0.000000000               0.000000000               0.000000000               0.000000000               0.001050558               0.007014796               0.000239098              -0.000482889               0.002499205               0.002016316               0.000000000               0.000000000               0.000000000               0.000000000               0.000844093               0.006792906               0.000231835              -0.000532577               0.002441805               0.001909228               0.000000000               0.000000000               0.000000000               0.000000000               0.000659377               0.006607563               0.000220680              -0.000578677               0.002395392               0.001816714               0.000000000               0.000000000               0.000000000               0.000000000               0.000498630               0.006442239               0.000208422              -0.000618292               0.002353489               0.001735197               0.000000000               0.000000000               0.000000000               0.000000000               0.000363116               0.006285512               0.000192459              -0.000649519               0.002311656               0.001662137               0.000000000               0.000000000               0.000000000               0.000000000               0.000247332               0.006126730               0.000171003              -0.000673090               0.002266586               0.001593496               0.000000000               0.000000000               0.000000000               0.000000000               0.000152034               0.005959961               0.000147593              -0.000687981               0.002215961               0.001527980               0.000000000               0.000000000               0.000000000               0.000000000               0.000080147               0.005781284               0.000117855              -0.000692604               0.002157943               0.001465340               0.000000000               0.000000000               0.000000000               0.000000000               0.000032779               0.005583449               0.000069719              -0.000685637               0.002089677               0.001404040               0.000000000               0.000000000               0.000000000               0.000000000              -0.000000049               0.005434685               0.000043112              -0.000679352               0.002037994               0.001358642               0.000000000               0.000000000               0.000000000               0.000000000               0.001729367               0.015285871              -0.002215227              -0.001262219               0.005515979               0.004253760               0.000000000               0.000000000               0.000000000               0.000000000               0.001512718               0.012427880              -0.001260502              -0.000986214               0.004471323               0.003485109               0.000000000               0.000000000               0.000000000               0.000000000               0.001756776               0.010215477              -0.000305441              -0.000618142               0.003611172               0.002993030               0.000000000               0.000000000               0.000000000               0.000000000               0.001638658               0.008969483               0.000109208              -0.000506687               0.003158694               0.002652006               0.000000000               0.000000000               0.000000000               0.000000000               0.001422596               0.008197512               0.000294840              -0.000491214               0.002896215               0.002405000               0.000000000               0.000000000               0.000000000               0.000000000               0.001187790               0.007681961               0.000369594              -0.000514823               0.002732236               0.002217413               0.000000000               0.000000000               0.000000000               0.000000000               0.000967790               0.007312486               0.000391849              -0.000551138               0.002621184               0.002070045               0.000000000               0.000000000               0.000000000               0.000000000               0.000773946               0.007030929               0.000392474              -0.000588635               0.002539831               0.001951196               0.000000000               0.000000000               0.000000000               0.000000000               0.000603179               0.006807491               0.000381291              -0.000624743               0.002477388               0.001852646               0.000000000               0.000000000               0.000000000               0.000000000               0.000451017               0.006621194               0.000361165              -0.000658516               0.002426548               0.001768032               0.000000000               0.000000000               0.000000000               0.000000000               0.000322324               0.006453158               0.000334708              -0.000685772               0.002379622               0.001693850               0.000000000               0.000000000               0.000000000               0.000000000               0.000218089               0.006292505               0.000303580              -0.000704778               0.002332407               0.001627629               0.000000000               0.000000000               0.000000000               0.000000000               0.000135888               0.006139252               0.000266400              -0.000716447               0.002285213               0.001568766               0.000000000               0.000000000               0.000000000               0.000000000               0.000073604               0.005988168               0.000223681              -0.000720918               0.002236342               0.001515424               0.000000000               0.000000000               0.000000000               0.000000000               0.000029603               0.005834732               0.000171420              -0.000718239               0.002184304               0.001466065               0.000000000               0.000000000               0.000000000               0.000000000               0.000007708               0.005681860               0.000097496              -0.000707340               0.002129714               0.001422374               0.000000000               0.000000000               0.000000000               0.000000000              -0.000008064               0.005578129               0.000058310              -0.000700288               0.002092787               0.001392499               0.000000000               0.000000000               0.000000000               0.000000000               0.001957931               0.013916794              -0.002992338              -0.001005375               0.004974009               0.003968635               0.000000000               0.000000000               0.000000000               0.000000000               0.001450007               0.011527266              -0.001717482              -0.000897154               0.004141435               0.003244280               0.000000000               0.000000000               0.000000000               0.000000000               0.001383379               0.009790171              -0.000455322              -0.000705003               0.003498358               0.002793356               0.000000000               0.000000000               0.000000000               0.000000000               0.001160879               0.008777449               0.000070843              -0.000661850               0.003146404               0.002484554               0.000000000               0.000000000               0.000000000               0.000000000               0.000930739               0.008120332               0.000300491              -0.000666013               0.002928755               0.002262742               0.000000000               0.000000000               0.000000000               0.000000000               0.000724533               0.007655580               0.000393941              -0.000685246               0.002780250               0.002095004               0.000000000               0.000000000               0.000000000               0.000000000               0.000551306               0.007306044               0.000421931              -0.000706514               0.002670828               0.001964314               0.000000000               0.000000000               0.000000000               0.000000000               0.000405590               0.007028386               0.000424145              -0.000726450               0.002584922               0.001858472               0.000000000               0.000000000               0.000000000               0.000000000               0.000283220               0.006802250               0.000414069              -0.000744072               0.002515418               0.001771346               0.000000000               0.000000000               0.000000000               0.000000000               0.000181786               0.006607228               0.000391907              -0.000757732               0.002454964               0.001697233               0.000000000               0.000000000               0.000000000               0.000000000               0.000100427               0.006430112               0.000359175              -0.000766102               0.002398717               0.001632615               0.000000000               0.000000000               0.000000000               0.000000000               0.000041051               0.006267206               0.000323745              -0.000768005               0.002345049               0.001577044               0.000000000               0.000000000               0.000000000               0.000000000               0.000000604               0.006120144               0.000284392              -0.000764789               0.002294957               0.001530168               0.000000000               0.000000000               0.000000000               0.000000000              -0.000022415               0.005986900               0.000235306              -0.000756766               0.002247869               0.001491102               0.000000000               0.000000000               0.000000000               0.000000000              -0.000026805               0.005864399               0.000175835              -0.000743100               0.002202480               0.001459380               0.000000000               0.000000000               0.000000000               0.000000000              -0.000015970               0.005755394               0.000097809              -0.000725411               0.002160249               0.001434838               0.000000000               0.000000000               0.000000000               0.000000000              -0.000014885               0.005690045               0.000057096              -0.000716836               0.002135608               0.001418772               0.000000000               0.000000000               0.000000000               0.000000000               0.002135747               0.012239480              -0.003451007              -0.000729031               0.004322795               0.003593764               0.000000000               0.000000000               0.000000000               0.000000000               0.001318855               0.010440681              -0.002016102              -0.000810514               0.003750363               0.002939849               0.000000000               0.000000000               0.000000000               0.000000000               0.000921520               0.009274375              -0.000608438              -0.000813725               0.003362669               0.002548944               0.000000000               0.000000000               0.000000000               0.000000000               0.000617310               0.008520749              -0.000044969              -0.000833600               0.003118088               0.002284488               0.000000000               0.000000000               0.000000000               0.000000000               0.000397940               0.007985224               0.000197049              -0.000848923               0.002944689               0.002095766               0.000000000               0.000000000               0.000000000               0.000000000               0.000238851               0.007575770               0.000299050              -0.000857400               0.002811031               0.001953631               0.000000000               0.000000000               0.000000000               0.000000000               0.000123558               0.007250528               0.000334506              -0.000859980               0.002703478               0.001843499               0.000000000               0.000000000               0.000000000               0.000000000               0.000038769               0.006983328               0.000344068              -0.000858376               0.002613878               0.001755502               0.000000000               0.000000000               0.000000000               0.000000000              -0.000025823               0.006752059               0.000342350              -0.000853689               0.002535227               0.001681538               0.000000000               0.000000000               0.000000000               0.000000000              -0.000069959               0.006545707               0.000326853              -0.000844446               0.002463363               0.001618917               0.000000000               0.000000000               0.000000000               0.000000000              -0.000096315               0.006358743               0.000301047              -0.000830959               0.002396546               0.001565587               0.000000000               0.000000000               0.000000000               0.000000000              -0.000105398               0.006192591               0.000273916              -0.000813596               0.002335375               0.001521779               0.000000000               0.000000000               0.000000000               0.000000000              -0.000098690               0.006048289               0.000244616              -0.000793043               0.002280424               0.001487381               0.000000000               0.000000000               0.000000000               0.000000000              -0.000080113               0.005924822               0.000201770              -0.000770643               0.002231802               0.001461159               0.000000000               0.000000000               0.000000000               0.000000000              -0.000052652               0.005818156               0.000145743              -0.000747012               0.002188370               0.001441358               0.000000000               0.000000000               0.000000000               0.000000000              -0.000023412               0.005736780               0.000078661              -0.000725875               0.002154200               0.001428324               0.000000000               0.000000000               0.000000000               0.000000000              -0.000013616               0.005697699               0.000044814              -0.000717317               0.002138319               0.001421003               0.000000000               0.000000000               0.000000000               0.000000000               0.002182036               0.010418622              -0.003591897              -0.000484067               0.003634194               0.003150127               0.000000000               0.000000000               0.000000000               0.000000000               0.001109357               0.009279282              -0.002166689              -0.000743901               0.003341030               0.002597129               0.000000000               0.000000000               0.000000000               0.000000000               0.000428799               0.008710100              -0.000775671              -0.000927961               0.003212658               0.002284697               0.000000000               0.000000000               0.000000000               0.000000000               0.000092439               0.008203852              -0.000236074              -0.000990815               0.003064862               0.002074047               0.000000000               0.000000000               0.000000000               0.000000000              -0.000084143               0.007779070               0.000001177              -0.001003935               0.002927642               0.001923707               0.000000000               0.000000000               0.000000000               0.000000000              -0.000177707               0.007424465               0.000111563              -0.000994696               0.002806362               0.001811666               0.000000000               0.000000000               0.000000000               0.000000000              -0.000226069               0.007124470               0.000162479              -0.000975332               0.002699910               0.001724578               0.000000000               0.000000000               0.000000000               0.000000000              -0.000249749               0.006864296               0.000186873              -0.000951690               0.002605306               0.001653616               0.000000000               0.000000000               0.000000000               0.000000000              -0.000257306               0.006630414               0.000199117              -0.000925289               0.002518546               0.001593256               0.000000000               0.000000000               0.000000000               0.000000000              -0.000245601               0.006417551               0.000199306              -0.000894292               0.002437260               0.001542968               0.000000000               0.000000000               0.000000000               0.000000000              -0.000218934               0.006225066               0.000187785              -0.000860231               0.002361745               0.001501514               0.000000000               0.000000000               0.000000000               0.000000000              -0.000183599               0.006052777               0.000174466              -0.000825445               0.002292720               0.001467276               0.000000000               0.000000000               0.000000000               0.000000000              -0.000142299               0.005901427               0.000158409              -0.000791039               0.002230802               0.001439763               0.000000000               0.000000000               0.000000000               0.000000000              -0.000097240               0.005770664               0.000126406              -0.000757796               0.002176134               0.001418338               0.000000000               0.000000000               0.000000000               0.000000000              -0.000052761               0.005664569               0.000084286              -0.000727855               0.002130789               0.001402934               0.000000000               0.000000000               0.000000000               0.000000000              -0.000019682               0.005588487               0.000042000              -0.000705940               0.002098124               0.001392184               0.000000000               0.000000000               0.000000000               0.000000000              -0.000010722               0.005552224               0.000022917              -0.000698047               0.002083405               0.001385358               0.000000000               0.000000000               0.000000000               0.000000000               0.002053476               0.008599115              -0.003459314              -0.000304839               0.002967955               0.002663116               0.000000000               0.000000000               0.000000000               0.000000000               0.000832516               0.008131935              -0.002204420              -0.000704298               0.002945383               0.002241085               0.000000000               0.000000000               0.000000000               0.000000000              -0.000036893               0.008122683              -0.000968301              -0.001029168               0.003050590               0.002021422               0.000000000               0.000000000               0.000000000               0.000000000              -0.000344399               0.007832275              -0.000482772              -0.001108181               0.002980126               0.001871945               0.000000000               0.000000000               0.000000000               0.000000000              -0.000450226               0.007505927              -0.000249223              -0.001107073               0.002870975               0.001763902               0.000000000               0.000000000               0.000000000               0.000000000              -0.000472467               0.007199785              -0.000123297              -0.001077145               0.002758953               0.001681807               0.000000000               0.000000000               0.000000000               0.000000000              -0.000456256               0.006920623              -0.000051530              -0.001036171               0.002652242               0.001616070               0.000000000               0.000000000               0.000000000               0.000000000              -0.000422032               0.006668816              -0.000005226              -0.000991861               0.002553537               0.001561675               0.000000000               0.000000000               0.000000000               0.000000000              -0.000376991               0.006435651               0.000028290              -0.000945826               0.002460471               0.001514645               0.000000000               0.000000000               0.000000000               0.000000000              -0.000323082               0.006217781               0.000048738              -0.000898376               0.002372032               0.001473655               0.000000000               0.000000000               0.000000000               0.000000000              -0.000264311               0.006018042               0.000056586              -0.000851370               0.002289784               0.001438414               0.000000000               0.000000000               0.000000000               0.000000000              -0.000206194               0.005839975               0.000059962              -0.000807318               0.002215745               0.001408427               0.000000000               0.000000000               0.000000000               0.000000000              -0.000147176               0.005684601               0.000059106              -0.000765764               0.002150103               0.001384339               0.000000000               0.000000000               0.000000000               0.000000000              -0.000089049               0.005550660               0.000045904              -0.000727224               0.002092610               0.001365385               0.000000000               0.000000000               0.000000000               0.000000000              -0.000041985               0.005442153               0.000027254              -0.000696012               0.002046037               0.001350025               0.000000000               0.000000000               0.000000000               0.000000000              -0.000015175               0.005357080               0.000012379              -0.000675324               0.002010784               0.001335460               0.000000000               0.000000000               0.000000000               0.000000000              -0.000013417               0.005309056               0.000009827              -0.000668662               0.001992555               0.001323893               0.000000000               0.000000000               0.000000000               0.000000000               0.001755384               0.006890289              -0.003114234              -0.000203021               0.002364412               0.002161392               0.000000000               0.000000000               0.000000000               0.000000000               0.000507361               0.007064466              -0.002162629              -0.000692798               0.002585730               0.001892933               0.000000000               0.000000000               0.000000000               0.000000000              -0.000426838               0.007531459              -0.001182158              -0.001101494               0.002877626               0.001776131               0.000000000               0.000000000               0.000000000               0.000000000              -0.000655962               0.007415796              -0.000750340              -0.001172958               0.002862893               0.001689936               0.000000000               0.000000000               0.000000000               0.000000000              -0.000679367               0.007173730              -0.000510817              -0.001151476               0.002775045               0.001623569               0.000000000               0.000000000               0.000000000               0.000000000              -0.000636876               0.006910890              -0.000363132              -0.001102687               0.002671169               0.001568482               0.000000000               0.000000000               0.000000000               0.000000000              -0.000565160               0.006656184              -0.000263145              -0.001043955               0.002566691               0.001522736               0.000000000               0.000000000               0.000000000               0.000000000              -0.000482910               0.006416730              -0.000188023              -0.000983180               0.002466615               0.001483435               0.000000000               0.000000000               0.000000000               0.000000000              -0.000402536               0.006185245              -0.000129664              -0.000924104               0.002369763               0.001445658               0.000000000               0.000000000               0.000000000               0.000000000              -0.000324991               0.005964629              -0.000085691              -0.000867448               0.002277339               0.001409891               0.000000000               0.000000000               0.000000000               0.000000000              -0.000251582               0.005763858              -0.000054349              -0.000814824               0.002192875               0.001378051               0.000000000               0.000000000               0.000000000               0.000000000              -0.000184348               0.005589159              -0.000028822              -0.000767773               0.002118959               0.001351186               0.000000000               0.000000000               0.000000000               0.000000000              -0.000124203               0.005437193              -0.000010646              -0.000726223               0.002054454               0.001328231               0.000000000               0.000000000               0.000000000               0.000000000              -0.000073385               0.005306200              -0.000005589              -0.000690792               0.001998980               0.001308187               0.000000000               0.000000000               0.000000000               0.000000000              -0.000039444               0.005197611              -0.000004435              -0.000664491               0.001954017               0.001289525               0.000000000               0.000000000               0.000000000               0.000000000              -0.000020299               0.005111354              -0.000001506              -0.000646530               0.001919277               0.001272748               0.000000000               0.000000000               0.000000000               0.000000000              -0.000020021               0.005060327               0.000004762              -0.000640047               0.001900108               0.001260061               0.000000000               0.000000000               0.000000000               0.000000000               0.001355917               0.005415705              -0.002637416              -0.000168497               0.001861382               0.001692885               0.000000000               0.000000000               0.000000000               0.000000000               0.000201563               0.006107738              -0.002084126              -0.000687881               0.002265185               0.001577304               0.000000000               0.000000000               0.000000000               0.000000000              -0.000698556               0.006966277              -0.001428990              -0.001132741               0.002699649               0.001566908               0.000000000               0.000000000               0.000000000               0.000000000              -0.000839513               0.007022587              -0.001037752              -0.001192638               0.002738385               0.001545747               0.000000000               0.000000000               0.000000000               0.000000000              -0.000795251               0.006872561              -0.000784069              -0.001157286               0.002676593               0.001519306               0.000000000               0.000000000               0.000000000               0.000000000              -0.000699552               0.006666297              -0.000606941              -0.001095616               0.002587282               0.001491666               0.000000000               0.000000000               0.000000000               0.000000000              -0.000589156               0.006447391              -0.000473394              -0.001026855               0.002491394               0.001464539               0.000000000               0.000000000               0.000000000               0.000000000              -0.000479485               0.006222141              -0.000365991              -0.000957572               0.002393217               0.001435645               0.000000000               0.000000000               0.000000000               0.000000000              -0.000377755               0.005996070              -0.000280920              -0.000891165               0.002295725               0.001404560               0.000000000               0.000000000               0.000000000               0.000000000              -0.000288085               0.005779745              -0.000211101              -0.000830498               0.002203395               0.001372897               0.000000000               0.000000000               0.000000000               0.000000000              -0.000211786               0.005583977              -0.000153112              -0.000777415               0.002120445               0.001343031               0.000000000               0.000000000               0.000000000               0.000000000              -0.000145679               0.005413329              -0.000106191              -0.000731294               0.002048190               0.001316896               0.000000000               0.000000000               0.000000000               0.000000000              -0.000091658               0.005260789              -0.000069425              -0.000691969               0.001984235               0.001292266               0.000000000               0.000000000               0.000000000               0.000000000              -0.000057686               0.005124307              -0.000043731              -0.000662169               0.001928808               0.001266639               0.000000000               0.000000000               0.000000000               0.000000000              -0.000043852               0.005015790              -0.000024542              -0.000643417               0.001886385               0.001242969               0.000000000               0.000000000               0.000000000               0.000000000              -0.000039151               0.004932926              -0.000009845              -0.000631296               0.001854724               0.001223428               0.000000000               0.000000000               0.000000000               0.000000000              -0.000037843               0.004890345              -0.000002481              -0.000625483               0.001838593               0.001213110               0.000000000               0.000000000               0.000000000               0.000000000               0.000840605               0.004019198              -0.002104902              -0.000187175               0.001402110               0.001214935               0.000000000               0.000000000               0.000000000               0.000000000              -0.000033684               0.005005217              -0.001984896              -0.000638284               0.001881149               0.001242866               0.000000000               0.000000000               0.000000000               0.000000000              -0.000808618               0.006142590              -0.001702484              -0.001071054               0.002404527               0.001333473               0.000000000               0.000000000               0.000000000               0.000000000              -0.000904518               0.006428752              -0.001367603              -0.001142786               0.002523824               0.001381038               0.000000000               0.000000000               0.000000000               0.000000000              -0.000831512               0.006433999              -0.001101303              -0.001116064               0.002516666               0.001400602               0.000000000               0.000000000               0.000000000               0.000000000              -0.000717778               0.006342581              -0.000891162              -0.001061987               0.002468168               0.001406181               0.000000000               0.000000000               0.000000000               0.000000000              -0.000598808               0.006201995              -0.000721401              -0.000999800               0.002400578               0.001400777               0.000000000               0.000000000               0.000000000               0.000000000              -0.000489128               0.006028134              -0.000582197              -0.000936937               0.002321670               0.001384733               0.000000000               0.000000000               0.000000000               0.000000000              -0.000388016               0.005845165              -0.000466210              -0.000876149               0.002240419               0.001364269               0.000000000               0.000000000               0.000000000               0.000000000              -0.000295694               0.005665619              -0.000365857              -0.000819086               0.002161549               0.001342464               0.000000000               0.000000000               0.000000000               0.000000000              -0.000220004               0.005491017              -0.000280956              -0.000768877               0.002086613               0.001317736               0.000000000               0.000000000               0.000000000               0.000000000              -0.000155936               0.005333492              -0.000212209              -0.000725161               0.002019533               0.001294372               0.000000000               0.000000000               0.000000000               0.000000000              -0.000104165               0.005190505              -0.000152337              -0.000687873               0.001959442               0.001271569               0.000000000               0.000000000               0.000000000               0.000000000              -0.000072425               0.005058415              -0.000097241              -0.000659460               0.001905941               0.001246482               0.000000000               0.000000000               0.000000000               0.000000000              -0.000065223               0.004947507              -0.000051336              -0.000642896               0.001863451               0.001220556               0.000000000               0.000000000               0.000000000               0.000000000              -0.000076607               0.004860868              -0.000020074              -0.000636335               0.001832385               0.001196050               0.000000000               0.000000000               0.000000000               0.000000000              -0.000084770               0.004822516              -0.000007951              -0.000634602               0.001819023               0.001184422               0.000000000               0.000000000               0.000000000               0.000000000               0.000122611               0.002738940              -0.001542493              -0.000296389               0.001011766               0.000715377               0.000000000               0.000000000               0.000000000               0.000000000              -0.000301068               0.003902704              -0.001824668              -0.000600739               0.001501134               0.000900395               0.000000000               0.000000000               0.000000000               0.000000000              -0.000837144               0.005201707              -0.001914524              -0.000964141               0.002055265               0.001091124               0.000000000               0.000000000               0.000000000               0.000000000              -0.000891719               0.005710891              -0.001683778              -0.001048254               0.002253029               0.001204775               0.000000000               0.000000000               0.000000000               0.000000000              -0.000809033               0.005898359              -0.001428831              -0.001040680               0.002312993               0.001272313               0.000000000               0.000000000               0.000000000               0.000000000              -0.000694864               0.005942609              -0.001200911              -0.001003398               0.002315316               0.001311918               0.000000000               0.000000000               0.000000000               0.000000000              -0.000579671               0.005902925              -0.001005170              -0.000955240               0.002286035               0.001330795               0.000000000               0.000000000               0.000000000               0.000000000              -0.000474102               0.005809773              -0.000837658              -0.000904008               0.002237907               0.001333900               0.000000000               0.000000000               0.000000000               0.000000000              -0.000381508               0.005691566              -0.000694940              -0.000854509               0.002182006               0.001327497               0.000000000               0.000000000               0.000000000               0.000000000              -0.000292555               0.005561086              -0.000570229              -0.000804842               0.002121957               0.001317115               0.000000000               0.000000000               0.000000000               0.000000000              -0.000211234               0.005423174              -0.000461978              -0.000757108               0.002060076               0.001302968               0.000000000               0.000000000               0.000000000               0.000000000              -0.000146882               0.005291665              -0.000369436              -0.000716537               0.002002716               0.001286179               0.000000000               0.000000000               0.000000000               0.000000000              -0.000098119               0.005169210              -0.000284098              -0.000682944               0.001950701               0.001267757               0.000000000               0.000000000               0.000000000               0.000000000              -0.000067419               0.005051487              -0.000198103              -0.000656716               0.001902717               0.001246001               0.000000000               0.000000000               0.000000000               0.000000000              -0.000062129               0.004946188              -0.000115220              -0.000641570               0.001862570               0.001221000               0.000000000               0.000000000               0.000000000               0.000000000              -0.000087390               0.004858435              -0.000048652              -0.000640074               0.001832820               0.001192746               0.000000000               0.000000000               0.000000000               0.000000000              -0.000116075               0.004813042              -0.000017440              -0.000645157               0.001819383               0.001174227               0.000000000               0.000000000               0.000000000               0.000000000              -0.000753402               0.001656188              -0.000987493              -0.000489549               0.000715239               0.000225691               0.000000000               0.000000000               0.000000000               0.000000000              -0.000647056               0.002853817              -0.001578801              -0.000599373               0.001151053               0.000551680               0.000000000               0.000000000               0.000000000               0.000000000              -0.000827140               0.004154364              -0.001976497              -0.000829472               0.001661264               0.000831792               0.000000000               0.000000000               0.000000000               0.000000000              -0.000795576               0.004826938              -0.001877636              -0.000901707               0.001909532               0.001007824               0.000000000               0.000000000               0.000000000               0.000000000              -0.000698314               0.005182751              -0.001669353              -0.000909710               0.002030803               0.001121092               0.000000000               0.000000000               0.000000000               0.000000000              -0.000588100               0.005370727              -0.001449827              -0.000891877               0.002087516               0.001195639               0.000000000               0.000000000               0.000000000               0.000000000              -0.000486719               0.005452313              -0.001247203              -0.000864057               0.002105438               0.001241381               0.000000000               0.000000000               0.000000000               0.000000000              -0.000394585               0.005460701              -0.001066941              -0.000830555               0.002097067               0.001266512               0.000000000               0.000000000               0.000000000               0.000000000              -0.000310005               0.005424335              -0.000911747              -0.000794292               0.002072857               0.001278565               0.000000000               0.000000000               0.000000000               0.000000000              -0.000229209               0.005361768              -0.000777587              -0.000756173               0.002039296               0.001283123               0.000000000               0.000000000               0.000000000               0.000000000              -0.000149692               0.005283947              -0.000654260              -0.000716626               0.002000174               0.001283547               0.000000000               0.000000000               0.000000000               0.000000000              -0.000084222               0.005199736              -0.000540956              -0.000681549               0.001960411               0.001278862               0.000000000               0.000000000               0.000000000               0.000000000              -0.000039019               0.005109753              -0.000435442              -0.000653350               0.001921017               0.001267668               0.000000000               0.000000000               0.000000000               0.000000000              -0.000012232               0.005017539              -0.000325255              -0.000631778               0.001883089               0.001251311               0.000000000               0.000000000               0.000000000               0.000000000              -0.000006775               0.004929567              -0.000208382              -0.000618735               0.001849418               0.001230683               0.000000000               0.000000000               0.000000000               0.000000000              -0.000036192               0.004850442              -0.000097525              -0.000619876               0.001823423               0.001203547               0.000000000               0.000000000               0.000000000               0.000000000              -0.000077081               0.004804830              -0.000040333              -0.000629508               0.001811430               0.001181922               0.000000000               0.000000000               0.000000000               0.000000000              -0.001720252               0.000826091              -0.000506835              -0.000748355               0.000524811              -0.000223543               0.000000000               0.000000000               0.000000000               0.000000000              -0.001055516               0.001914090              -0.001270604              -0.000635079               0.000849716               0.000214637               0.000000000               0.000000000               0.000000000               0.000000000              -0.000802819               0.003086266              -0.001868679              -0.000686840               0.001257691               0.000570851               0.000000000               0.000000000               0.000000000               0.000000000              -0.000637662               0.003845916              -0.001892665              -0.000719862               0.001521912               0.000802050               0.000000000               0.000000000               0.000000000               0.000000000              -0.000511394               0.004335096              -0.001750958              -0.000733659               0.001689570               0.000955911               0.000000000               0.000000000               0.000000000               0.000000000              -0.000404149               0.004655076              -0.001564628              -0.000733439               0.001796156               0.001062716               0.000000000               0.000000000               0.000000000               0.000000000              -0.000315982               0.004859746              -0.001377167              -0.000725960               0.001861886               0.001135925               0.000000000               0.000000000               0.000000000               0.000000000              -0.000237711               0.004976477              -0.001206590              -0.000711200               0.001895875               0.001184675               0.000000000               0.000000000               0.000000000               0.000000000              -0.000160600               0.005034088              -0.001058104              -0.000689485               0.001907841               0.001218356               0.000000000               0.000000000               0.000000000               0.000000000              -0.000087339               0.005055523              -0.000927356              -0.000664691               0.001906721               0.001242030               0.000000000               0.000000000               0.000000000               0.000000000              -0.000015548               0.005049832              -0.000803441              -0.000637058               0.001895613               0.001258555               0.000000000               0.000000000               0.000000000               0.000000000               0.000052021               0.005024938              -0.000683305              -0.000608608               0.001877832               0.001269224               0.000000000               0.000000000               0.000000000               0.000000000               0.000104635               0.004986406              -0.000565771              -0.000584061               0.001856806               0.001272744               0.000000000               0.000000000               0.000000000               0.000000000               0.000137397               0.004936256              -0.000442983              -0.000565507               0.001833904               0.001268398               0.000000000               0.000000000               0.000000000               0.000000000               0.000150280               0.004877689              -0.000305498              -0.000553355               0.001810332               0.001256977               0.000000000               0.000000000               0.000000000               0.000000000               0.000133635               0.004826545              -0.000154573              -0.000553204               0.001793233               0.001240030               0.000000000               0.000000000               0.000000000               0.000000000               0.000098631               0.004795782              -0.000072245              -0.000562485               0.001786073               0.001223588               0.000000000               0.000000000               0.000000000               0.000000000              -0.002673124               0.000251289              -0.000160792              -0.001033831               0.000428370              -0.000605461               0.000000000               0.000000000               0.000000000               0.000000000              -0.001486474               0.001139379              -0.000933202              -0.000699849               0.000613071              -0.000086778               0.000000000               0.000000000               0.000000000               0.000000000              -0.000781632               0.002096907              -0.001587163              -0.000555225               0.000884036               0.000328811               0.000000000               0.000000000               0.000000000               0.000000000              -0.000450546               0.002870538              -0.001693909              -0.000527772               0.001132759               0.000604987               0.000000000               0.000000000               0.000000000               0.000000000              -0.000274971               0.003448834              -0.001616985              -0.000534218               0.001327672               0.000793454               0.000000000               0.000000000               0.000000000               0.000000000              -0.000163871               0.003871380              -0.001479054              -0.000545374               0.001472238               0.000926864               0.000000000               0.000000000               0.000000000               0.000000000              -0.000081608               0.004178778              -0.001327691              -0.000552950               0.001577228               0.001024279               0.000000000               0.000000000               0.000000000               0.000000000              -0.000014794               0.004396985              -0.001186575              -0.000555170               0.001650703               0.001095533               0.000000000               0.000000000               0.000000000               0.000000000               0.000050012               0.004552277              -0.001060249              -0.000550279               0.001700837               0.001150557               0.000000000               0.000000000               0.000000000               0.000000000               0.000114662               0.004661688              -0.000947821              -0.000539712               0.001733784               0.001194072               0.000000000               0.000000000               0.000000000               0.000000000               0.000181281               0.004735933              -0.000842118              -0.000524010               0.001753299               0.001229288               0.000000000               0.000000000               0.000000000               0.000000000               0.000251006               0.004781799              -0.000735626              -0.000503597               0.001761782               0.001258186               0.000000000               0.000000000               0.000000000               0.000000000               0.000316814               0.004803912              -0.000624688              -0.000481683               0.001761849               0.001280166               0.000000000               0.000000000               0.000000000               0.000000000               0.000372979               0.004808908              -0.000504423              -0.000461246               0.001756702               0.001295456               0.000000000               0.000000000               0.000000000               0.000000000               0.000418528               0.004802353              -0.000365302              -0.000443345               0.001748550               0.001305205               0.000000000               0.000000000               0.000000000               0.000000000               0.000449308               0.004795749              -0.000195592              -0.000430977               0.001742226               0.001311249               0.000000000               0.000000000               0.000000000               0.000000000               0.000453671               0.004789013              -0.000100158              -0.000428499               0.001739155               0.001310656               0.000000000               0.000000000               0.000000000               0.000000000              -0.003485384              -0.000104970               0.000021178              -0.001293897               0.000396306              -0.000897590               0.000000000               0.000000000               0.000000000               0.000000000              -0.001872049               0.000567459              -0.000600837              -0.000772950               0.000446800              -0.000326150               0.000000000               0.000000000               0.000000000               0.000000000              -0.000770287               0.001293660              -0.001151272              -0.000450565               0.000581403               0.000130838               0.000000000               0.000000000               0.000000000               0.000000000              -0.000273866               0.002029548              -0.001278348              -0.000356394               0.000795306               0.000438913               0.000000000               0.000000000               0.000000000               0.000000000              -0.000034489               0.002650931              -0.001248369              -0.000344300               0.000998401               0.000654101               0.000000000               0.000000000               0.000000000               0.000000000               0.000092021               0.003143691              -0.001161753              -0.000358453               0.001167371               0.000808917               0.000000000               0.000000000               0.000000000               0.000000000               0.000170933               0.003527640              -0.001058052              -0.000376855               0.001301486               0.000924631               0.000000000               0.000000000               0.000000000               0.000000000               0.000226480               0.003828332              -0.000957831              -0.000393611               0.001407302               0.001013690               0.000000000               0.000000000               0.000000000               0.000000000               0.000276197               0.004070094              -0.000868354              -0.000405187               0.001491747               0.001086559               0.000000000               0.000000000               0.000000000               0.000000000               0.000330276               0.004265376              -0.000788415              -0.000409318               0.001558217               0.001148899               0.000000000               0.000000000               0.000000000               0.000000000               0.000389308               0.004417026              -0.000714108              -0.000406137               0.001607706               0.001201569               0.000000000               0.000000000               0.000000000               0.000000000               0.000458501               0.004530656              -0.000637201              -0.000394393               0.001641668               0.001247275               0.000000000               0.000000000               0.000000000               0.000000000               0.000536637               0.004611599              -0.000552624              -0.000375210               0.001662254               0.001287044               0.000000000               0.000000000               0.000000000               0.000000000               0.000628178               0.004673059              -0.000458727              -0.000348565               0.001673859               0.001325294               0.000000000               0.000000000               0.000000000               0.000000000               0.000734881               0.004723475              -0.000345878              -0.000314853               0.001679427               0.001364574               0.000000000               0.000000000               0.000000000               0.000000000               0.000855769               0.004761677              -0.000194240              -0.000274296               0.001678642               0.001404346               0.000000000               0.000000000               0.000000000               0.000000000               0.000940341               0.004783222              -0.000107703              -0.000245274               0.001676150               0.001430875               0.000000000               0.000000000               0.000000000               0.000000000              -0.004035118              -0.000290441               0.000054654              -0.001476863               0.000395471              -0.001081392               0.000000000               0.000000000               0.000000000               0.000000000              -0.002139759               0.000219173              -0.000291458              -0.000829805               0.000349657              -0.000480148               0.000000000               0.000000000               0.000000000               0.000000000              -0.000767265               0.000769172              -0.000604255              -0.000383870               0.000384344               0.000000474               0.000000000               0.000000000               0.000000000               0.000000000              -0.000147443               0.001457046              -0.000687788              -0.000237422               0.000564818               0.000327396               0.000000000               0.000000000               0.000000000               0.000000000               0.000145637               0.002087932              -0.000681886              -0.000206377               0.000764763               0.000558385               0.000000000               0.000000000               0.000000000               0.000000000               0.000288269               0.002620147              -0.000640436              -0.000219418               0.000946513               0.000727095               0.000000000               0.000000000               0.000000000               0.000000000               0.000363174               0.003055582              -0.000587077              -0.000245757               0.001100436               0.000854679               0.000000000               0.000000000               0.000000000               0.000000000               0.000412045               0.003414197              -0.000535746              -0.000272257               0.001228807               0.000956549               0.000000000               0.000000000               0.000000000               0.000000000               0.000453215               0.003717082              -0.000490549              -0.000294679               0.001337241               0.001042562               0.000000000               0.000000000               0.000000000               0.000000000               0.000496225               0.003970739              -0.000449528              -0.000310257               0.001426985               0.001116728               0.000000000               0.000000000               0.000000000               0.000000000               0.000546822               0.004176926              -0.000412240              -0.000317057               0.001497980               0.001180924               0.000000000               0.000000000               0.000000000               0.000000000               0.000612548               0.004340606              -0.000372248              -0.000312869               0.001551144               0.001238275               0.000000000               0.000000000               0.000000000               0.000000000               0.000703019               0.004468937              -0.000327230              -0.000294984               0.001587959               0.001292974               0.000000000               0.000000000               0.000000000               0.000000000               0.000828043               0.004575157              -0.000277683              -0.000261378               0.001612163               0.001350785               0.000000000               0.000000000               0.000000000               0.000000000               0.000994520               0.004665590              -0.000216047              -0.000210253               0.001625266               0.001415012               0.000000000               0.000000000               0.000000000               0.000000000               0.001211838               0.004735408              -0.000125354              -0.000137487               0.001624282               0.001486796               0.000000000               0.000000000               0.000000000               0.000000000               0.001390868               0.004783193              -0.000072597              -0.000076324               0.001619823               0.001543499               0.000000000               0.000000000               0.000000000               0.000000000              -0.004230513              -0.000347404               0.000000000              -0.001543016               0.000398535              -0.001144481               0.000000000               0.000000000               0.000000000               0.000000000              -0.002235586               0.000101761               0.000000000              -0.000851064               0.000317606              -0.000533458               0.000000000               0.000000000               0.000000000               0.000000000              -0.000766387               0.000587648              -0.000000000              -0.000360851               0.000316164              -0.000044687               0.000000000               0.000000000               0.000000000               0.000000000              -0.000100485               0.001255469               0.000000000              -0.000194615               0.000483357               0.000288742               0.000000000               0.000000000               0.000000000               0.000000000               0.000212559               0.001883579               0.000000000              -0.000155738               0.000679766               0.000524028               0.000000000               0.000000000               0.000000000               0.000000000               0.000359242               0.002426853               0.000000000              -0.000168640               0.000865156               0.000696516               0.000000000               0.000000000               0.000000000               0.000000000               0.000433913               0.002884150              -0.000000000              -0.000197801               0.001027307               0.000829506               0.000000000               0.000000000               0.000000000               0.000000000               0.000481074               0.003264332              -0.000000000              -0.000227638               0.001163979               0.000936341               0.000000000               0.000000000               0.000000000               0.000000000               0.000518814               0.003585716               0.000000000              -0.000253659               0.001279780               0.001026121               0.000000000               0.000000000               0.000000000               0.000000000               0.000558468               0.003861132               0.000000000              -0.000273215               0.001378103               0.001104888               0.000000000               0.000000000               0.000000000               0.000000000               0.000606338               0.004088392              -0.000000000              -0.000283671               0.001457341               0.001173669               0.000000000               0.000000000               0.000000000               0.000000000               0.000669266               0.004268943              -0.000000000              -0.000282643               0.001517181               0.001234538               0.000000000               0.000000000               0.000000000               0.000000000               0.000765251               0.004415611               0.000000000              -0.000264982               0.001560183               0.001295201               0.000000000               0.000000000               0.000000000               0.000000000               0.000903641               0.004540108              -0.000000000              -0.000228648               0.001589570               0.001360922               0.000000000               0.000000000               0.000000000               0.000000000               0.001095034               0.004647743              -0.000000000              -0.000170330               0.001606009               0.001435679               0.000000000               0.000000000               0.000000000               0.000000000               0.001353445               0.004727562              -0.000000000              -0.000083403               0.001603639               0.001520236               0.000000000               0.000000000               0.000000000               0.000000000               0.001575847               0.004783709              -0.000000000              -0.000007021               0.001596894               0.001589873               0.000000000               0.000000000               0.000000000               0.000000000               0.000000000               0.000000000               0.000000000               0.000000000               0.000000000               0.000000000               0.000000000               0.000000000               0.000000000               0.000000000               0.000000000               0.000000000               0.000000000               0.000000000               0.000000000               0.000000000               0.000000000               0.000000000               0.000000000               0.000000000               0.000000000               0.000000000               0.000000000               0.000000000               0.000000000               0.000000000               0.000000000               0.000000000               0.000000000               0.000000000               0.000000000               0.000000000               0.000000000               0.000000000               0.000000000               0.000000000               0.000000000               0.000000000               0.000000000               0.000000000               0.000000000               0.000000000               0.000000000               0.000000000               0.000000000               0.000000000               0.000000000               0.000000000               0.000000000               0.000000000               0.000000000               0.000000000               0.000000000               0.000000000               0.000000000               0.000000000               0.000000000               0.000000000               0.000000000               0.000000000               0.000000000               0.000000000               0.000000000               0.000000000               0.000000000               0.000000000               0.000000000               0.000000000               0.000000000               0.000000000               0.000000000               0.000000000               0.000000000               0.000000000               0.000000000               0.000000000               0.000000000               0.000000000               0.000000000               0.000000000               0.000000000               0.000000000               0.000000000               0.000000000               0.000000000               0.000000000               0.000000000               0.000000000               0.000000000               0.000000000               0.000000000               0.000000000               0.000000000               0.000000000               0.000000000               0.000000000               0.000000000               0.000000000               0.000000000               0.000000000               0.000000000               0.000000000               0.000000000               0.000000000               0.000000000               0.000000000               0.000000000               0.000000000               0.000000000               0.000000000               0.000000000               0.000000000               0.000000000               0.000000000               0.000000000               0.000000000               0.000000000               0.000000000               0.000000000               0.000000000               0.000000000               0.000000000               0.000000000               0.000000000               0.000000000               0.000000000               0.000000000               0.000000000               0.000000000               0.000000000               0.000000000               0.000000000               0.000000000               0.000000000               0.000000000               0.000000000               0.000000000               0.000000000               0.000000000               0.000000000               0.000000000               0.000000000               0.000000000               0.000000000               0.000000000               0.000000000               0.000000000               0.000000000               0.000000000               0.000000000               0.000000000               0.000000000               0.000000000               0.000000000               0.000000000               0.000000000               0.000000000               0.000000000               0.000000000               0.000000000               0.000000000               0.000000000               0.000000000               0.000000000               0.000000000               0.000000000               0.000000000               0.000000000               0.000000000               0.000000000               0.001544723               0.016186724               0.001179286              -0.001444066               0.005876876               0.004432810               0.000000000               0.000000000               0.000000000               0.000000000               0.001535541               0.013029755               0.000668961              -0.001052889               0.004694171               0.003641282               0.000000000               0.000000000               0.000000000               0.000000000               0.002001418               0.010498752               0.000154509              -0.000561811               0.003686819               0.003125008               0.000000000               0.000000000               0.000000000               0.000000000               0.001966159               0.009086172              -0.000076309              -0.000398461               0.003161514               0.002763053               0.000000000               0.000000000               0.000000000               0.000000000               0.001768724               0.008233836              -0.000182951              -0.000365957               0.002866570               0.002500613               0.000000000               0.000000000               0.000000000               0.000000000               0.001524496               0.007681883              -0.000226171              -0.000388548               0.002690118               0.002301570               0.000000000               0.000000000               0.000000000               0.000000000               0.001279403               0.007298304              -0.000238929              -0.000432511               0.002576914               0.002144403               0.000000000               0.000000000               0.000000000               0.000000000               0.001050558               0.007014796              -0.000239098              -0.000482889               0.002499205               0.002016316               0.000000000               0.000000000               0.000000000               0.000000000               0.000844093               0.006792906              -0.000231835              -0.000532577               0.002441805               0.001909228               0.000000000               0.000000000               0.000000000               0.000000000               0.000659377               0.006607563              -0.000220680              -0.000578677               0.002395392               0.001816714               0.000000000               0.000000000               0.000000000               0.000000000               0.000498630               0.006442239              -0.000208422              -0.000618292               0.002353489               0.001735197               0.000000000               0.000000000               0.000000000               0.000000000               0.000363116               0.006285512              -0.000192459              -0.000649519               0.002311656               0.001662137               0.000000000               0.000000000               0.000000000               0.000000000               0.000247332               0.006126730              -0.000171003              -0.000673090               0.002266586               0.001593496               0.000000000               0.000000000               0.000000000               0.000000000               0.000152034               0.005959961              -0.000147593              -0.000687981               0.002215961               0.001527980               0.000000000               0.000000000               0.000000000               0.000000000               0.000080147               0.005781284              -0.000117855              -0.000692604               0.002157943               0.001465340               0.000000000               0.000000000               0.000000000               0.000000000               0.000032779               0.005583449              -0.000069719              -0.000685637               0.002089677               0.001404040               0.000000000               0.000000000               0.000000000               0.000000000              -0.000000049               0.005434685              -0.000043112              -0.000679352               0.002037994               0.001358642               0.000000000               0.000000000               0.000000000               0.000000000               0.001729367               0.015285871               0.002215227              -0.001262219               0.005515979               0.004253760               0.000000000               0.000000000               0.000000000               0.000000000               0.001512718               0.012427880               0.001260502              -0.000986214               0.004471323               0.003485109               0.000000000               0.000000000               0.000000000               0.000000000               0.001756776               0.010215477               0.000305441              -0.000618142               0.003611172               0.002993030               0.000000000               0.000000000               0.000000000               0.000000000               0.001638658               0.008969483              -0.000109208              -0.000506687               0.003158694               0.002652006               0.000000000               0.000000000               0.000000000               0.000000000               0.001422596               0.008197512              -0.000294840              -0.000491214               0.002896215               0.002405000               0.000000000               0.000000000               0.000000000               0.000000000               0.001187790               0.007681961              -0.000369594              -0.000514823               0.002732236               0.002217413               0.000000000               0.000000000               0.000000000               0.000000000               0.000967790               0.007312486              -0.000391849              -0.000551138               0.002621184               0.002070045               0.000000000               0.000000000               0.000000000               0.000000000               0.000773946               0.007030929              -0.000392474              -0.000588635               0.002539831               0.001951196               0.000000000               0.000000000               0.000000000               0.000000000               0.000603179               0.006807491              -0.000381291              -0.000624743               0.002477388               0.001852646               0.000000000               0.000000000               0.000000000               0.000000000               0.000451017               0.006621194              -0.000361165              -0.000658516               0.002426548               0.001768032               0.000000000               0.000000000               0.000000000               0.000000000               0.000322324               0.006453158              -0.000334708              -0.000685772               0.002379622               0.001693850               0.000000000               0.000000000               0.000000000               0.000000000               0.000218089               0.006292505              -0.000303580              -0.000704778               0.002332407               0.001627629               0.000000000               0.000000000               0.000000000               0.000000000               0.000135888               0.006139252              -0.000266400              -0.000716447               0.002285213               0.001568766               0.000000000               0.000000000               0.000000000               0.000000000               0.000073604               0.005988168              -0.000223681              -0.000720918               0.002236342               0.001515424               0.000000000               0.000000000               0.000000000               0.000000000               0.000029603               0.005834732              -0.000171420              -0.000718239               0.002184304               0.001466065               0.000000000               0.000000000               0.000000000               0.000000000               0.000007708               0.005681860              -0.000097496              -0.000707340               0.002129714               0.001422374               0.000000000               0.000000000               0.000000000               0.000000000              -0.000008064               0.005578129              -0.000058310              -0.000700288               0.002092787               0.001392499               0.000000000               0.000000000               0.000000000               0.000000000               0.001957931               0.013916794               0.002992338              -0.001005375               0.004974009               0.003968635               0.000000000               0.000000000               0.000000000               0.000000000               0.001450007               0.011527266               0.001717482              -0.000897154               0.004141435               0.003244280               0.000000000               0.000000000               0.000000000               0.000000000               0.001383379               0.009790171               0.000455322              -0.000705003               0.003498358               0.002793356               0.000000000               0.000000000               0.000000000               0.000000000               0.001160879               0.008777449              -0.000070843              -0.000661850               0.003146404               0.002484554               0.000000000               0.000000000               0.000000000               0.000000000               0.000930739               0.008120332              -0.000300491              -0.000666013               0.002928755               0.002262742               0.000000000               0.000000000               0.000000000               0.000000000               0.000724533               0.007655580              -0.000393941              -0.000685246               0.002780250               0.002095004               0.000000000               0.000000000               0.000000000               0.000000000               0.000551306               0.007306044              -0.000421931              -0.000706514               0.002670828               0.001964314               0.000000000               0.000000000               0.000000000               0.000000000               0.000405590               0.007028386              -0.000424145              -0.000726450               0.002584922               0.001858472               0.000000000               0.000000000               0.000000000               0.000000000               0.000283220               0.006802250              -0.000414069              -0.000744072               0.002515418               0.001771346               0.000000000               0.000000000               0.000000000               0.000000000               0.000181786               0.006607228              -0.000391907              -0.000757732               0.002454964               0.001697233               0.000000000               0.000000000               0.000000000               0.000000000               0.000100427               0.006430112              -0.000359175              -0.000766102               0.002398717               0.001632615               0.000000000               0.000000000               0.000000000               0.000000000               0.000041051               0.006267206              -0.000323745              -0.000768005               0.002345049               0.001577044               0.000000000               0.000000000               0.000000000               0.000000000               0.000000604               0.006120144              -0.000284392              -0.000764789               0.002294957               0.001530168               0.000000000               0.000000000               0.000000000               0.000000000              -0.000022415               0.005986900              -0.000235306              -0.000756766               0.002247869               0.001491102               0.000000000               0.000000000               0.000000000               0.000000000              -0.000026805               0.005864399              -0.000175835              -0.000743100               0.002202480               0.001459380               0.000000000               0.000000000               0.000000000               0.000000000              -0.000015970               0.005755394              -0.000097809              -0.000725411               0.002160249               0.001434838               0.000000000               0.000000000               0.000000000               0.000000000              -0.000014885               0.005690045              -0.000057096              -0.000716836               0.002135608               0.001418772               0.000000000               0.000000000               0.000000000               0.000000000               0.002135747               0.012239480               0.003451007              -0.000729031               0.004322795               0.003593764               0.000000000               0.000000000               0.000000000               0.000000000               0.001318855               0.010440681               0.002016102              -0.000810514               0.003750363               0.002939849               0.000000000               0.000000000               0.000000000               0.000000000               0.000921520               0.009274375               0.000608438              -0.000813725               0.003362669               0.002548944               0.000000000               0.000000000               0.000000000               0.000000000               0.000617310               0.008520749               0.000044969              -0.000833600               0.003118088               0.002284488               0.000000000               0.000000000               0.000000000               0.000000000               0.000397940               0.007985224              -0.000197049              -0.000848923               0.002944689               0.002095766               0.000000000               0.000000000               0.000000000               0.000000000               0.000238851               0.007575770              -0.000299050              -0.000857400               0.002811031               0.001953631               0.000000000               0.000000000               0.000000000               0.000000000               0.000123558               0.007250528              -0.000334506              -0.000859980               0.002703478               0.001843499               0.000000000               0.000000000               0.000000000               0.000000000               0.000038769               0.006983328              -0.000344068              -0.000858376               0.002613878               0.001755502               0.000000000               0.000000000               0.000000000               0.000000000              -0.000025823               0.006752059              -0.000342350              -0.000853689               0.002535227               0.001681538               0.000000000               0.000000000               0.000000000               0.000000000              -0.000069959               0.006545707              -0.000326853              -0.000844446               0.002463363               0.001618917               0.000000000               0.000000000               0.000000000               0.000000000              -0.000096315               0.006358743              -0.000301047              -0.000830959               0.002396546               0.001565587               0.000000000               0.000000000               0.000000000               0.000000000              -0.000105398               0.006192591              -0.000273916              -0.000813596               0.002335375               0.001521779               0.000000000               0.000000000               0.000000000               0.000000000              -0.000098690               0.006048289              -0.000244616              -0.000793043               0.002280424               0.001487381               0.000000000               0.000000000               0.000000000               0.000000000              -0.000080113               0.005924822              -0.000201770              -0.000770643               0.002231802               0.001461159               0.000000000               0.000000000               0.000000000               0.000000000              -0.000052652               0.005818156              -0.000145743              -0.000747012               0.002188370               0.001441358               0.000000000               0.000000000               0.000000000               0.000000000              -0.000023412               0.005736780              -0.000078661              -0.000725875               0.002154200               0.001428324               0.000000000               0.000000000               0.000000000               0.000000000              -0.000013616               0.005697699              -0.000044814              -0.000717317               0.002138319               0.001421003               0.000000000               0.000000000               0.000000000               0.000000000               0.002182036               0.010418622               0.003591897              -0.000484067               0.003634194               0.003150127               0.000000000               0.000000000               0.000000000               0.000000000               0.001109357               0.009279282               0.002166689              -0.000743901               0.003341030               0.002597129               0.000000000               0.000000000               0.000000000               0.000000000               0.000428799               0.008710100               0.000775671              -0.000927961               0.003212658               0.002284697               0.000000000               0.000000000               0.000000000               0.000000000               0.000092439               0.008203852               0.000236074              -0.000990815               0.003064862               0.002074047               0.000000000               0.000000000               0.000000000               0.000000000              -0.000084143               0.007779070              -0.000001177              -0.001003935               0.002927642               0.001923707               0.000000000               0.000000000               0.000000000               0.000000000              -0.000177707               0.007424465              -0.000111563              -0.000994696               0.002806362               0.001811666               0.000000000               0.000000000               0.000000000               0.000000000              -0.000226069               0.007124470              -0.000162479              -0.000975332               0.002699910               0.001724578               0.000000000               0.000000000               0.000000000               0.000000000              -0.000249749               0.006864296              -0.000186873              -0.000951690               0.002605306               0.001653616               0.000000000               0.000000000               0.000000000               0.000000000              -0.000257306               0.006630414              -0.000199117              -0.000925289               0.002518546               0.001593256               0.000000000               0.000000000               0.000000000               0.000000000              -0.000245601               0.006417551              -0.000199306              -0.000894292               0.002437260               0.001542968               0.000000000               0.000000000               0.000000000               0.000000000              -0.000218934               0.006225066              -0.000187785              -0.000860231               0.002361745               0.001501514               0.000000000               0.000000000               0.000000000               0.000000000              -0.000183599               0.006052777              -0.000174466              -0.000825445               0.002292720               0.001467276               0.000000000               0.000000000               0.000000000               0.000000000              -0.000142299               0.005901427              -0.000158409              -0.000791039               0.002230802               0.001439763               0.000000000               0.000000000               0.000000000               0.000000000              -0.000097240               0.005770664              -0.000126406              -0.000757796               0.002176134               0.001418338               0.000000000               0.000000000               0.000000000               0.000000000              -0.000052761               0.005664569              -0.000084286              -0.000727855               0.002130789               0.001402934               0.000000000               0.000000000               0.000000000               0.000000000              -0.000019682               0.005588487              -0.000042000              -0.000705940               0.002098124               0.001392184               0.000000000               0.000000000               0.000000000               0.000000000              -0.000010722               0.005552224              -0.000022917              -0.000698047               0.002083405               0.001385358               0.000000000               0.000000000               0.000000000               0.000000000               0.002053476               0.008599115               0.003459314              -0.000304839               0.002967955               0.002663116               0.000000000               0.000000000               0.000000000               0.000000000               0.000832516               0.008131935               0.002204420              -0.000704298               0.002945383               0.002241085               0.000000000               0.000000000               0.000000000               0.000000000              -0.000036893               0.008122683               0.000968301              -0.001029168               0.003050590               0.002021422               0.000000000               0.000000000               0.000000000               0.000000000              -0.000344399               0.007832275               0.000482772              -0.001108181               0.002980126               0.001871945               0.000000000               0.000000000               0.000000000               0.000000000              -0.000450226               0.007505927               0.000249223              -0.001107073               0.002870975               0.001763902               0.000000000               0.000000000               0.000000000               0.000000000              -0.000472467               0.007199785               0.000123297              -0.001077145               0.002758953               0.001681807               0.000000000               0.000000000               0.000000000               0.000000000              -0.000456256               0.006920623               0.000051530              -0.001036171               0.002652242               0.001616070               0.000000000               0.000000000               0.000000000               0.000000000              -0.000422032               0.006668816               0.000005226              -0.000991861               0.002553537               0.001561675               0.000000000               0.000000000               0.000000000               0.000000000              -0.000376991               0.006435651              -0.000028290              -0.000945826               0.002460471               0.001514645               0.000000000               0.000000000               0.000000000               0.000000000              -0.000323082               0.006217781              -0.000048738              -0.000898376               0.002372032               0.001473655               0.000000000               0.000000000               0.000000000               0.000000000              -0.000264311               0.006018042              -0.000056586              -0.000851370               0.002289784               0.001438414               0.000000000               0.000000000               0.000000000               0.000000000              -0.000206194               0.005839975              -0.000059962              -0.000807318               0.002215745               0.001408427               0.000000000               0.000000000               0.000000000               0.000000000              -0.000147176               0.005684601              -0.000059106              -0.000765764               0.002150103               0.001384339               0.000000000               0.000000000               0.000000000               0.000000000              -0.000089049               0.005550660              -0.000045904              -0.000727224               0.002092610               0.001365385               0.000000000               0.000000000               0.000000000               0.000000000              -0.000041985               0.005442153              -0.000027254              -0.000696012               0.002046037               0.001350025               0.000000000               0.000000000               0.000000000               0.000000000              -0.000015175               0.005357080              -0.000012379              -0.000675324               0.002010784               0.001335460               0.000000000               0.000000000               0.000000000               0.000000000              -0.000013417               0.005309056              -0.000009827              -0.000668662               0.001992555               0.001323893               0.000000000               0.000000000               0.000000000               0.000000000               0.001755384               0.006890289               0.003114234              -0.000203021               0.002364412               0.002161392               0.000000000               0.000000000               0.000000000               0.000000000               0.000507361               0.007064466               0.002162629              -0.000692798               0.002585730               0.001892933               0.000000000               0.000000000               0.000000000               0.000000000              -0.000426838               0.007531459               0.001182158              -0.001101494               0.002877626               0.001776131               0.000000000               0.000000000               0.000000000               0.000000000              -0.000655962               0.007415796               0.000750340              -0.001172958               0.002862893               0.001689936               0.000000000               0.000000000               0.000000000               0.000000000              -0.000679367               0.007173730               0.000510817              -0.001151476               0.002775045               0.001623569               0.000000000               0.000000000               0.000000000               0.000000000              -0.000636876               0.006910890               0.000363132              -0.001102687               0.002671169               0.001568482               0.000000000               0.000000000               0.000000000               0.000000000              -0.000565160               0.006656184               0.000263145              -0.001043955               0.002566691               0.001522736               0.000000000               0.000000000               0.000000000               0.000000000              -0.000482910               0.006416730               0.000188023              -0.000983180               0.002466615               0.001483435               0.000000000               0.000000000               0.000000000               0.000000000              -0.000402536               0.006185245               0.000129664              -0.000924104               0.002369763               0.001445658               0.000000000               0.000000000               0.000000000               0.000000000              -0.000324991               0.005964629               0.000085691              -0.000867448               0.002277339               0.001409891               0.000000000               0.000000000               0.000000000               0.000000000              -0.000251582               0.005763858               0.000054349              -0.000814824               0.002192875               0.001378051               0.000000000               0.000000000               0.000000000               0.000000000              -0.000184348               0.005589159               0.000028822              -0.000767773               0.002118959               0.001351186               0.000000000               0.000000000               0.000000000               0.000000000              -0.000124203               0.005437193               0.000010646              -0.000726223               0.002054454               0.001328231               0.000000000               0.000000000               0.000000000               0.000000000              -0.000073385               0.005306200               0.000005589              -0.000690792               0.001998980               0.001308187               0.000000000               0.000000000               0.000000000               0.000000000              -0.000039444               0.005197611               0.000004435              -0.000664491               0.001954017               0.001289525               0.000000000               0.000000000               0.000000000               0.000000000              -0.000020299               0.005111354               0.000001506              -0.000646530               0.001919277               0.001272748               0.000000000               0.000000000               0.000000000               0.000000000              -0.000020021               0.005060327              -0.000004762              -0.000640047               0.001900108               0.001260061               0.000000000               0.000000000               0.000000000               0.000000000               0.001355917               0.005415705               0.002637416              -0.000168497               0.001861382               0.001692885               0.000000000               0.000000000               0.000000000               0.000000000               0.000201563               0.006107738               0.002084126              -0.000687881               0.002265185               0.001577304               0.000000000               0.000000000               0.000000000               0.000000000              -0.000698556               0.006966277               0.001428990              -0.001132741               0.002699649               0.001566908               0.000000000               0.000000000               0.000000000               0.000000000              -0.000839513               0.007022587               0.001037752              -0.001192638               0.002738385               0.001545747               0.000000000               0.000000000               0.000000000               0.000000000              -0.000795251               0.006872561               0.000784069              -0.001157286               0.002676593               0.001519306               0.000000000               0.000000000               0.000000000               0.000000000              -0.000699552               0.006666297               0.000606941              -0.001095616               0.002587282               0.001491666               0.000000000               0.000000000               0.000000000               0.000000000              -0.000589156               0.006447391               0.000473394              -0.001026855               0.002491394               0.001464539               0.000000000               0.000000000               0.000000000               0.000000000              -0.000479485               0.006222141               0.000365991              -0.000957572               0.002393217               0.001435645               0.000000000               0.000000000               0.000000000               0.000000000              -0.000377755               0.005996070               0.000280920              -0.000891165               0.002295725               0.001404560               0.000000000               0.000000000               0.000000000               0.000000000              -0.000288085               0.005779745               0.000211101              -0.000830498               0.002203395               0.001372897               0.000000000               0.000000000               0.000000000               0.000000000              -0.000211786               0.005583977               0.000153112              -0.000777415               0.002120445               0.001343031               0.000000000               0.000000000               0.000000000               0.000000000              -0.000145679               0.005413329               0.000106191              -0.000731294               0.002048190               0.001316896               0.000000000               0.000000000               0.000000000               0.000000000              -0.000091658               0.005260789               0.000069425              -0.000691969               0.001984235               0.001292266               0.000000000               0.000000000               0.000000000               0.000000000              -0.000057686               0.005124307               0.000043731              -0.000662169               0.001928808               0.001266639               0.000000000               0.000000000               0.000000000               0.000000000              -0.000043852               0.005015790               0.000024542              -0.000643417               0.001886385               0.001242969               0.000000000               0.000000000               0.000000000               0.000000000              -0.000039151               0.004932926               0.000009845              -0.000631296               0.001854724               0.001223428               0.000000000               0.000000000               0.000000000               0.000000000              -0.000037843               0.004890345               0.000002481              -0.000625483               0.001838593               0.001213110               0.000000000               0.000000000               0.000000000               0.000000000               0.000840605               0.004019198               0.002104902              -0.000187175               0.001402110               0.001214935               0.000000000               0.000000000               0.000000000               0.000000000              -0.000033684               0.005005217               0.001984896              -0.000638284               0.001881149               0.001242866               0.000000000               0.000000000               0.000000000               0.000000000              -0.000808618               0.006142590               0.001702484              -0.001071054               0.002404527               0.001333473               0.000000000               0.000000000               0.000000000               0.000000000              -0.000904518               0.006428752               0.001367603              -0.001142786               0.002523824               0.001381038               0.000000000               0.000000000               0.000000000               0.000000000              -0.000831512               0.006433999               0.001101303              -0.001116064               0.002516666               0.001400602               0.000000000               0.000000000               0.000000000               0.000000000              -0.000717778               0.006342581               0.000891162              -0.001061987               0.002468168               0.001406181               0.000000000               0.000000000               0.000000000               0.000000000              -0.000598808               0.006201995               0.000721401              -0.000999800               0.002400578               0.001400777               0.000000000               0.000000000               0.000000000               0.000000000              -0.000489128               0.006028134               0.000582197              -0.000936937               0.002321670               0.001384733               0.000000000               0.000000000               0.000000000               0.000000000              -0.000388016               0.005845165               0.000466210              -0.000876149               0.002240419               0.001364269               0.000000000               0.000000000               0.000000000               0.000000000              -0.000295694               0.005665619               0.000365857              -0.000819086               0.002161549               0.001342464               0.000000000               0.000000000               0.000000000               0.000000000              -0.000220004               0.005491017               0.000280956              -0.000768877               0.002086613               0.001317736               0.000000000               0.000000000               0.000000000               0.000000000              -0.000155936               0.005333492               0.000212209              -0.000725161               0.002019533               0.001294372               0.000000000               0.000000000               0.000000000               0.000000000              -0.000104165               0.005190505               0.000152337              -0.000687873               0.001959442               0.001271569               0.000000000               0.000000000               0.000000000               0.000000000              -0.000072425               0.005058415               0.000097241              -0.000659460               0.001905941               0.001246482               0.000000000               0.000000000               0.000000000               0.000000000              -0.000065223               0.004947507               0.000051336              -0.000642896               0.001863451               0.001220556               0.000000000               0.000000000               0.000000000               0.000000000              -0.000076607               0.004860868               0.000020074              -0.000636335               0.001832385               0.001196050               0.000000000               0.000000000               0.000000000               0.000000000              -0.000084770               0.004822516               0.000007951              -0.000634602               0.001819023               0.001184422               0.000000000               0.000000000               0.000000000               0.000000000               0.000122611               0.002738940               0.001542493              -0.000296389               0.001011766               0.000715377               0.000000000               0.000000000               0.000000000               0.000000000              -0.000301068               0.003902704               0.001824668              -0.000600739               0.001501134               0.000900395               0.000000000               0.000000000               0.000000000               0.000000000              -0.000837144               0.005201707               0.001914524              -0.000964141               0.002055265               0.001091124               0.000000000               0.000000000               0.000000000               0.000000000              -0.000891719               0.005710891               0.001683778              -0.001048254               0.002253029               0.001204775               0.000000000               0.000000000               0.000000000               0.000000000              -0.000809033               0.005898359               0.001428831              -0.001040680               0.002312993               0.001272313               0.000000000               0.000000000               0.000000000               0.000000000              -0.000694864               0.005942609               0.001200911              -0.001003398               0.002315316               0.001311918               0.000000000               0.000000000               0.000000000               0.000000000              -0.000579671               0.005902925               0.001005170              -0.000955240               0.002286035               0.001330795               0.000000000               0.000000000               0.000000000               0.000000000              -0.000474102               0.005809773               0.000837658              -0.000904008               0.002237907               0.001333900               0.000000000               0.000000000               0.000000000               0.000000000              -0.000381508               0.005691566               0.000694940              -0.000854509               0.002182006               0.001327497               0.000000000               0.000000000               0.000000000               0.000000000              -0.000292555               0.005561086               0.000570229              -0.000804842               0.002121957               0.001317115               0.000000000               0.000000000               0.000000000               0.000000000              -0.000211234               0.005423174               0.000461978              -0.000757108               0.002060076               0.001302968               0.000000000               0.000000000               0.000000000               0.000000000              -0.000146882               0.005291665               0.000369436              -0.000716537               0.002002716               0.001286179               0.000000000               0.000000000               0.000000000               0.000000000              -0.000098119               0.005169210               0.000284098              -0.000682944               0.001950701               0.001267757               0.000000000               0.000000000               0.000000000               0.000000000              -0.000067419               0.005051487               0.000198103              -0.000656716               0.001902717               0.001246001               0.000000000               0.000000000               0.000000000               0.000000000              -0.000062129               0.004946188               0.000115220              -0.000641570               0.001862570               0.001221000               0.000000000               0.000000000               0.000000000               0.000000000              -0.000087390               0.004858435               0.000048652              -0.000640074               0.001832820               0.001192746               0.000000000               0.000000000               0.000000000               0.000000000              -0.000116075               0.004813042               0.000017440              -0.000645157               0.001819383               0.001174227               0.000000000               0.000000000               0.000000000               0.000000000              -0.000753402               0.001656188               0.000987493              -0.000489549               0.000715239               0.000225691               0.000000000               0.000000000               0.000000000               0.000000000              -0.000647056               0.002853817               0.001578801              -0.000599373               0.001151053               0.000551680               0.000000000               0.000000000               0.000000000               0.000000000              -0.000827140               0.004154364               0.001976497              -0.000829472               0.001661264               0.000831792               0.000000000               0.000000000               0.000000000               0.000000000              -0.000795576               0.004826938               0.001877636              -0.000901707               0.001909532               0.001007824               0.000000000               0.000000000               0.000000000               0.000000000              -0.000698314               0.005182751               0.001669353              -0.000909710               0.002030803               0.001121092               0.000000000               0.000000000               0.000000000               0.000000000              -0.000588100               0.005370727               0.001449827              -0.000891877               0.002087516               0.001195639               0.000000000               0.000000000               0.000000000               0.000000000              -0.000486719               0.005452313               0.001247203              -0.000864057               0.002105438               0.001241381               0.000000000               0.000000000               0.000000000               0.000000000              -0.000394585               0.005460701               0.001066941              -0.000830555               0.002097067               0.001266512               0.000000000               0.000000000               0.000000000               0.000000000              -0.000310005               0.005424335               0.000911747              -0.000794292               0.002072857               0.001278565               0.000000000               0.000000000               0.000000000               0.000000000              -0.000229209               0.005361768               0.000777587              -0.000756173               0.002039296               0.001283123               0.000000000               0.000000000               0.000000000               0.000000000              -0.000149692               0.005283947               0.000654260              -0.000716626               0.002000174               0.001283547               0.000000000               0.000000000               0.000000000               0.000000000              -0.000084222               0.005199736               0.000540956              -0.000681549               0.001960411               0.001278862               0.000000000               0.000000000               0.000000000               0.000000000              -0.000039019               0.005109753               0.000435442              -0.000653350               0.001921017               0.001267668               0.000000000               0.000000000               0.000000000               0.000000000              -0.000012232               0.005017539               0.000325255              -0.000631778               0.001883089               0.001251311               0.000000000               0.000000000               0.000000000               0.000000000              -0.000006775               0.004929567               0.000208382              -0.000618735               0.001849418               0.001230683               0.000000000               0.000000000               0.000000000               0.000000000              -0.000036192               0.004850442               0.000097525              -0.000619876               0.001823423               0.001203547               0.000000000               0.000000000               0.000000000               0.000000000              -0.000077081               0.004804830               0.000040333              -0.000629508               0.001811430               0.001181922               0.000000000               0.000000000               0.000000000               0.000000000              -0.001720252               0.000826091               0.000506835              -0.000748355               0.000524811              -0.000223543               0.000000000               0.000000000               0.000000000               0.000000000              -0.001055516               0.001914090               0.001270604              -0.000635079               0.000849716               0.000214637               0.000000000               0.000000000               0.000000000               0.000000000              -0.000802819               0.003086266               0.001868679              -0.000686840               0.001257691               0.000570851               0.000000000               0.000000000               0.000000000               0.000000000              -0.000637662               0.003845916               0.001892665              -0.000719862               0.001521912               0.000802050               0.000000000               0.000000000               0.000000000               0.000000000              -0.000511394               0.004335096               0.001750958              -0.000733659               0.001689570               0.000955911               0.000000000               0.000000000               0.000000000               0.000000000              -0.000404149               0.004655076               0.001564628              -0.000733439               0.001796156               0.001062716               0.000000000               0.000000000               0.000000000               0.000000000              -0.000315982               0.004859746               0.001377167              -0.000725960               0.001861886               0.001135925               0.000000000               0.000000000               0.000000000               0.000000000              -0.000237711               0.004976477               0.001206590              -0.000711200               0.001895875               0.001184675               0.000000000               0.000000000               0.000000000               0.000000000              -0.000160600               0.005034088               0.001058104              -0.000689485               0.001907841               0.001218356               0.000000000               0.000000000               0.000000000               0.000000000              -0.000087339               0.005055523               0.000927356              -0.000664691               0.001906721               0.001242030               0.000000000               0.000000000               0.000000000               0.000000000              -0.000015548               0.005049832               0.000803441              -0.000637058               0.001895613               0.001258555               0.000000000               0.000000000               0.000000000               0.000000000               0.000052021               0.005024938               0.000683305              -0.000608608               0.001877832               0.001269224               0.000000000               0.000000000               0.000000000               0.000000000               0.000104635               0.004986406               0.000565771              -0.000584061               0.001856806               0.001272744               0.000000000               0.000000000               0.000000000               0.000000000               0.000137397               0.004936256               0.000442983              -0.000565507               0.001833904               0.001268398               0.000000000               0.000000000               0.000000000               0.000000000               0.000150280               0.004877689               0.000305498              -0.000553355               0.001810332               0.001256977               0.000000000               0.000000000               0.000000000               0.000000000               0.000133635               0.004826545               0.000154573              -0.000553204               0.001793233               0.001240030               0.000000000               0.000000000               0.000000000               0.000000000               0.000098631               0.004795782               0.000072245              -0.000562485               0.001786073               0.001223588               0.000000000               0.000000000               0.000000000               0.000000000              -0.002673124               0.000251289               0.000160792              -0.001033831               0.000428370              -0.000605461               0.000000000               0.000000000               0.000000000               0.000000000              -0.001486474               0.001139379               0.000933202              -0.000699849               0.000613071              -0.000086778               0.000000000               0.000000000               0.000000000               0.000000000              -0.000781632               0.002096907               0.001587163              -0.000555225               0.000884036               0.000328811               0.000000000               0.000000000               0.000000000               0.000000000              -0.000450546               0.002870538               0.001693909              -0.000527772               0.001132759               0.000604987               0.000000000               0.000000000               0.000000000               0.000000000              -0.000274971               0.003448834               0.001616985              -0.000534218               0.001327672               0.000793454               0.000000000               0.000000000               0.000000000               0.000000000              -0.000163871               0.003871380               0.001479054              -0.000545374               0.001472238               0.000926864               0.000000000               0.000000000               0.000000000               0.000000000              -0.000081608               0.004178778               0.001327691              -0.000552950               0.001577228               0.001024279               0.000000000               0.000000000               0.000000000               0.000000000              -0.000014794               0.004396985               0.001186575              -0.000555170               0.001650703               0.001095533               0.000000000               0.000000000               0.000000000               0.000000000               0.000050012               0.004552277               0.001060249              -0.000550279               0.001700837               0.001150557               0.000000000               0.000000000               0.000000000               0.000000000               0.000114662               0.004661688               0.000947821              -0.000539712               0.001733784               0.001194072               0.000000000               0.000000000               0.000000000               0.000000000               0.000181281               0.004735933               0.000842118              -0.000524010               0.001753299               0.001229288               0.000000000               0.000000000               0.000000000               0.000000000               0.000251006               0.004781799               0.000735626              -0.000503597               0.001761782               0.001258186               0.000000000               0.000000000               0.000000000               0.000000000               0.000316814               0.004803912               0.000624688              -0.000481683               0.001761849               0.001280166               0.000000000               0.000000000               0.000000000               0.000000000               0.000372979               0.004808908               0.000504423              -0.000461246               0.001756702               0.001295456               0.000000000               0.000000000               0.000000000               0.000000000               0.000418528               0.004802353               0.000365302              -0.000443345               0.001748550               0.001305205               0.000000000               0.000000000               0.000000000               0.000000000               0.000449308               0.004795749               0.000195592              -0.000430977               0.001742226               0.001311249               0.000000000               0.000000000               0.000000000               0.000000000               0.000453671               0.004789013               0.000100158              -0.000428499               0.001739155               0.001310656               0.000000000               0.000000000               0.000000000               0.000000000              -0.003485384              -0.000104970              -0.000021178              -0.001293897               0.000396306              -0.000897590               0.000000000               0.000000000               0.000000000               0.000000000              -0.001872049               0.000567459               0.000600837              -0.000772950               0.000446800              -0.000326150               0.000000000               0.000000000               0.000000000               0.000000000              -0.000770287               0.001293660               0.001151272              -0.000450565               0.000581403               0.000130838               0.000000000               0.000000000               0.000000000               0.000000000              -0.000273866               0.002029548               0.001278348              -0.000356394               0.000795306               0.000438913               0.000000000               0.000000000               0.000000000               0.000000000              -0.000034489               0.002650931               0.001248369              -0.000344300               0.000998401               0.000654101               0.000000000               0.000000000               0.000000000               0.000000000               0.000092021               0.003143691               0.001161753              -0.000358453               0.001167371               0.000808917               0.000000000               0.000000000               0.000000000               0.000000000               0.000170933               0.003527640               0.001058052              -0.000376855               0.001301486               0.000924631               0.000000000               0.000000000               0.000000000               0.000000000               0.000226480               0.003828332               0.000957831              -0.000393611               0.001407302               0.001013690               0.000000000               0.000000000               0.000000000               0.000000000               0.000276197               0.004070094               0.000868354              -0.000405187               0.001491747               0.001086559               0.000000000               0.000000000               0.000000000               0.000000000               0.000330276               0.004265376               0.000788415              -0.000409318               0.001558217               0.001148899               0.000000000               0.000000000               0.000000000               0.000000000               0.000389308               0.004417026               0.000714108              -0.000406137               0.001607706               0.001201569               0.000000000               0.000000000               0.000000000               0.000000000               0.000458501               0.004530656               0.000637201              -0.000394393               0.001641668               0.001247275               0.000000000               0.000000000               0.000000000               0.000000000               0.000536637               0.004611599               0.000552624              -0.000375210               0.001662254               0.001287044               0.000000000               0.000000000               0.000000000               0.000000000               0.000628178               0.004673059               0.000458727              -0.000348565               0.001673859               0.001325294               0.000000000               0.000000000               0.000000000               0.000000000               0.000734881               0.004723475               0.000345878              -0.000314853               0.001679427               0.001364574               0.000000000               0.000000000               0.000000000               0.000000000               0.000855769               0.004761677               0.000194240              -0.000274296               0.001678642               0.001404346               0.000000000               0.000000000               0.000000000               0.000000000               0.000940341               0.004783222               0.000107703              -0.000245274               0.001676150               0.001430875               0.000000000               0.000000000               0.000000000               0.000000000              -0.004035118              -0.000290441              -0.000054654              -0.001476863               0.000395471              -0.001081392               0.000000000               0.000000000               0.000000000               0.000000000              -0.002139759               0.000219173               0.000291458              -0.000829805               0.000349657              -0.000480148               0.000000000               0.000000000               0.000000000               0.000000000              -0.000767265               0.000769172               0.000604255              -0.000383870               0.000384344               0.000000474               0.000000000               0.000000000               0.000000000               0.000000000              -0.000147443               0.001457046               0.000687788              -0.000237422               0.000564818               0.000327396               0.000000000               0.000000000               0.000000000               0.000000000               0.000145637               0.002087932               0.000681886              -0.000206377               0.000764763               0.000558385               0.000000000               0.000000000               0.000000000               0.000000000               0.000288269               0.002620147               0.000640436              -0.000219418               0.000946513               0.000727095               0.000000000               0.000000000               0.000000000               0.000000000               0.000363174               0.003055582               0.000587077              -0.000245757               0.001100436               0.000854679               0.000000000               0.000000000               0.000000000               0.000000000               0.000412045               0.003414197               0.000535746              -0.000272257               0.001228807               0.000956549               0.000000000               0.000000000               0.000000000               0.000000000               0.000453215               0.003717082               0.000490549              -0.000294679               0.001337241               0.001042562               0.000000000               0.000000000               0.000000000               0.000000000               0.000496225               0.003970739               0.000449528              -0.000310257               0.001426985               0.001116728               0.000000000               0.000000000               0.000000000               0.000000000               0.000546822               0.004176926               0.000412240              -0.000317057               0.001497980               0.001180924               0.000000000               0.000000000               0.000000000               0.000000000               0.000612548               0.004340606               0.000372248              -0.000312869               0.001551144               0.001238275               0.000000000               0.000000000               0.000000000               0.000000000               0.000703019               0.004468937               0.000327230              -0.000294984               0.001587959               0.001292974               0.000000000               0.000000000               0.000000000               0.000000000               0.000828043               0.004575157               0.000277683              -0.000261378               0.001612163               0.001350785               0.000000000               0.000000000               0.000000000               0.000000000               0.000994520               0.004665590               0.000216047              -0.000210253               0.001625266               0.001415012               0.000000000               0.000000000               0.000000000               0.000000000               0.001211838               0.004735408               0.000125354              -0.000137487               0.001624282               0.001486796               0.000000000               0.000000000               0.000000000               0.000000000               0.001390868               0.004783193               0.000072597              -0.000076324               0.001619823               0.001543499               0.000000000               0.000000000               0.000000000               0.000000000              -0.004230513              -0.000347404              -0.000000000              -0.001543016               0.000398535              -0.001144481               0.000000000               0.000000000               0.000000000               0.000000000              -0.002235586               0.000101761              -0.000000000              -0.000851064               0.000317606              -0.000533458               0.000000000               0.000000000               0.000000000               0.000000000              -0.000766387               0.000587648               0.000000000              -0.000360851               0.000316164              -0.000044687               0.000000000               0.000000000               0.000000000               0.000000000              -0.000100485               0.001255469               0.000000000              -0.000194615               0.000483357               0.000288742               0.000000000               0.000000000               0.000000000               0.000000000               0.000212559               0.001883579              -0.000000000              -0.000155738               0.000679766               0.000524028               0.000000000               0.000000000               0.000000000               0.000000000               0.000359242               0.002426853              -0.000000000              -0.000168640               0.000865156               0.000696516               0.000000000               0.000000000               0.000000000               0.000000000               0.000433913               0.002884150              -0.000000000              -0.000197801               0.001027307               0.000829506               0.000000000               0.000000000               0.000000000               0.000000000               0.000481074               0.003264332              -0.000000000              -0.000227638               0.001163979               0.000936341               0.000000000               0.000000000               0.000000000               0.000000000               0.000518814               0.003585716              -0.000000000              -0.000253659               0.001279780               0.001026121               0.000000000               0.000000000               0.000000000               0.000000000               0.000558468               0.003861132               0.000000000              -0.000273215               0.001378103               0.001104888               0.000000000               0.000000000               0.000000000               0.000000000               0.000606338               0.004088392               0.000000000              -0.000283671               0.001457341               0.001173669               0.000000000               0.000000000               0.000000000               0.000000000               0.000669266               0.004268943              -0.000000000              -0.000282643               0.001517181               0.001234538               0.000000000               0.000000000               0.000000000               0.000000000               0.000765251               0.004415611               0.000000000              -0.000264982               0.001560183               0.001295201               0.000000000               0.000000000               0.000000000               0.000000000               0.000903641               0.004540108               0.000000000              -0.000228648               0.001589570               0.001360922               0.000000000               0.000000000               0.000000000               0.000000000               0.001095034               0.004647743              -0.000000000              -0.000170330               0.001606009               0.001435679               0.000000000               0.000000000               0.000000000               0.000000000               0.001353445               0.004727562              -0.000000000              -0.000083403               0.001603639               0.001520236               0.000000000               0.000000000               0.000000000               0.000000000               0.001575847               0.004783709               0.000000000              -0.000007021               0.001596894               0.001589873               0.000000000               0.000000000               0.000000000               0.000000000               0.001474359               0.016501643               0.000000000              -0.001509817               0.006003765               0.004493948               0.000000000               0.000000000               0.000000000               0.000000000               0.001541195               0.013242741              -0.000000000              -0.001077392               0.004773333               0.003695942               0.000000000               0.000000000               0.000000000               0.000000000               0.002087302               0.010598973               0.000000000              -0.000542132               0.003713666               0.003171534               0.000000000               0.000000000               0.000000000               0.000000000               0.002080966               0.009124821              -0.000000000              -0.000360239               0.003161657               0.002801417               0.000000000               0.000000000               0.000000000               0.000000000               0.001891865               0.008243386              -0.000000000              -0.000320973               0.002854759               0.002533786               0.000000000               0.000000000               0.000000000               0.000000000               0.001648242               0.007678547              -0.000000000              -0.000341727               0.002673399               0.002331672               0.000000000               0.000000000               0.000000000               0.000000000               0.001396653               0.007289065              -0.000000000              -0.000387387               0.002558793               0.002171406               0.000000000               0.000000000               0.000000000               0.000000000               0.001156272               0.007004735               0.000000000              -0.000441989               0.002482218               0.002040229               0.000000000               0.000000000               0.000000000               0.000000000               0.000936109               0.006783817              -0.000000000              -0.000496935               0.002426895               0.001929960               0.000000000               0.000000000               0.000000000               0.000000000               0.000737444               0.006596247              -0.000000000              -0.000547988               0.002381390               0.001833402               0.000000000               0.000000000               0.000000000               0.000000000               0.000562152               0.006430118              -0.000000000              -0.000592956               0.002341003               0.001748047               0.000000000               0.000000000               0.000000000               0.000000000               0.000413611               0.006274912               0.000000000              -0.000629258               0.002301369               0.001672111               0.000000000               0.000000000               0.000000000               0.000000000               0.000289687               0.006116073               0.000000000              -0.000655875               0.002257296               0.001601421               0.000000000               0.000000000               0.000000000               0.000000000               0.000185200               0.005943471               0.000000000              -0.000673482               0.002205631               0.001532149               0.000000000               0.000000000               0.000000000               0.000000000               0.000099089               0.005753765               0.000000000              -0.000682061               0.002145256               0.001463195               0.000000000               0.000000000               0.000000000               0.000000000               0.000038775               0.005533551               0.000000000              -0.000677152               0.002070216               0.001393064               0.000000000               0.000000000               0.000000000               0.000000000              -0.000001784               0.005359812              -0.000000000              -0.000670644               0.002010134               0.001339490               0.000000000               0.000000000               0.000000000               0.000000000               0.001544723               0.016186724              -0.001179286              -0.001444066               0.005876876               0.004432810               0.000000000               0.000000000               0.000000000               0.000000000               0.001535541               0.013029755              -0.000668961              -0.001052889               0.004694171               0.003641282               0.000000000               0.000000000               0.000000000               0.000000000               0.002001418               0.010498752              -0.000154509              -0.000561811               0.003686819               0.003125008               0.000000000               0.000000000               0.000000000               0.000000000               0.001966159               0.009086172               0.000076309              -0.000398461               0.003161514               0.002763053               0.000000000               0.000000000               0.000000000               0.000000000               0.001768724               0.008233836               0.000182951              -0.000365957               0.002866570               0.002500613               0.000000000               0.000000000               0.000000000               0.000000000               0.001524496               0.007681883               0.000226171              -0.000388548               0.002690118               0.002301570               0.000000000               0.000000000               0.000000000               0.000000000               0.001279403               0.007298304               0.000238929              -0.000432511               0.002576914               0.002144403               0.000000000               0.000000000               0.000000000               0.000000000               0.001050558               0.007014796               0.000239098              -0.000482889               0.002499205               0.002016316               0.000000000               0.000000000               0.000000000               0.000000000               0.000844093               0.006792906               0.000231835              -0.000532577               0.002441805               0.001909228               0.000000000               0.000000000               0.000000000               0.000000000               0.000659377               0.006607563               0.000220680              -0.000578677               0.002395392               0.001816714               0.000000000               0.000000000               0.000000000               0.000000000               0.000498630               0.006442239               0.000208422              -0.000618292               0.002353489               0.001735197               0.000000000               0.000000000               0.000000000               0.000000000               0.000363116               0.006285512               0.000192459              -0.000649519               0.002311656               0.001662137               0.000000000               0.000000000               0.000000000               0.000000000               0.000247332               0.006126730               0.000171003              -0.000673090               0.002266586               0.001593496               0.000000000               0.000000000               0.000000000               0.000000000               0.000152034               0.005959961               0.000147593              -0.000687981               0.002215961               0.001527980               0.000000000               0.000000000               0.000000000               0.000000000               0.000080147               0.005781284               0.000117855              -0.000692604               0.002157943               0.001465340               0.000000000               0.000000000               0.000000000               0.000000000               0.000032779               0.005583449               0.000069719              -0.000685637               0.002089677               0.001404040               0.000000000               0.000000000               0.000000000               0.000000000              -0.000000049               0.005434685               0.000043112              -0.000679352               0.002037994               0.001358642               0.000000000               0.000000000               0.000000000               0.000000000               0.001729367               0.015285871              -0.002215227              -0.001262219               0.005515979               0.004253760               0.000000000               0.000000000               0.000000000               0.000000000               0.001512718               0.012427880              -0.001260502              -0.000986214               0.004471323               0.003485109               0.000000000               0.000000000               0.000000000               0.000000000               0.001756776               0.010215477              -0.000305441              -0.000618142               0.003611172               0.002993030               0.000000000               0.000000000               0.000000000               0.000000000               0.001638658               0.008969483               0.000109208              -0.000506687               0.003158694               0.002652006               0.000000000               0.000000000               0.000000000               0.000000000               0.001422596               0.008197512               0.000294840              -0.000491214               0.002896215               0.002405000               0.000000000               0.000000000               0.000000000               0.000000000               0.001187790               0.007681961               0.000369594              -0.000514823               0.002732236               0.002217413               0.000000000               0.000000000               0.000000000               0.000000000               0.000967790               0.007312486               0.000391849              -0.000551138               0.002621184               0.002070045               0.000000000               0.000000000               0.000000000               0.000000000               0.000773946               0.007030929               0.000392474              -0.000588635               0.002539831               0.001951196               0.000000000               0.000000000               0.000000000               0.000000000               0.000603179               0.006807491               0.000381291              -0.000624743               0.002477388               0.001852646               0.000000000               0.000000000               0.000000000               0.000000000               0.000451017               0.006621194               0.000361165              -0.000658516               0.002426548               0.001768032               0.000000000               0.000000000               0.000000000               0.000000000               0.000322324               0.006453158               0.000334708              -0.000685772               0.002379622               0.001693850               0.000000000               0.000000000               0.000000000               0.000000000               0.000218089               0.006292505               0.000303580              -0.000704778               0.002332407               0.001627629               0.000000000               0.000000000               0.000000000               0.000000000               0.000135888               0.006139252               0.000266400              -0.000716447               0.002285213               0.001568766               0.000000000               0.000000000               0.000000000               0.000000000               0.000073604               0.005988168               0.000223681              -0.000720918               0.002236342               0.001515424               0.000000000               0.000000000               0.000000000               0.000000000               0.000029603               0.005834732               0.000171420              -0.000718239               0.002184304               0.001466065               0.000000000               0.000000000               0.000000000               0.000000000               0.000007708               0.005681860               0.000097496              -0.000707340               0.002129714               0.001422374               0.000000000               0.000000000               0.000000000               0.000000000              -0.000008064               0.005578129               0.000058310              -0.000700288               0.002092787               0.001392499               0.000000000               0.000000000               0.000000000               0.000000000               0.001957931               0.013916794              -0.002992338              -0.001005375               0.004974009               0.003968635               0.000000000               0.000000000               0.000000000               0.000000000               0.001450007               0.011527266              -0.001717482              -0.000897154               0.004141435               0.003244280               0.000000000               0.000000000               0.000000000               0.000000000               0.001383379               0.009790171              -0.000455322              -0.000705003               0.003498358               0.002793356               0.000000000               0.000000000               0.000000000               0.000000000               0.001160879               0.008777449               0.000070843              -0.000661850               0.003146404               0.002484554               0.000000000               0.000000000               0.000000000               0.000000000               0.000930739               0.008120332               0.000300491              -0.000666013               0.002928755               0.002262742               0.000000000               0.000000000               0.000000000               0.000000000               0.000724533               0.007655580               0.000393941              -0.000685246               0.002780250               0.002095004               0.000000000               0.000000000               0.000000000               0.000000000               0.000551306               0.007306044               0.000421931              -0.000706514               0.002670828               0.001964314               0.000000000               0.000000000               0.000000000               0.000000000               0.000405590               0.007028386               0.000424145              -0.000726450               0.002584922               0.001858472               0.000000000               0.000000000               0.000000000               0.000000000               0.000283220               0.006802250               0.000414069              -0.000744072               0.002515418               0.001771346               0.000000000               0.000000000               0.000000000               0.000000000               0.000181786               0.006607228               0.000391907              -0.000757732               0.002454964               0.001697233               0.000000000               0.000000000               0.000000000               0.000000000               0.000100427               0.006430112               0.000359175              -0.000766102               0.002398717               0.001632615               0.000000000               0.000000000               0.000000000               0.000000000               0.000041051               0.006267206               0.000323745              -0.000768005               0.002345049               0.001577044               0.000000000               0.000000000               0.000000000               0.000000000               0.000000604               0.006120144               0.000284392              -0.000764789               0.002294957               0.001530168               0.000000000               0.000000000               0.000000000               0.000000000              -0.000022415               0.005986900               0.000235306              -0.000756766               0.002247869               0.001491102               0.000000000               0.000000000               0.000000000               0.000000000              -0.000026805               0.005864399               0.000175835              -0.000743100               0.002202480               0.001459380               0.000000000               0.000000000               0.000000000               0.000000000              -0.000015970               0.005755394               0.000097809              -0.000725411               0.002160249               0.001434838               0.000000000               0.000000000               0.000000000               0.000000000              -0.000014885               0.005690045               0.000057096              -0.000716836               0.002135608               0.001418772               0.000000000               0.000000000               0.000000000               0.000000000               0.002135747               0.012239480              -0.003451007              -0.000729031               0.004322795               0.003593764               0.000000000               0.000000000               0.000000000               0.000000000               0.001318855               0.010440681              -0.002016102              -0.000810514               0.003750363               0.002939849               0.000000000               0.000000000               0.000000000               0.000000000               0.000921520               0.009274375              -0.000608438              -0.000813725               0.003362669               0.002548944               0.000000000               0.000000000               0.000000000               0.000000000               0.000617310               0.008520749              -0.000044969              -0.000833600               0.003118088               0.002284488               0.000000000               0.000000000               0.000000000               0.000000000               0.000397940               0.007985224               0.000197049              -0.000848923               0.002944689               0.002095766               0.000000000               0.000000000               0.000000000               0.000000000               0.000238851               0.007575770               0.000299050              -0.000857400               0.002811031               0.001953631               0.000000000               0.000000000               0.000000000               0.000000000               0.000123558               0.007250528               0.000334506              -0.000859980               0.002703478               0.001843499               0.000000000               0.000000000               0.000000000               0.000000000               0.000038769               0.006983328               0.000344068              -0.000858376               0.002613878               0.001755502               0.000000000               0.000000000               0.000000000               0.000000000              -0.000025823               0.006752059               0.000342350              -0.000853689               0.002535227               0.001681538               0.000000000               0.000000000               0.000000000               0.000000000              -0.000069959               0.006545707               0.000326853              -0.000844446               0.002463363               0.001618917               0.000000000               0.000000000               0.000000000               0.000000000              -0.000096315               0.006358743               0.000301047              -0.000830959               0.002396546               0.001565587               0.000000000               0.000000000               0.000000000               0.000000000              -0.000105398               0.006192591               0.000273916              -0.000813596               0.002335375               0.001521779               0.000000000               0.000000000               0.000000000               0.000000000              -0.000098690               0.006048289               0.000244616              -0.000793043               0.002280424               0.001487381               0.000000000               0.000000000               0.000000000               0.000000000              -0.000080113               0.005924822               0.000201770              -0.000770643               0.002231802               0.001461159               0.000000000               0.000000000               0.000000000               0.000000000              -0.000052652               0.005818156               0.000145743              -0.000747012               0.002188370               0.001441358               0.000000000               0.000000000               0.000000000               0.000000000              -0.000023412               0.005736780               0.000078661              -0.000725875               0.002154200               0.001428324               0.000000000               0.000000000               0.000000000               0.000000000              -0.000013616               0.005697699               0.000044814              -0.000717317               0.002138319               0.001421003               0.000000000               0.000000000               0.000000000               0.000000000               0.002182036               0.010418622              -0.003591897              -0.000484067               0.003634194               0.003150127               0.000000000               0.000000000               0.000000000               0.000000000               0.001109357               0.009279282              -0.002166689              -0.000743901               0.003341030               0.002597129               0.000000000               0.000000000               0.000000000               0.000000000               0.000428799               0.008710100              -0.000775671              -0.000927961               0.003212658               0.002284697               0.000000000               0.000000000               0.000000000               0.000000000               0.000092439               0.008203852              -0.000236074              -0.000990815               0.003064862               0.002074047               0.000000000               0.000000000               0.000000000               0.000000000              -0.000084143               0.007779070               0.000001177              -0.001003935               0.002927642               0.001923707               0.000000000               0.000000000               0.000000000               0.000000000              -0.000177707               0.007424465               0.000111563              -0.000994696               0.002806362               0.001811666               0.000000000               0.000000000               0.000000000               0.000000000              -0.000226069               0.007124470               0.000162479              -0.000975332               0.002699910               0.001724578               0.000000000               0.000000000               0.000000000               0.000000000              -0.000249749               0.006864296               0.000186873              -0.000951690               0.002605306               0.001653616               0.000000000               0.000000000               0.000000000               0.000000000              -0.000257306               0.006630414               0.000199117              -0.000925289               0.002518546               0.001593256               0.000000000               0.000000000               0.000000000               0.000000000              -0.000245601               0.006417551               0.000199306              -0.000894292               0.002437260               0.001542968               0.000000000               0.000000000               0.000000000               0.000000000              -0.000218934               0.006225066               0.000187785              -0.000860231               0.002361745               0.001501514               0.000000000               0.000000000               0.000000000               0.000000000              -0.000183599               0.006052777               0.000174466              -0.000825445               0.002292720               0.001467276               0.000000000               0.000000000               0.000000000               0.000000000              -0.000142299               0.005901427               0.000158409              -0.000791039               0.002230802               0.001439763               0.000000000               0.000000000               0.000000000               0.000000000              -0.000097240               0.005770664               0.000126406              -0.000757796               0.002176134               0.001418338               0.000000000               0.000000000               0.000000000               0.000000000              -0.000052761               0.005664569               0.000084286              -0.000727855               0.002130789               0.001402934               0.000000000               0.000000000               0.000000000               0.000000000              -0.000019682               0.005588487               0.000042000              -0.000705940               0.002098124               0.001392184               0.000000000               0.000000000               0.000000000               0.000000000              -0.000010722               0.005552224               0.000022917              -0.000698047               0.002083405               0.001385358               0.000000000               0.000000000               0.000000000               0.000000000               0.002053476               0.008599115              -0.003459314              -0.000304839               0.002967955               0.002663116               0.000000000               0.000000000               0.000000000               0.000000000               0.000832516               0.008131935              -0.002204420              -0.000704298               0.002945383               0.002241085               0.000000000               0.000000000               0.000000000               0.000000000              -0.000036893               0.008122683              -0.000968301              -0.001029168               0.003050590               0.002021422               0.000000000               0.000000000               0.000000000               0.000000000              -0.000344399               0.007832275              -0.000482772              -0.001108181               0.002980126               0.001871945               0.000000000               0.000000000               0.000000000               0.000000000              -0.000450226               0.007505927              -0.000249223              -0.001107073               0.002870975               0.001763902               0.000000000               0.000000000               0.000000000               0.000000000              -0.000472467               0.007199785              -0.000123297              -0.001077145               0.002758953               0.001681807               0.000000000               0.000000000               0.000000000               0.000000000              -0.000456256               0.006920623              -0.000051530              -0.001036171               0.002652242               0.001616070               0.000000000               0.000000000               0.000000000               0.000000000              -0.000422032               0.006668816              -0.000005226              -0.000991861               0.002553537               0.001561675               0.000000000               0.000000000               0.000000000               0.000000000              -0.000376991               0.006435651               0.000028290              -0.000945826               0.002460471               0.001514645               0.000000000               0.000000000               0.000000000               0.000000000              -0.000323082               0.006217781               0.000048738              -0.000898376               0.002372032               0.001473655               0.000000000               0.000000000               0.000000000               0.000000000              -0.000264311               0.006018042               0.000056586              -0.000851370               0.002289784               0.001438414               0.000000000               0.000000000               0.000000000               0.000000000              -0.000206194               0.005839975               0.000059962              -0.000807318               0.002215745               0.001408427               0.000000000               0.000000000               0.000000000               0.000000000              -0.000147176               0.005684601               0.000059106              -0.000765764               0.002150103               0.001384339               0.000000000               0.000000000               0.000000000               0.000000000              -0.000089049               0.005550660               0.000045904              -0.000727224               0.002092610               0.001365385               0.000000000               0.000000000               0.000000000               0.000000000              -0.000041985               0.005442153               0.000027254              -0.000696012               0.002046037               0.001350025               0.000000000               0.000000000               0.000000000               0.000000000              -0.000015175               0.005357080               0.000012379              -0.000675324               0.002010784               0.001335460               0.000000000               0.000000000               0.000000000               0.000000000              -0.000013417               0.005309056               0.000009827              -0.000668662               0.001992555               0.001323893               0.000000000               0.000000000               0.000000000               0.000000000               0.001755384               0.006890289              -0.003114234              -0.000203021               0.002364412               0.002161392               0.000000000               0.000000000               0.000000000               0.000000000               0.000507361               0.007064466              -0.002162629              -0.000692798               0.002585730               0.001892933               0.000000000               0.000000000               0.000000000               0.000000000              -0.000426838               0.007531459              -0.001182158              -0.001101494               0.002877626               0.001776131               0.000000000               0.000000000               0.000000000               0.000000000              -0.000655962               0.007415796              -0.000750340              -0.001172958               0.002862893               0.001689936               0.000000000               0.000000000               0.000000000               0.000000000              -0.000679367               0.007173730              -0.000510817              -0.001151476               0.002775045               0.001623569               0.000000000               0.000000000               0.000000000               0.000000000              -0.000636876               0.006910890              -0.000363132              -0.001102687               0.002671169               0.001568482               0.000000000               0.000000000               0.000000000               0.000000000              -0.000565160               0.006656184              -0.000263145              -0.001043955               0.002566691               0.001522736               0.000000000               0.000000000               0.000000000               0.000000000              -0.000482910               0.006416730              -0.000188023              -0.000983180               0.002466615               0.001483435               0.000000000               0.000000000               0.000000000               0.000000000              -0.000402536               0.006185245              -0.000129664              -0.000924104               0.002369763               0.001445658               0.000000000               0.000000000               0.000000000               0.000000000              -0.000324991               0.005964629              -0.000085691              -0.000867448               0.002277339               0.001409891               0.000000000               0.000000000               0.000000000               0.000000000              -0.000251582               0.005763858              -0.000054349              -0.000814824               0.002192875               0.001378051               0.000000000               0.000000000               0.000000000               0.000000000              -0.000184348               0.005589159              -0.000028822              -0.000767773               0.002118959               0.001351186               0.000000000               0.000000000               0.000000000               0.000000000              -0.000124203               0.005437193              -0.000010646              -0.000726223               0.002054454               0.001328231               0.000000000               0.000000000               0.000000000               0.000000000              -0.000073385               0.005306200              -0.000005589              -0.000690792               0.001998980               0.001308187               0.000000000               0.000000000               0.000000000               0.000000000              -0.000039444               0.005197611              -0.000004435              -0.000664491               0.001954017               0.001289525               0.000000000               0.000000000               0.000000000               0.000000000              -0.000020299               0.005111354              -0.000001506              -0.000646530               0.001919277               0.001272748               0.000000000               0.000000000               0.000000000               0.000000000              -0.000020021               0.005060327               0.000004762              -0.000640047               0.001900108               0.001260061               0.000000000               0.000000000               0.000000000               0.000000000               0.001355917               0.005415705              -0.002637416              -0.000168497               0.001861382               0.001692885               0.000000000               0.000000000               0.000000000               0.000000000               0.000201563               0.006107738              -0.002084126              -0.000687881               0.002265185               0.001577304               0.000000000               0.000000000               0.000000000               0.000000000              -0.000698556               0.006966277              -0.001428990              -0.001132741               0.002699649               0.001566908               0.000000000               0.000000000               0.000000000               0.000000000              -0.000839513               0.007022587              -0.001037752              -0.001192638               0.002738385               0.001545747               0.000000000               0.000000000               0.000000000               0.000000000              -0.000795251               0.006872561              -0.000784069              -0.001157286               0.002676593               0.001519306               0.000000000               0.000000000               0.000000000               0.000000000              -0.000699552               0.006666297              -0.000606941              -0.001095616               0.002587282               0.001491666               0.000000000               0.000000000               0.000000000               0.000000000              -0.000589156               0.006447391              -0.000473394              -0.001026855               0.002491394               0.001464539               0.000000000               0.000000000               0.000000000               0.000000000              -0.000479485               0.006222141              -0.000365991              -0.000957572               0.002393217               0.001435645               0.000000000               0.000000000               0.000000000               0.000000000              -0.000377755               0.005996070              -0.000280920              -0.000891165               0.002295725               0.001404560               0.000000000               0.000000000               0.000000000               0.000000000              -0.000288085               0.005779745              -0.000211101              -0.000830498               0.002203395               0.001372897               0.000000000               0.000000000               0.000000000               0.000000000              -0.000211786               0.005583977              -0.000153112              -0.000777415               0.002120445               0.001343031               0.000000000               0.000000000               0.000000000               0.000000000              -0.000145679               0.005413329              -0.000106191              -0.000731294               0.002048190               0.001316896               0.000000000               0.000000000               0.000000000               0.000000000              -0.000091658               0.005260789              -0.000069425              -0.000691969               0.001984235               0.001292266               0.000000000               0.000000000               0.000000000               0.000000000              -0.000057686               0.005124307              -0.000043731              -0.000662169               0.001928808               0.001266639               0.000000000               0.000000000               0.000000000               0.000000000              -0.000043852               0.005015790              -0.000024542              -0.000643417               0.001886385               0.001242969               0.000000000               0.000000000               0.000000000               0.000000000              -0.000039151               0.004932926              -0.000009845              -0.000631296               0.001854724               0.001223428               0.000000000               0.000000000               0.000000000               0.000000000              -0.000037843               0.004890345              -0.000002481              -0.000625483               0.001838593               0.001213110               0.000000000               0.000000000               0.000000000               0.000000000               0.000840605               0.004019198              -0.002104902              -0.000187175               0.001402110               0.001214935               0.000000000               0.000000000               0.000000000               0.000000000              -0.000033684               0.005005217              -0.001984896              -0.000638284               0.001881149               0.001242866               0.000000000               0.000000000               0.000000000               0.000000000              -0.000808618               0.006142590              -0.001702484              -0.001071054               0.002404527               0.001333473               0.000000000               0.000000000               0.000000000               0.000000000              -0.000904518               0.006428752              -0.001367603              -0.001142786               0.002523824               0.001381038               0.000000000               0.000000000               0.000000000               0.000000000              -0.000831512               0.006433999              -0.001101303              -0.001116064               0.002516666               0.001400602               0.000000000               0.000000000               0.000000000               0.000000000              -0.000717778               0.006342581              -0.000891162              -0.001061987               0.002468168               0.001406181               0.000000000               0.000000000               0.000000000               0.000000000              -0.000598808               0.006201995              -0.000721401              -0.000999800               0.002400578               0.001400777               0.000000000               0.000000000               0.000000000               0.000000000              -0.000489128               0.006028134              -0.000582197              -0.000936937               0.002321670               0.001384733               0.000000000               0.000000000               0.000000000               0.000000000              -0.000388016               0.005845165              -0.000466210              -0.000876149               0.002240419               0.001364269               0.000000000               0.000000000               0.000000000               0.000000000              -0.000295694               0.005665619              -0.000365857              -0.000819086               0.002161549               0.001342464               0.000000000               0.000000000               0.000000000               0.000000000              -0.000220004               0.005491017              -0.000280956              -0.000768877               0.002086613               0.001317736               0.000000000               0.000000000               0.000000000               0.000000000              -0.000155936               0.005333492              -0.000212209              -0.000725161               0.002019533               0.001294372               0.000000000               0.000000000               0.000000000               0.000000000              -0.000104165               0.005190505              -0.000152337              -0.000687873               0.001959442               0.001271569               0.000000000               0.000000000               0.000000000               0.000000000              -0.000072425               0.005058415              -0.000097241              -0.000659460               0.001905941               0.001246482               0.000000000               0.000000000               0.000000000               0.000000000              -0.000065223               0.004947507              -0.000051336              -0.000642896               0.001863451               0.001220556               0.000000000               0.000000000               0.000000000               0.000000000              -0.000076607               0.004860868              -0.000020074              -0.000636335               0.001832385               0.001196050               0.000000000               0.000000000               0.000000000               0.000000000              -0.000084770               0.004822516              -0.000007951              -0.000634602               0.001819023               0.001184422               0.000000000               0.000000000               0.000000000               0.000000000               0.000122611               0.002738940              -0.001542493              -0.000296389               0.001011766               0.000715377               0.000000000               0.000000000               0.000000000               0.000000000              -0.000301068               0.003902704              -0.001824668              -0.000600739               0.001501134               0.000900395               0.000000000               0.000000000               0.000000000               0.000000000              -0.000837144               0.005201707              -0.001914524              -0.000964141               0.002055265               0.001091124               0.000000000               0.000000000               0.000000000               0.000000000              -0.000891719               0.005710891              -0.001683778              -0.001048254               0.002253029               0.001204775               0.000000000               0.000000000               0.000000000               0.000000000              -0.000809033               0.005898359              -0.001428831              -0.001040680               0.002312993               0.001272313               0.000000000               0.000000000               0.000000000               0.000000000              -0.000694864               0.005942609              -0.001200911              -0.001003398               0.002315316               0.001311918               0.000000000               0.000000000               0.000000000               0.000000000              -0.000579671               0.005902925              -0.001005170              -0.000955240               0.002286035               0.001330795               0.000000000               0.000000000               0.000000000               0.000000000              -0.000474102               0.005809773              -0.000837658              -0.000904008               0.002237907               0.001333900               0.000000000               0.000000000               0.000000000               0.000000000              -0.000381508               0.005691566              -0.000694940              -0.000854509               0.002182006               0.001327497               0.000000000               0.000000000               0.000000000               0.000000000              -0.000292555               0.005561086              -0.000570229              -0.000804842               0.002121957               0.001317115               0.000000000               0.000000000               0.000000000               0.000000000              -0.000211234               0.005423174              -0.000461978              -0.000757108               0.002060076               0.001302968               0.000000000               0.000000000               0.000000000               0.000000000              -0.000146882               0.005291665              -0.000369436              -0.000716537               0.002002716               0.001286179               0.000000000               0.000000000               0.000000000               0.000000000              -0.000098119               0.005169210              -0.000284098              -0.000682944               0.001950701               0.001267757               0.000000000               0.000000000               0.000000000               0.000000000              -0.000067419               0.005051487              -0.000198103              -0.000656716               0.001902717               0.001246001               0.000000000               0.000000000               0.000000000               0.000000000              -0.000062129               0.004946188              -0.000115220              -0.000641570               0.001862570               0.001221000               0.000000000               0.000000000               0.000000000               0.000000000              -0.000087390               0.004858435              -0.000048652              -0.000640074               0.001832820               0.001192746               0.000000000               0.000000000               0.000000000               0.000000000              -0.000116075               0.004813042              -0.000017440              -0.000645157               0.001819383               0.001174227               0.000000000               0.000000000               0.000000000               0.000000000              -0.000753402               0.001656188              -0.000987493              -0.000489549               0.000715239               0.000225691               0.000000000               0.000000000               0.000000000               0.000000000              -0.000647056               0.002853817              -0.001578801              -0.000599373               0.001151053               0.000551680               0.000000000               0.000000000               0.000000000               0.000000000              -0.000827140               0.004154364              -0.001976497              -0.000829472               0.001661264               0.000831792               0.000000000               0.000000000               0.000000000               0.000000000              -0.000795576               0.004826938              -0.001877636              -0.000901707               0.001909532               0.001007824               0.000000000               0.000000000               0.000000000               0.000000000              -0.000698314               0.005182751              -0.001669353              -0.000909710               0.002030803               0.001121092               0.000000000               0.000000000               0.000000000               0.000000000              -0.000588100               0.005370727              -0.001449827              -0.000891877               0.002087516               0.001195639               0.000000000               0.000000000               0.000000000               0.000000000              -0.000486719               0.005452313              -0.001247203              -0.000864057               0.002105438               0.001241381               0.000000000               0.000000000               0.000000000               0.000000000              -0.000394585               0.005460701              -0.001066941              -0.000830555               0.002097067               0.001266512               0.000000000               0.000000000               0.000000000               0.000000000              -0.000310005               0.005424335              -0.000911747              -0.000794292               0.002072857               0.001278565               0.000000000               0.000000000               0.000000000               0.000000000              -0.000229209               0.005361768              -0.000777587              -0.000756173               0.002039296               0.001283123               0.000000000               0.000000000               0.000000000               0.000000000              -0.000149692               0.005283947              -0.000654260              -0.000716626               0.002000174               0.001283547               0.000000000               0.000000000               0.000000000               0.000000000              -0.000084222               0.005199736              -0.000540956              -0.000681549               0.001960411               0.001278862               0.000000000               0.000000000               0.000000000               0.000000000              -0.000039019               0.005109753              -0.000435442              -0.000653350               0.001921017               0.001267668               0.000000000               0.000000000               0.000000000               0.000000000              -0.000012232               0.005017539              -0.000325255              -0.000631778               0.001883089               0.001251311               0.000000000               0.000000000               0.000000000               0.000000000              -0.000006775               0.004929567              -0.000208382              -0.000618735               0.001849418               0.001230683               0.000000000               0.000000000               0.000000000               0.000000000              -0.000036192               0.004850442              -0.000097525              -0.000619876               0.001823423               0.001203547               0.000000000               0.000000000               0.000000000               0.000000000              -0.000077081               0.004804830              -0.000040333              -0.000629508               0.001811430               0.001181922               0.000000000               0.000000000               0.000000000               0.000000000              -0.001720252               0.000826091              -0.000506835              -0.000748355               0.000524811              -0.000223543               0.000000000               0.000000000               0.000000000               0.000000000              -0.001055516               0.001914090              -0.001270604              -0.000635079               0.000849716               0.000214637               0.000000000               0.000000000               0.000000000               0.000000000              -0.000802819               0.003086266              -0.001868679              -0.000686840               0.001257691               0.000570851               0.000000000               0.000000000               0.000000000               0.000000000              -0.000637662               0.003845916              -0.001892665              -0.000719862               0.001521912               0.000802050               0.000000000               0.000000000               0.000000000               0.000000000              -0.000511394               0.004335096              -0.001750958              -0.000733659               0.001689570               0.000955911               0.000000000               0.000000000               0.000000000               0.000000000              -0.000404149               0.004655076              -0.001564628              -0.000733439               0.001796156               0.001062716               0.000000000               0.000000000               0.000000000               0.000000000              -0.000315982               0.004859746              -0.001377167              -0.000725960               0.001861886               0.001135925               0.000000000               0.000000000               0.000000000               0.000000000              -0.000237711               0.004976477              -0.001206590              -0.000711200               0.001895875               0.001184675               0.000000000               0.000000000               0.000000000               0.000000000              -0.000160600               0.005034088              -0.001058104              -0.000689485               0.001907841               0.001218356               0.000000000               0.000000000               0.000000000               0.000000000              -0.000087339               0.005055523              -0.000927356              -0.000664691               0.001906721               0.001242030               0.000000000               0.000000000               0.000000000               0.000000000              -0.000015548               0.005049832              -0.000803441              -0.000637058               0.001895613               0.001258555               0.000000000               0.000000000               0.000000000               0.000000000               0.000052021               0.005024938              -0.000683305              -0.000608608               0.001877832               0.001269224               0.000000000               0.000000000               0.000000000               0.000000000               0.000104635               0.004986406              -0.000565771              -0.000584061               0.001856806               0.001272744               0.000000000               0.000000000               0.000000000               0.000000000               0.000137397               0.004936256              -0.000442983              -0.000565507               0.001833904               0.001268398               0.000000000               0.000000000               0.000000000               0.000000000               0.000150280               0.004877689              -0.000305498              -0.000553355               0.001810332               0.001256977               0.000000000               0.000000000               0.000000000               0.000000000               0.000133635               0.004826545              -0.000154573              -0.000553204               0.001793233               0.001240030               0.000000000               0.000000000               0.000000000               0.000000000               0.000098631               0.004795782              -0.000072245              -0.000562485               0.001786073               0.001223588               0.000000000               0.000000000               0.000000000               0.000000000              -0.002673124               0.000251289              -0.000160792              -0.001033831               0.000428370              -0.000605461               0.000000000               0.000000000               0.000000000               0.000000000              -0.001486474               0.001139379              -0.000933202              -0.000699849               0.000613071              -0.000086778               0.000000000               0.000000000               0.000000000               0.000000000              -0.000781632               0.002096907              -0.001587163              -0.000555225               0.000884036               0.000328811               0.000000000               0.000000000               0.000000000               0.000000000              -0.000450546               0.002870538              -0.001693909              -0.000527772               0.001132759               0.000604987               0.000000000               0.000000000               0.000000000               0.000000000              -0.000274971               0.003448834              -0.001616985              -0.000534218               0.001327672               0.000793454               0.000000000               0.000000000               0.000000000               0.000000000              -0.000163871               0.003871380              -0.001479054              -0.000545374               0.001472238               0.000926864               0.000000000               0.000000000               0.000000000               0.000000000              -0.000081608               0.004178778              -0.001327691              -0.000552950               0.001577228               0.001024279               0.000000000               0.000000000               0.000000000               0.000000000              -0.000014794               0.004396985              -0.001186575              -0.000555170               0.001650703               0.001095533               0.000000000               0.000000000               0.000000000               0.000000000               0.000050012               0.004552277              -0.001060249              -0.000550279               0.001700837               0.001150557               0.000000000               0.000000000               0.000000000               0.000000000               0.000114662               0.004661688              -0.000947821              -0.000539712               0.001733784               0.001194072               0.000000000               0.000000000               0.000000000               0.000000000               0.000181281               0.004735933              -0.000842118              -0.000524010               0.001753299               0.001229288               0.000000000               0.000000000               0.000000000               0.000000000               0.000251006               0.004781799              -0.000735626              -0.000503597               0.001761782               0.001258186               0.000000000               0.000000000               0.000000000               0.000000000               0.000316814               0.004803912              -0.000624688              -0.000481683               0.001761849               0.001280166               0.000000000               0.000000000               0.000000000               0.000000000               0.000372979               0.004808908              -0.000504423              -0.000461246               0.001756702               0.001295456               0.000000000               0.000000000               0.000000000               0.000000000               0.000418528               0.004802353              -0.000365302              -0.000443345               0.001748550               0.001305205               0.000000000               0.000000000               0.000000000               0.000000000               0.000449308               0.004795749              -0.000195592              -0.000430977               0.001742226               0.001311249               0.000000000               0.000000000               0.000000000               0.000000000               0.000453671               0.004789013              -0.000100158              -0.000428499               0.001739155               0.001310656               0.000000000               0.000000000               0.000000000               0.000000000              -0.003485384              -0.000104970               0.000021178              -0.001293897               0.000396306              -0.000897590               0.000000000               0.000000000               0.000000000               0.000000000              -0.001872049               0.000567459              -0.000600837              -0.000772950               0.000446800              -0.000326150               0.000000000               0.000000000               0.000000000               0.000000000              -0.000770287               0.001293660              -0.001151272              -0.000450565               0.000581403               0.000130838               0.000000000               0.000000000               0.000000000               0.000000000              -0.000273866               0.002029548              -0.001278348              -0.000356394               0.000795306               0.000438913               0.000000000               0.000000000               0.000000000               0.000000000              -0.000034489               0.002650931              -0.001248369              -0.000344300               0.000998401               0.000654101               0.000000000               0.000000000               0.000000000               0.000000000               0.000092021               0.003143691              -0.001161753              -0.000358453               0.001167371               0.000808917               0.000000000               0.000000000               0.000000000               0.000000000               0.000170933               0.003527640              -0.001058052              -0.000376855               0.001301486               0.000924631               0.000000000               0.000000000               0.000000000               0.000000000               0.000226480               0.003828332              -0.000957831              -0.000393611               0.001407302               0.001013690               0.000000000               0.000000000               0.000000000               0.000000000               0.000276197               0.004070094              -0.000868354              -0.000405187               0.001491747               0.001086559               0.000000000               0.000000000               0.000000000               0.000000000               0.000330276               0.004265376              -0.000788415              -0.000409318               0.001558217               0.001148899               0.000000000               0.000000000               0.000000000               0.000000000               0.000389308               0.004417026              -0.000714108              -0.000406137               0.001607706               0.001201569               0.000000000               0.000000000               0.000000000               0.000000000               0.000458501               0.004530656              -0.000637201              -0.000394393               0.001641668               0.001247275               0.000000000               0.000000000               0.000000000               0.000000000               0.000536637               0.004611599              -0.000552624              -0.000375210               0.001662254               0.001287044               0.000000000               0.000000000               0.000000000               0.000000000               0.000628178               0.004673059              -0.000458727              -0.000348565               0.001673859               0.001325294               0.000000000               0.000000000               0.000000000               0.000000000               0.000734881               0.004723475              -0.000345878              -0.000314853               0.001679427               0.001364574               0.000000000               0.000000000               0.000000000               0.000000000               0.000855769               0.004761677              -0.000194240              -0.000274296               0.001678642               0.001404346               0.000000000               0.000000000               0.000000000               0.000000000               0.000940341               0.004783222              -0.000107703              -0.000245274               0.001676150               0.001430875               0.000000000               0.000000000               0.000000000               0.000000000              -0.004035118              -0.000290441               0.000054654              -0.001476863               0.000395471              -0.001081392               0.000000000               0.000000000               0.000000000               0.000000000              -0.002139759               0.000219173              -0.000291458              -0.000829805               0.000349657              -0.000480148               0.000000000               0.000000000               0.000000000               0.000000000              -0.000767265               0.000769172              -0.000604255              -0.000383870               0.000384344               0.000000474               0.000000000               0.000000000               0.000000000               0.000000000              -0.000147443               0.001457046              -0.000687788              -0.000237422               0.000564818               0.000327396               0.000000000               0.000000000               0.000000000               0.000000000               0.000145637               0.002087932              -0.000681886              -0.000206377               0.000764763               0.000558385               0.000000000               0.000000000               0.000000000               0.000000000               0.000288269               0.002620147              -0.000640436              -0.000219418               0.000946513               0.000727095               0.000000000               0.000000000               0.000000000               0.000000000               0.000363174               0.003055582              -0.000587077              -0.000245757               0.001100436               0.000854679               0.000000000               0.000000000               0.000000000               0.000000000               0.000412045               0.003414197              -0.000535746              -0.000272257               0.001228807               0.000956549               0.000000000               0.000000000               0.000000000               0.000000000               0.000453215               0.003717082              -0.000490549              -0.000294679               0.001337241               0.001042562               0.000000000               0.000000000               0.000000000               0.000000000               0.000496225               0.003970739              -0.000449528              -0.000310257               0.001426985               0.001116728               0.000000000               0.000000000               0.000000000               0.000000000               0.000546822               0.004176926              -0.000412240              -0.000317057               0.001497980               0.001180924               0.000000000               0.000000000               0.000000000               0.000000000               0.000612548               0.004340606              -0.000372248              -0.000312869               0.001551144               0.001238275               0.000000000               0.000000000               0.000000000               0.000000000               0.000703019               0.004468937              -0.000327230              -0.000294984               0.001587959               0.001292974               0.000000000               0.000000000               0.000000000               0.000000000               0.000828043               0.004575157              -0.000277683              -0.000261378               0.001612163               0.001350785               0.000000000               0.000000000               0.000000000               0.000000000               0.000994520               0.004665590              -0.000216047              -0.000210253               0.001625266               0.001415012               0.000000000               0.000000000               0.000000000               0.000000000               0.001211838               0.004735408              -0.000125354              -0.000137487               0.001624282               0.001486796               0.000000000               0.000000000               0.000000000               0.000000000               0.001390868               0.004783193              -0.000072597              -0.000076324               0.001619823               0.001543499               0.000000000               0.000000000               0.000000000               0.000000000               0.000000000               0.000000000               0.000000000               0.000000000               0.000000000               0.000000000               0.000000000               0.000000000               0.000000000               0.000000000               0.000000000               0.000000000               0.000000000               0.000000000               0.000000000               0.000000000               0.000000000               0.000000000               0.000000000               0.000000000               0.000000000               0.000000000               0.000000000               0.000000000               0.000000000               0.000000000               0.000000000               0.000000000               0.000000000               0.000000000               0.000000000               0.000000000               0.000000000               0.000000000               0.000000000               0.000000000               0.000000000               0.000000000               0.000000000               0.000000000               0.000000000               0.000000000               0.000000000               0.000000000               0.000000000               0.000000000               0.000000000               0.000000000               0.000000000               0.000000000               0.000000000               0.000000000               0.000000000               0.000000000               0.000000000               0.000000000               0.000000000               0.000000000               0.000000000               0.000000000               0.000000000               0.000000000               0.000000000               0.000000000               0.000000000               0.000000000               0.000000000               0.000000000               0.000000000               0.000000000               0.000000000               0.000000000               0.000000000               0.000000000               0.000000000               0.000000000               0.000000000               0.000000000               0.000000000               0.000000000               0.000000000               0.000000000               0.000000000               0.000000000               0.000000000               0.000000000               0.000000000               0.000000000               0.000000000               0.000000000               0.000000000               0.000000000               0.000000000               0.000000000               0.000000000               0.000000000               0.000000000               0.000000000               0.000000000               0.000000000               0.000000000               0.000000000               0.000000000               0.000000000               0.000000000               0.000000000               0.000000000               0.000000000               0.000000000               0.000000000               0.000000000               0.000000000               0.000000000               0.000000000               0.000000000               0.000000000               0.000000000               0.000000000               0.000000000               0.000000000               0.000000000               0.000000000               0.000000000               0.000000000               0.000000000               0.000000000               0.000000000               0.000000000               0.000000000               0.000000000               0.000000000               0.000000000               0.000000000               0.000000000               0.000000000               0.000000000               0.000000000               0.000000000               0.000000000               0.000000000               0.000000000               0.000000000               0.000000000               0.000000000               0.000000000               0.000000000               0.000000000               0.000000000               0.000000000               0.000000000               0.000000000               0.000000000               0.000000000               0.000000000               0.000000000               0.000000000               0.000000000               0.000000000               0.000000000               0.000000000               0.000000000               0.000000000               0.000000000               0.000000000               0.000000000               0.000000000               0.000000000               0.000000000               0.000000000               0.000000000               0.000000000               0.000000000               0.000000000               0.000000000               0.000000000               0.000000000               0.000000000               0.000000000               0.000000000               0.000000000               0.000000000               0.000000000               0.000000000               0.000000000               0.000000000               0.000000000               0.000000000               0.000000000               0.000000000               0.000000000               0.000000000               0.000000000               0.000000000               0.000000000               0.000000000               0.000000000               0.000000000               0.000000000               0.000000000               0.000000000               0.000000000               0.000000000               0.000000000               0.000000000               0.000000000               0.000000000               0.000000000               0.000000000               0.000000000               0.000000000               0.000000000               0.000000000               0.000000000               0.000000000               0.000000000               0.000000000               0.000000000               0.000000000               0.000000000               0.000000000               0.000000000               0.000000000               0.000000000               0.000000000               0.000000000               0.000000000               0.000000000               0.000000000               0.000000000               0.000000000               0.000000000               0.000000000               0.000000000               0.000000000               0.000000000               0.000000000               0.000000000               0.000000000               0.000000000               0.000000000               0.000000000               0.000000000               0.000000000               0.000000000               0.000000000               0.000000000               0.000000000               0.000000000               0.000000000               0.000000000               0.000000000               0.000000000               0.000000000               0.000000000               0.000000000               0.000000000               0.000000000               0.000000000               0.000000000               0.000000000               0.000000000               0.000000000               0.000000000               0.000000000               0.000000000               0.000000000               0.000000000               0.000000000               0.000000000               0.000000000               0.000000000               0.000000000               0.000000000               0.000000000               0.000000000               0.000000000               0.000000000               0.000000000               0.000000000               0.000000000               0.000000000               0.000000000               0.000000000               0.000000000               0.000000000               0.000000000               0.000000000               0.000000000               0.000000000               0.000000000               0.000000000               0.000000000               0.000000000               0.000000000               0.000000000               0.000000000               0.000000000               0.000000000               0.000000000               0.000000000               0.000000000               0.000000000               0.000000000               0.000000000               0.000000000               0.000000000               0.000000000               0.000000000               0.000000000               0.000000000               0.000000000               0.000000000               0.000000000               0.000000000               0.000000000               0.000000000               0.000000000               0.000000000               0.000000000               0.000000000               0.000000000               0.000000000               0.000000000               0.000000000               0.000000000               0.000000000               0.000000000               0.000000000               0.000000000               0.000000000               0.000000000               0.000000000               0.000000000               0.000000000               0.000000000               0.000000000               0.000000000               0.000000000               0.000000000               0.000000000               0.001544723               0.016186724               0.001179286              -0.001444066               0.005876876               0.004432810               0.000000000               0.000000000               0.000000000               0.000000000               0.001535541               0.013029755               0.000668961              -0.001052889               0.004694171               0.003641282               0.000000000               0.000000000               0.000000000               0.000000000               0.002001418               0.010498752               0.000154509              -0.000561811               0.003686819               0.003125008               0.000000000               0.000000000               0.000000000               0.000000000               0.001966159               0.009086172              -0.000076309              -0.000398461               0.003161514               0.002763053               0.000000000               0.000000000               0.000000000               0.000000000               0.001768724               0.008233836              -0.000182951              -0.000365957               0.002866570               0.002500613               0.000000000               0.000000000               0.000000000               0.000000000               0.001524496               0.007681883              -0.000226171              -0.000388548               0.002690118               0.002301570               0.000000000               0.000000000               0.000000000               0.000000000               0.001279403               0.007298304              -0.000238929              -0.000432511               0.002576914               0.002144403               0.000000000               0.000000000               0.000000000               0.000000000               0.001050558               0.007014796              -0.000239098              -0.000482889               0.002499205               0.002016316               0.000000000               0.000000000               0.000000000               0.000000000               0.000844093               0.006792906              -0.000231835              -0.000532577               0.002441805               0.001909228               0.000000000               0.000000000               0.000000000               0.000000000               0.000659377               0.006607563              -0.000220680              -0.000578677               0.002395392               0.001816714               0.000000000               0.000000000               0.000000000               0.000000000               0.000498630               0.006442239              -0.000208422              -0.000618292               0.002353489               0.001735197               0.000000000               0.000000000               0.000000000               0.000000000               0.000363116               0.006285512              -0.000192459              -0.000649519               0.002311656               0.001662137               0.000000000               0.000000000               0.000000000               0.000000000               0.000247332               0.006126730              -0.000171003              -0.000673090               0.002266586               0.001593496               0.000000000               0.000000000               0.000000000               0.000000000               0.000152034               0.005959961              -0.000147593              -0.000687981               0.002215961               0.001527980               0.000000000               0.000000000               0.000000000               0.000000000               0.000080147               0.005781284              -0.000117855              -0.000692604               0.002157943               0.001465340               0.000000000               0.000000000               0.000000000               0.000000000               0.000032779               0.005583449              -0.000069719              -0.000685637               0.002089677               0.001404040               0.000000000               0.000000000               0.000000000               0.000000000              -0.000000049               0.005434685              -0.000043112              -0.000679352               0.002037994               0.001358642               0.000000000               0.000000000               0.000000000               0.000000000               0.001729367               0.015285871               0.002215227              -0.001262219               0.005515979               0.004253760               0.000000000               0.000000000               0.000000000               0.000000000               0.001512718               0.012427880               0.001260502              -0.000986214               0.004471323               0.003485109               0.000000000               0.000000000               0.000000000               0.000000000               0.001756776               0.010215477               0.000305441              -0.000618142               0.003611172               0.002993030               0.000000000               0.000000000               0.000000000               0.000000000               0.001638658               0.008969483              -0.000109208              -0.000506687               0.003158694               0.002652006               0.000000000               0.000000000               0.000000000               0.000000000               0.001422596               0.008197512              -0.000294840              -0.000491214               0.002896215               0.002405000               0.000000000               0.000000000               0.000000000               0.000000000               0.001187790               0.007681961              -0.000369594              -0.000514823               0.002732236               0.002217413               0.000000000               0.000000000               0.000000000               0.000000000               0.000967790               0.007312486              -0.000391849              -0.000551138               0.002621184               0.002070045               0.000000000               0.000000000               0.000000000               0.000000000               0.000773946               0.007030929              -0.000392474              -0.000588635               0.002539831               0.001951196               0.000000000               0.000000000               0.000000000               0.000000000               0.000603179               0.006807491              -0.000381291              -0.000624743               0.002477388               0.001852646               0.000000000               0.000000000               0.000000000               0.000000000               0.000451017               0.006621194              -0.000361165              -0.000658516               0.002426548               0.001768032               0.000000000               0.000000000               0.000000000               0.000000000               0.000322324               0.006453158              -0.000334708              -0.000685772               0.002379622               0.001693850               0.000000000               0.000000000               0.000000000               0.000000000               0.000218089               0.006292505              -0.000303580              -0.000704778               0.002332407               0.001627629               0.000000000               0.000000000               0.000000000               0.000000000               0.000135888               0.006139252              -0.000266400              -0.000716447               0.002285213               0.001568766               0.000000000               0.000000000               0.000000000               0.000000000               0.000073604               0.005988168              -0.000223681              -0.000720918               0.002236342               0.001515424               0.000000000               0.000000000               0.000000000               0.000000000               0.000029603               0.005834732              -0.000171420              -0.000718239               0.002184304               0.001466065               0.000000000               0.000000000               0.000000000               0.000000000               0.000007708               0.005681860              -0.000097496              -0.000707340               0.002129714               0.001422374               0.000000000               0.000000000               0.000000000               0.000000000              -0.000008064               0.005578129              -0.000058310              -0.000700288               0.002092787               0.001392499               0.000000000               0.000000000               0.000000000               0.000000000               0.001957931               0.013916794               0.002992338              -0.001005375               0.004974009               0.003968635               0.000000000               0.000000000               0.000000000               0.000000000               0.001450007               0.011527266               0.001717482              -0.000897154               0.004141435               0.003244280               0.000000000               0.000000000               0.000000000               0.000000000               0.001383379               0.009790171               0.000455322              -0.000705003               0.003498358               0.002793356               0.000000000               0.000000000               0.000000000               0.000000000               0.001160879               0.008777449              -0.000070843              -0.000661850               0.003146404               0.002484554               0.000000000               0.000000000               0.000000000               0.000000000               0.000930739               0.008120332              -0.000300491              -0.000666013               0.002928755               0.002262742               0.000000000               0.000000000               0.000000000               0.000000000               0.000724533               0.007655580              -0.000393941              -0.000685246               0.002780250               0.002095004               0.000000000               0.000000000               0.000000000               0.000000000               0.000551306               0.007306044              -0.000421931              -0.000706514               0.002670828               0.001964314               0.000000000               0.000000000               0.000000000               0.000000000               0.000405590               0.007028386              -0.000424145              -0.000726450               0.002584922               0.001858472               0.000000000               0.000000000               0.000000000               0.000000000               0.000283220               0.006802250              -0.000414069              -0.000744072               0.002515418               0.001771346               0.000000000               0.000000000               0.000000000               0.000000000               0.000181786               0.006607228              -0.000391907              -0.000757732               0.002454964               0.001697233               0.000000000               0.000000000               0.000000000               0.000000000               0.000100427               0.006430112              -0.000359175              -0.000766102               0.002398717               0.001632615               0.000000000               0.000000000               0.000000000               0.000000000               0.000041051               0.006267206              -0.000323745              -0.000768005               0.002345049               0.001577044               0.000000000               0.000000000               0.000000000               0.000000000               0.000000604               0.006120144              -0.000284392              -0.000764789               0.002294957               0.001530168               0.000000000               0.000000000               0.000000000               0.000000000              -0.000022415               0.005986900              -0.000235306              -0.000756766               0.002247869               0.001491102               0.000000000               0.000000000               0.000000000               0.000000000              -0.000026805               0.005864399              -0.000175835              -0.000743100               0.002202480               0.001459380               0.000000000               0.000000000               0.000000000               0.000000000              -0.000015970               0.005755394              -0.000097809              -0.000725411               0.002160249               0.001434838               0.000000000               0.000000000               0.000000000               0.000000000              -0.000014885               0.005690045              -0.000057096              -0.000716836               0.002135608               0.001418772               0.000000000               0.000000000               0.000000000               0.000000000               0.002135747               0.012239480               0.003451007              -0.000729031               0.004322795               0.003593764               0.000000000               0.000000000               0.000000000               0.000000000               0.001318855               0.010440681               0.002016102              -0.000810514               0.003750363               0.002939849               0.000000000               0.000000000               0.000000000               0.000000000               0.000921520               0.009274375               0.000608438              -0.000813725               0.003362669               0.002548944               0.000000000               0.000000000               0.000000000               0.000000000               0.000617310               0.008520749               0.000044969              -0.000833600               0.003118088               0.002284488               0.000000000               0.000000000               0.000000000               0.000000000               0.000397940               0.007985224              -0.000197049              -0.000848923               0.002944689               0.002095766               0.000000000               0.000000000               0.000000000               0.000000000               0.000238851               0.007575770              -0.000299050              -0.000857400               0.002811031               0.001953631               0.000000000               0.000000000               0.000000000               0.000000000               0.000123558               0.007250528              -0.000334506              -0.000859980               0.002703478               0.001843499               0.000000000               0.000000000               0.000000000               0.000000000               0.000038769               0.006983328              -0.000344068              -0.000858376               0.002613878               0.001755502               0.000000000               0.000000000               0.000000000               0.000000000              -0.000025823               0.006752059              -0.000342350              -0.000853689               0.002535227               0.001681538               0.000000000               0.000000000               0.000000000               0.000000000              -0.000069959               0.006545707              -0.000326853              -0.000844446               0.002463363               0.001618917               0.000000000               0.000000000               0.000000000               0.000000000              -0.000096315               0.006358743              -0.000301047              -0.000830959               0.002396546               0.001565587               0.000000000               0.000000000               0.000000000               0.000000000              -0.000105398               0.006192591              -0.000273916              -0.000813596               0.002335375               0.001521779               0.000000000               0.000000000               0.000000000               0.000000000              -0.000098690               0.006048289              -0.000244616              -0.000793043               0.002280424               0.001487381               0.000000000               0.000000000               0.000000000               0.000000000              -0.000080113               0.005924822              -0.000201770              -0.000770643               0.002231802               0.001461159               0.000000000               0.000000000               0.000000000               0.000000000              -0.000052652               0.005818156              -0.000145743              -0.000747012               0.002188370               0.001441358               0.000000000               0.000000000               0.000000000               0.000000000              -0.000023412               0.005736780              -0.000078661              -0.000725875               0.002154200               0.001428324               0.000000000               0.000000000               0.000000000               0.000000000              -0.000013616               0.005697699              -0.000044814              -0.000717317               0.002138319               0.001421003               0.000000000               0.000000000               0.000000000               0.000000000               0.002182036               0.010418622               0.003591897              -0.000484067               0.003634194               0.003150127               0.000000000               0.000000000               0.000000000               0.000000000               0.001109357               0.009279282               0.002166689              -0.000743901               0.003341030               0.002597129               0.000000000               0.000000000               0.000000000               0.000000000               0.000428799               0.008710100               0.000775671              -0.000927961               0.003212658               0.002284697               0.000000000               0.000000000               0.000000000               0.000000000               0.000092439               0.008203852               0.000236074              -0.000990815               0.003064862               0.002074047               0.000000000               0.000000000               0.000000000               0.000000000              -0.000084143               0.007779070              -0.000001177              -0.001003935               0.002927642               0.001923707               0.000000000               0.000000000               0.000000000               0.000000000              -0.000177707               0.007424465              -0.000111563              -0.000994696               0.002806362               0.001811666               0.000000000               0.000000000               0.000000000               0.000000000              -0.000226069               0.007124470              -0.000162479              -0.000975332               0.002699910               0.001724578               0.000000000               0.000000000               0.000000000               0.000000000              -0.000249749               0.006864296              -0.000186873              -0.000951690               0.002605306               0.001653616               0.000000000               0.000000000               0.000000000               0.000000000              -0.000257306               0.006630414              -0.000199117              -0.000925289               0.002518546               0.001593256               0.000000000               0.000000000               0.000000000               0.000000000              -0.000245601               0.006417551              -0.000199306              -0.000894292               0.002437260               0.001542968               0.000000000               0.000000000               0.000000000               0.000000000              -0.000218934               0.006225066              -0.000187785              -0.000860231               0.002361745               0.001501514               0.000000000               0.000000000               0.000000000               0.000000000              -0.000183599               0.006052777              -0.000174466              -0.000825445               0.002292720               0.001467276               0.000000000               0.000000000               0.000000000               0.000000000              -0.000142299               0.005901427              -0.000158409              -0.000791039               0.002230802               0.001439763               0.000000000               0.000000000               0.000000000               0.000000000              -0.000097240               0.005770664              -0.000126406              -0.000757796               0.002176134               0.001418338               0.000000000               0.000000000               0.000000000               0.000000000              -0.000052761               0.005664569              -0.000084286              -0.000727855               0.002130789               0.001402934               0.000000000               0.000000000               0.000000000               0.000000000              -0.000019682               0.005588487              -0.000042000              -0.000705940               0.002098124               0.001392184               0.000000000               0.000000000               0.000000000               0.000000000              -0.000010722               0.005552224              -0.000022917              -0.000698047               0.002083405               0.001385358               0.000000000               0.000000000               0.000000000               0.000000000               0.002053476               0.008599115               0.003459314              -0.000304839               0.002967955               0.002663116               0.000000000               0.000000000               0.000000000               0.000000000               0.000832516               0.008131935               0.002204420              -0.000704298               0.002945383               0.002241085               0.000000000               0.000000000               0.000000000               0.000000000              -0.000036893               0.008122683               0.000968301              -0.001029168               0.003050590               0.002021422               0.000000000               0.000000000               0.000000000               0.000000000              -0.000344399               0.007832275               0.000482772              -0.001108181               0.002980126               0.001871945               0.000000000               0.000000000               0.000000000               0.000000000              -0.000450226               0.007505927               0.000249223              -0.001107073               0.002870975               0.001763902               0.000000000               0.000000000               0.000000000               0.000000000              -0.000472467               0.007199785               0.000123297              -0.001077145               0.002758953               0.001681807               0.000000000               0.000000000               0.000000000               0.000000000              -0.000456256               0.006920623               0.000051530              -0.001036171               0.002652242               0.001616070               0.000000000               0.000000000               0.000000000               0.000000000              -0.000422032               0.006668816               0.000005226              -0.000991861               0.002553537               0.001561675               0.000000000               0.000000000               0.000000000               0.000000000              -0.000376991               0.006435651              -0.000028290              -0.000945826               0.002460471               0.001514645               0.000000000               0.000000000               0.000000000               0.000000000              -0.000323082               0.006217781              -0.000048738              -0.000898376               0.002372032               0.001473655               0.000000000               0.000000000               0.000000000               0.000000000              -0.000264311               0.006018042              -0.000056586              -0.000851370               0.002289784               0.001438414               0.000000000               0.000000000               0.000000000               0.000000000              -0.000206194               0.005839975              -0.000059962              -0.000807318               0.002215745               0.001408427               0.000000000               0.000000000               0.000000000               0.000000000              -0.000147176               0.005684601              -0.000059106              -0.000765764               0.002150103               0.001384339               0.000000000               0.000000000               0.000000000               0.000000000              -0.000089049               0.005550660              -0.000045904              -0.000727224               0.002092610               0.001365385               0.000000000               0.000000000               0.000000000               0.000000000              -0.000041985               0.005442153              -0.000027254              -0.000696012               0.002046037               0.001350025               0.000000000               0.000000000               0.000000000               0.000000000              -0.000015175               0.005357080              -0.000012379              -0.000675324               0.002010784               0.001335460               0.000000000               0.000000000               0.000000000               0.000000000              -0.000013417               0.005309056              -0.000009827              -0.000668662               0.001992555               0.001323893               0.000000000               0.000000000               0.000000000               0.000000000               0.001755384               0.006890289               0.003114234              -0.000203021               0.002364412               0.002161392               0.000000000               0.000000000               0.000000000               0.000000000               0.000507361               0.007064466               0.002162629              -0.000692798               0.002585730               0.001892933               0.000000000               0.000000000               0.000000000               0.000000000              -0.000426838               0.007531459               0.001182158              -0.001101494               0.002877626               0.001776131               0.000000000               0.000000000               0.000000000               0.000000000              -0.000655962               0.007415796               0.000750340              -0.001172958               0.002862893               0.001689936               0.000000000               0.000000000               0.000000000               0.000000000              -0.000679367               0.007173730               0.000510817              -0.001151476               0.002775045               0.001623569               0.000000000               0.000000000               0.000000000               0.000000000              -0.000636876               0.006910890               0.000363132              -0.001102687               0.002671169               0.001568482               0.000000000               0.000000000               0.000000000               0.000000000              -0.000565160               0.006656184               0.000263145              -0.001043955               0.002566691               0.001522736               0.000000000               0.000000000               0.000000000               0.000000000              -0.000482910               0.006416730               0.000188023              -0.000983180               0.002466615               0.001483435               0.000000000               0.000000000               0.000000000               0.000000000              -0.000402536               0.006185245               0.000129664              -0.000924104               0.002369763               0.001445658               0.000000000               0.000000000               0.000000000               0.000000000              -0.000324991               0.005964629               0.000085691              -0.000867448               0.002277339               0.001409891               0.000000000               0.000000000               0.000000000               0.000000000              -0.000251582               0.005763858               0.000054349              -0.000814824               0.002192875               0.001378051               0.000000000               0.000000000               0.000000000               0.000000000              -0.000184348               0.005589159               0.000028822              -0.000767773               0.002118959               0.001351186               0.000000000               0.000000000               0.000000000               0.000000000              -0.000124203               0.005437193               0.000010646              -0.000726223               0.002054454               0.001328231               0.000000000               0.000000000               0.000000000               0.000000000              -0.000073385               0.005306200               0.000005589              -0.000690792               0.001998980               0.001308187               0.000000000               0.000000000               0.000000000               0.000000000              -0.000039444               0.005197611               0.000004435              -0.000664491               0.001954017               0.001289525               0.000000000               0.000000000               0.000000000               0.000000000              -0.000020299               0.005111354               0.000001506              -0.000646530               0.001919277               0.001272748               0.000000000               0.000000000               0.000000000               0.000000000              -0.000020021               0.005060327              -0.000004762              -0.000640047               0.001900108               0.001260061               0.000000000               0.000000000               0.000000000               0.000000000               0.001355917               0.005415705               0.002637416              -0.000168497               0.001861382               0.001692885               0.000000000               0.000000000               0.000000000               0.000000000               0.000201563               0.006107738               0.002084126              -0.000687881               0.002265185               0.001577304               0.000000000               0.000000000               0.000000000               0.000000000              -0.000698556               0.006966277               0.001428990              -0.001132741               0.002699649               0.001566908               0.000000000               0.000000000               0.000000000               0.000000000              -0.000839513               0.007022587               0.001037752              -0.001192638               0.002738385               0.001545747               0.000000000               0.000000000               0.000000000               0.000000000              -0.000795251               0.006872561               0.000784069              -0.001157286               0.002676593               0.001519306               0.000000000               0.000000000               0.000000000               0.000000000              -0.000699552               0.006666297               0.000606941              -0.001095616               0.002587282               0.001491666               0.000000000               0.000000000               0.000000000               0.000000000              -0.000589156               0.006447391               0.000473394              -0.001026855               0.002491394               0.001464539               0.000000000               0.000000000               0.000000000               0.000000000              -0.000479485               0.006222141               0.000365991              -0.000957572               0.002393217               0.001435645               0.000000000               0.000000000               0.000000000               0.000000000              -0.000377755               0.005996070               0.000280920              -0.000891165               0.002295725               0.001404560               0.000000000               0.000000000               0.000000000               0.000000000              -0.000288085               0.005779745               0.000211101              -0.000830498               0.002203395               0.001372897               0.000000000               0.000000000               0.000000000               0.000000000              -0.000211786               0.005583977               0.000153112              -0.000777415               0.002120445               0.001343031               0.000000000               0.000000000               0.000000000               0.000000000              -0.000145679               0.005413329               0.000106191              -0.000731294               0.002048190               0.001316896               0.000000000               0.000000000               0.000000000               0.000000000              -0.000091658               0.005260789               0.000069425              -0.000691969               0.001984235               0.001292266               0.000000000               0.000000000               0.000000000               0.000000000              -0.000057686               0.005124307               0.000043731              -0.000662169               0.001928808               0.001266639               0.000000000               0.000000000               0.000000000               0.000000000              -0.000043852               0.005015790               0.000024542              -0.000643417               0.001886385               0.001242969               0.000000000               0.000000000               0.000000000               0.000000000              -0.000039151               0.004932926               0.000009845              -0.000631296               0.001854724               0.001223428               0.000000000               0.000000000               0.000000000               0.000000000              -0.000037843               0.004890345               0.000002481              -0.000625483               0.001838593               0.001213110               0.000000000               0.000000000               0.000000000               0.000000000               0.000840605               0.004019198               0.002104902              -0.000187175               0.001402110               0.001214935               0.000000000               0.000000000               0.000000000               0.000000000              -0.000033684               0.005005217               0.001984896              -0.000638284               0.001881149               0.001242866               0.000000000               0.000000000               0.000000000               0.000000000              -0.000808618               0.006142590               0.001702484              -0.001071054               0.002404527               0.001333473               0.000000000               0.000000000               0.000000000               0.000000000              -0.000904518               0.006428752               0.001367603              -0.001142786               0.002523824               0.001381038               0.000000000               0.000000000               0.000000000               0.000000000              -0.000831512               0.006433999               0.001101303              -0.001116064               0.002516666               0.001400602               0.000000000               0.000000000               0.000000000               0.000000000              -0.000717778               0.006342581               0.000891162              -0.001061987               0.002468168               0.001406181               0.000000000               0.000000000               0.000000000               0.000000000              -0.000598808               0.006201995               0.000721401              -0.000999800               0.002400578               0.001400777               0.000000000               0.000000000               0.000000000               0.000000000              -0.000489128               0.006028134               0.000582197              -0.000936937               0.002321670               0.001384733               0.000000000               0.000000000               0.000000000               0.000000000              -0.000388016               0.005845165               0.000466210              -0.000876149               0.002240419               0.001364269               0.000000000               0.000000000               0.000000000               0.000000000              -0.000295694               0.005665619               0.000365857              -0.000819086               0.002161549               0.001342464               0.000000000               0.000000000               0.000000000               0.000000000              -0.000220004               0.005491017               0.000280956              -0.000768877               0.002086613               0.001317736               0.000000000               0.000000000               0.000000000               0.000000000              -0.000155936               0.005333492               0.000212209              -0.000725161               0.002019533               0.001294372               0.000000000               0.000000000               0.000000000               0.000000000              -0.000104165               0.005190505               0.000152337              -0.000687873               0.001959442               0.001271569               0.000000000               0.000000000               0.000000000               0.000000000              -0.000072425               0.005058415               0.000097241              -0.000659460               0.001905941               0.001246482               0.000000000               0.000000000               0.000000000               0.000000000              -0.000065223               0.004947507               0.000051336              -0.000642896               0.001863451               0.001220556               0.000000000               0.000000000               0.000000000               0.000000000              -0.000076607               0.004860868               0.000020074              -0.000636335               0.001832385               0.001196050               0.000000000               0.000000000               0.000000000               0.000000000              -0.000084770               0.004822516               0.000007951              -0.000634602               0.001819023               0.001184422               0.000000000               0.000000000               0.000000000               0.000000000               0.000122611               0.002738940               0.001542493              -0.000296389               0.001011766               0.000715377               0.000000000               0.000000000               0.000000000               0.000000000              -0.000301068               0.003902704               0.001824668              -0.000600739               0.001501134               0.000900395               0.000000000               0.000000000               0.000000000               0.000000000              -0.000837144               0.005201707               0.001914524              -0.000964141               0.002055265               0.001091124               0.000000000               0.000000000               0.000000000               0.000000000              -0.000891719               0.005710891               0.001683778              -0.001048254               0.002253029               0.001204775               0.000000000               0.000000000               0.000000000               0.000000000              -0.000809033               0.005898359               0.001428831              -0.001040680               0.002312993               0.001272313               0.000000000               0.000000000               0.000000000               0.000000000              -0.000694864               0.005942609               0.001200911              -0.001003398               0.002315316               0.001311918               0.000000000               0.000000000               0.000000000               0.000000000              -0.000579671               0.005902925               0.001005170              -0.000955240               0.002286035               0.001330795               0.000000000               0.000000000               0.000000000               0.000000000              -0.000474102               0.005809773               0.000837658              -0.000904008               0.002237907               0.001333900               0.000000000               0.000000000               0.000000000               0.000000000              -0.000381508               0.005691566               0.000694940              -0.000854509               0.002182006               0.001327497               0.000000000               0.000000000               0.000000000               0.000000000              -0.000292555               0.005561086               0.000570229              -0.000804842               0.002121957               0.001317115               0.000000000               0.000000000               0.000000000               0.000000000              -0.000211234               0.005423174               0.000461978              -0.000757108               0.002060076               0.001302968               0.000000000               0.000000000               0.000000000               0.000000000              -0.000146882               0.005291665               0.000369436              -0.000716537               0.002002716               0.001286179               0.000000000               0.000000000               0.000000000               0.000000000              -0.000098119               0.005169210               0.000284098              -0.000682944               0.001950701               0.001267757               0.000000000               0.000000000               0.000000000               0.000000000              -0.000067419               0.005051487               0.000198103              -0.000656716               0.001902717               0.001246001               0.000000000               0.000000000               0.000000000               0.000000000              -0.000062129               0.004946188               0.000115220              -0.000641570               0.001862570               0.001221000               0.000000000               0.000000000               0.000000000               0.000000000              -0.000087390               0.004858435               0.000048652              -0.000640074               0.001832820               0.001192746               0.000000000               0.000000000               0.000000000               0.000000000              -0.000116075               0.004813042               0.000017440              -0.000645157               0.001819383               0.001174227               0.000000000               0.000000000               0.000000000               0.000000000              -0.000753402               0.001656188               0.000987493              -0.000489549               0.000715239               0.000225691               0.000000000               0.000000000               0.000000000               0.000000000              -0.000647056               0.002853817               0.001578801              -0.000599373               0.001151053               0.000551680               0.000000000               0.000000000               0.000000000               0.000000000              -0.000827140               0.004154364               0.001976497              -0.000829472               0.001661264               0.000831792               0.000000000               0.000000000               0.000000000               0.000000000              -0.000795576               0.004826938               0.001877636              -0.000901707               0.001909532               0.001007824               0.000000000               0.000000000               0.000000000               0.000000000              -0.000698314               0.005182751               0.001669353              -0.000909710               0.002030803               0.001121092               0.000000000               0.000000000               0.000000000               0.000000000              -0.000588100               0.005370727               0.001449827              -0.000891877               0.002087516               0.001195639               0.000000000               0.000000000               0.000000000               0.000000000              -0.000486719               0.005452313               0.001247203              -0.000864057               0.002105438               0.001241381               0.000000000               0.000000000               0.000000000               0.000000000              -0.000394585               0.005460701               0.001066941              -0.000830555               0.002097067               0.001266512               0.000000000               0.000000000               0.000000000               0.000000000              -0.000310005               0.005424335               0.000911747              -0.000794292               0.002072857               0.001278565               0.000000000               0.000000000               0.000000000               0.000000000              -0.000229209               0.005361768               0.000777587              -0.000756173               0.002039296               0.001283123               0.000000000               0.000000000               0.000000000               0.000000000              -0.000149692               0.005283947               0.000654260              -0.000716626               0.002000174               0.001283547               0.000000000               0.000000000               0.000000000               0.000000000              -0.000084222               0.005199736               0.000540956              -0.000681549               0.001960411               0.001278862               0.000000000               0.000000000               0.000000000               0.000000000              -0.000039019               0.005109753               0.000435442              -0.000653350               0.001921017               0.001267668               0.000000000               0.000000000               0.000000000               0.000000000              -0.000012232               0.005017539               0.000325255              -0.000631778               0.001883089               0.001251311               0.000000000               0.000000000               0.000000000               0.000000000              -0.000006775               0.004929567               0.000208382              -0.000618735               0.001849418               0.001230683               0.000000000               0.000000000               0.000000000               0.000000000              -0.000036192               0.004850442               0.000097525              -0.000619876               0.001823423               0.001203547               0.000000000               0.000000000               0.000000000               0.000000000              -0.000077081               0.004804830               0.000040333              -0.000629508               0.001811430               0.001181922               0.000000000               0.000000000               0.000000000               0.000000000              -0.001720252               0.000826091               0.000506835              -0.000748355               0.000524811              -0.000223543               0.000000000               0.000000000               0.000000000               0.000000000              -0.001055516               0.001914090               0.001270604              -0.000635079               0.000849716               0.000214637               0.000000000               0.000000000               0.000000000               0.000000000              -0.000802819               0.003086266               0.001868679              -0.000686840               0.001257691               0.000570851               0.000000000               0.000000000               0.000000000               0.000000000              -0.000637662               0.003845916               0.001892665              -0.000719862               0.001521912               0.000802050               0.000000000               0.000000000               0.000000000               0.000000000              -0.000511394               0.004335096               0.001750958              -0.000733659               0.001689570               0.000955911               0.000000000               0.000000000               0.000000000               0.000000000              -0.000404149               0.004655076               0.001564628              -0.000733439               0.001796156               0.001062716               0.000000000               0.000000000               0.000000000               0.000000000              -0.000315982               0.004859746               0.001377167              -0.000725960               0.001861886               0.001135925               0.000000000               0.000000000               0.000000000               0.000000000              -0.000237711               0.004976477               0.001206590              -0.000711200               0.001895875               0.001184675               0.000000000               0.000000000               0.000000000               0.000000000              -0.000160600               0.005034088               0.001058104              -0.000689485               0.001907841               0.001218356               0.000000000               0.000000000               0.000000000               0.000000000              -0.000087339               0.005055523               0.000927356              -0.000664691               0.001906721               0.001242030               0.000000000               0.000000000               0.000000000               0.000000000              -0.000015548               0.005049832               0.000803441              -0.000637058               0.001895613               0.001258555               0.000000000               0.000000000               0.000000000               0.000000000               0.000052021               0.005024938               0.000683305              -0.000608608               0.001877832               0.001269224               0.000000000               0.000000000               0.000000000               0.000000000               0.000104635               0.004986406               0.000565771              -0.000584061               0.001856806               0.001272744               0.000000000               0.000000000               0.000000000               0.000000000               0.000137397               0.004936256               0.000442983              -0.000565507               0.001833904               0.001268398               0.000000000               0.000000000               0.000000000               0.000000000               0.000150280               0.004877689               0.000305498              -0.000553355               0.001810332               0.001256977               0.000000000               0.000000000               0.000000000               0.000000000               0.000133635               0.004826545               0.000154573              -0.000553204               0.001793233               0.001240030               0.000000000               0.000000000               0.000000000               0.000000000               0.000098631               0.004795782               0.000072245              -0.000562485               0.001786073               0.001223588               0.000000000               0.000000000               0.000000000               0.000000000              -0.002673124               0.000251289               0.000160792              -0.001033831               0.000428370              -0.000605461               0.000000000               0.000000000               0.000000000               0.000000000              -0.001486474               0.001139379               0.000933202              -0.000699849               0.000613071              -0.000086778               0.000000000               0.000000000               0.000000000               0.000000000              -0.000781632               0.002096907               0.001587163              -0.000555225               0.000884036               0.000328811               0.000000000               0.000000000               0.000000000               0.000000000              -0.000450546               0.002870538               0.001693909              -0.000527772               0.001132759               0.000604987               0.000000000               0.000000000               0.000000000               0.000000000              -0.000274971               0.003448834               0.001616985              -0.000534218               0.001327672               0.000793454               0.000000000               0.000000000               0.000000000               0.000000000              -0.000163871               0.003871380               0.001479054              -0.000545374               0.001472238               0.000926864               0.000000000               0.000000000               0.000000000               0.000000000              -0.000081608               0.004178778               0.001327691              -0.000552950               0.001577228               0.001024279               0.000000000               0.000000000               0.000000000               0.000000000              -0.000014794               0.004396985               0.001186575              -0.000555170               0.001650703               0.001095533               0.000000000               0.000000000               0.000000000               0.000000000               0.000050012               0.004552277               0.001060249              -0.000550279               0.001700837               0.001150557               0.000000000               0.000000000               0.000000000               0.000000000               0.000114662               0.004661688               0.000947821              -0.000539712               0.001733784               0.001194072               0.000000000               0.000000000               0.000000000               0.000000000               0.000181281               0.004735933               0.000842118              -0.000524010               0.001753299               0.001229288               0.000000000               0.000000000               0.000000000               0.000000000               0.000251006               0.004781799               0.000735626              -0.000503597               0.001761782               0.001258186               0.000000000               0.000000000               0.000000000               0.000000000               0.000316814               0.004803912               0.000624688              -0.000481683               0.001761849               0.001280166               0.000000000               0.000000000               0.000000000               0.000000000               0.000372979               0.004808908               0.000504423              -0.000461246               0.001756702               0.001295456               0.000000000               0.000000000               0.000000000               0.000000000               0.000418528               0.004802353               0.000365302              -0.000443345               0.001748550               0.001305205               0.000000000               0.000000000               0.000000000               0.000000000               0.000449308               0.004795749               0.000195592              -0.000430977               0.001742226               0.001311249               0.000000000               0.000000000               0.000000000               0.000000000               0.000453671               0.004789013               0.000100158              -0.000428499               0.001739155               0.001310656               0.000000000               0.000000000               0.000000000               0.000000000              -0.003485384              -0.000104970              -0.000021178              -0.001293897               0.000396306              -0.000897590               0.000000000               0.000000000               0.000000000               0.000000000              -0.001872049               0.000567459               0.000600837              -0.000772950               0.000446800              -0.000326150               0.000000000               0.000000000               0.000000000               0.000000000              -0.000770287               0.001293660               0.001151272              -0.000450565               0.000581403               0.000130838               0.000000000               0.000000000               0.000000000               0.000000000              -0.000273866               0.002029548               0.001278348              -0.000356394               0.000795306               0.000438913               0.000000000               0.000000000               0.000000000               0.000000000              -0.000034489               0.002650931               0.001248369              -0.000344300               0.000998401               0.000654101               0.000000000               0.000000000               0.000000000               0.000000000               0.000092021               0.003143691               0.001161753              -0.000358453               0.001167371               0.000808917               0.000000000               0.000000000               0.000000000               0.000000000               0.000170933               0.003527640               0.001058052              -0.000376855               0.001301486               0.000924631               0.000000000               0.000000000               0.000000000               0.000000000               0.000226480               0.003828332               0.000957831              -0.000393611               0.001407302               0.001013690               0.000000000               0.000000000               0.000000000               0.000000000               0.000276197               0.004070094               0.000868354              -0.000405187               0.001491747               0.001086559               0.000000000               0.000000000               0.000000000               0.000000000               0.000330276               0.004265376               0.000788415              -0.000409318               0.001558217               0.001148899               0.000000000               0.000000000               0.000000000               0.000000000               0.000389308               0.004417026               0.000714108              -0.000406137               0.001607706               0.001201569               0.000000000               0.000000000               0.000000000               0.000000000               0.000458501               0.004530656               0.000637201              -0.000394393               0.001641668               0.001247275               0.000000000               0.000000000               0.000000000               0.000000000               0.000536637               0.004611599               0.000552624              -0.000375210               0.001662254               0.001287044               0.000000000               0.000000000               0.000000000               0.000000000               0.000628178               0.004673059               0.000458727              -0.000348565               0.001673859               0.001325294               0.000000000               0.000000000               0.000000000               0.000000000               0.000734881               0.004723475               0.000345878              -0.000314853               0.001679427               0.001364574               0.000000000               0.000000000               0.000000000               0.000000000               0.000855769               0.004761677               0.000194240              -0.000274296               0.001678642               0.001404346               0.000000000               0.000000000               0.000000000               0.000000000               0.000940341               0.004783222               0.000107703              -0.000245274               0.001676150               0.001430875               0.000000000               0.000000000               0.000000000               0.000000000              -0.004035118              -0.000290441              -0.000054654              -0.001476863               0.000395471              -0.001081392               0.000000000               0.000000000               0.000000000               0.000000000              -0.002139759               0.000219173               0.000291458              -0.000829805               0.000349657              -0.000480148               0.000000000               0.000000000               0.000000000               0.000000000              -0.000767265               0.000769172               0.000604255              -0.000383870               0.000384344               0.000000474               0.000000000               0.000000000               0.000000000               0.000000000              -0.000147443               0.001457046               0.000687788              -0.000237422               0.000564818               0.000327396               0.000000000               0.000000000               0.000000000               0.000000000               0.000145637               0.002087932               0.000681886              -0.000206377               0.000764763               0.000558385               0.000000000               0.000000000               0.000000000               0.000000000               0.000288269               0.002620147               0.000640436              -0.000219418               0.000946513               0.000727095               0.000000000               0.000000000               0.000000000               0.000000000               0.000363174               0.003055582               0.000587077              -0.000245757               0.001100436               0.000854679               0.000000000               0.000000000               0.000000000               0.000000000               0.000412045               0.003414197               0.000535746              -0.000272257               0.001228807               0.000956549               0.000000000               0.000000000               0.000000000               0.000000000               0.000453215               0.003717082               0.000490549              -0.000294679               0.001337241               0.001042562               0.000000000               0.000000000               0.000000000               0.000000000               0.000496225               0.003970739               0.000449528              -0.000310257               0.001426985               0.001116728               0.000000000               0.000000000               0.000000000               0.000000000               0.000546822               0.004176926               0.000412240              -0.000317057               0.001497980               0.001180924               0.000000000               0.000000000               0.000000000               0.000000000               0.000612548               0.004340606               0.000372248              -0.000312869               0.001551144               0.001238275               0.000000000               0.000000000               0.000000000               0.000000000               0.000703019               0.004468937               0.000327230              -0.000294984               0.001587959               0.001292974               0.000000000               0.000000000               0.000000000               0.000000000               0.000828043               0.004575157               0.000277683              -0.000261378               0.001612163               0.001350785               0.000000000               0.000000000               0.000000000               0.000000000               0.000994520               0.004665590               0.000216047              -0.000210253               0.001625266               0.001415012               0.000000000               0.000000000               0.000000000               0.000000000               0.001211838               0.004735408               0.000125354              -0.000137487               0.001624282               0.001486796               0.000000000               0.000000000               0.000000000               0.000000000               0.001390868               0.004783193               0.000072597              -0.000076324               0.001619823               0.001543499               0.000000000               0.000000000               0.000000000               0.000000000               0.000000000               0.000000000               0.000000000               0.000000000               0.000000000               0.000000000               0.000000000               0.000000000               0.000000000               0.000000000               0.000000000               0.000000000               0.000000000               0.000000000               0.000000000               0.000000000               0.000000000               0.000000000               0.000000000               0.000000000               0.000000000               0.000000000               0.000000000               0.000000000               0.000000000               0.000000000               0.000000000               0.000000000               0.000000000               0.000000000               0.000000000               0.000000000               0.000000000               0.000000000               0.000000000               0.000000000               0.000000000               0.000000000               0.000000000               0.000000000               0.000000000               0.000000000               0.000000000               0.000000000               0.000000000               0.000000000               0.000000000               0.000000000               0.000000000               0.000000000               0.000000000               0.000000000               0.000000000               0.000000000               0.000000000               0.000000000               0.000000000               0.000000000               0.000000000               0.000000000               0.000000000               0.000000000               0.000000000               0.000000000               0.000000000               0.000000000               0.000000000               0.000000000               0.000000000               0.000000000               0.000000000               0.000000000               0.000000000               0.000000000               0.000000000               0.000000000               0.000000000               0.000000000               0.000000000               0.000000000               0.000000000               0.000000000               0.000000000               0.000000000               0.000000000               0.000000000               0.000000000               0.000000000               0.000000000               0.000000000               0.000000000               0.000000000               0.000000000               0.000000000               0.000000000               0.000000000               0.000000000               0.000000000               0.000000000               0.000000000               0.000000000               0.000000000               0.000000000               0.000000000               0.000000000               0.000000000               0.000000000               0.000000000               0.000000000               0.000000000               0.000000000               0.000000000               0.000000000               0.000000000               0.000000000               0.000000000               0.000000000               0.000000000               0.000000000               0.000000000               0.000000000               0.000000000               0.000000000               0.000000000               0.000000000               0.000000000               0.000000000               0.000000000               0.000000000               0.000000000               0.000000000               0.000000000               0.000000000               0.000000000               0.000000000               0.000000000               0.000000000               0.000000000               0.000000000               0.000000000               0.000000000               0.000000000               0.000000000               0.000000000               0.000000000               0.000000000               0.000000000               0.000000000               0.000000000               0.000000000               0.000000000               0.000000000               0.000000000               0.000000000               0.000000000               0.000000000               0.000000000               0.000000000               0.000000000               0.000000000               0.000000000               0.000000000               0.000000000               0.000000000               0.000000000               0.000000000               0.000000000               0.000000000               0.000000000               0.000000000 </DataArray>
</PointData>
</Piece>
</UnstructuredGrid> </VTKFile>
