<?xml version="1.0"?>
<VTKFile type="UnstructuredGrid" version="0.1">
<UnstructuredGrid>
<Piece NumberOfPoints="      1156" NumberOfCells="      1024">
<Points>
<DataArray type="Float64"                                    Name="coordinates"                                                      NumberOfComponents=" 3" format="ascii">
              0.133000000               0.000000000               0.000000000               0.155937500               0.000000000               0.000000000               0.178875000               0.000000000               0.000000000               0.201812500               0.000000000               0.000000000               0.224750000               0.000000000               0.000000000               0.247687500               0.000000000               0.000000000               0.270625000               0.000000000               0.000000000               0.293562500               0.000000000               0.000000000               0.316500000               0.000000000               0.000000000               0.339437500               0.000000000               0.000000000               0.362375000               0.000000000               0.000000000               0.385312500               0.000000000               0.000000000               0.408250000               0.000000000               0.000000000               0.431187500               0.000000000               0.000000000               0.454125000               0.000000000               0.000000000               0.477062500               0.000000000               0.000000000               0.500000000               0.000000000               0.000000000               0.132359569               0.013036280               0.000000000               0.155337096               0.016127762               0.000000000               0.178314623               0.019219245               0.000000000               0.201292150               0.022310727               0.000000000               0.224269676               0.025402210               0.000000000               0.247247203               0.028493692               0.000000000               0.270224730               0.031585175               0.000000000               0.293202257               0.034676657               0.000000000               0.316179784               0.037768140               0.000000000               0.339157311               0.040859622               0.000000000               0.362134838               0.043951105               0.000000000               0.385112365               0.047042587               0.000000000               0.408089892               0.050134070               0.000000000               0.431067419               0.053225552               0.000000000               0.454044946               0.056317035               0.000000000               0.477022473               0.059408517               0.000000000               0.500000000               0.062500000               0.000000000               0.130444442               0.025947013               0.000000000               0.153541665               0.032137825               0.000000000               0.176638887               0.038328636               0.000000000               0.199736109               0.044519448               0.000000000               0.222833332               0.050710260               0.000000000               0.245930554               0.056901071               0.000000000               0.269027776               0.063091883               0.000000000               0.292124999               0.069282695               0.000000000               0.315222221               0.075473506               0.000000000               0.338319444               0.081664318               0.000000000               0.361416666               0.087855130               0.000000000               0.384513888               0.094045942               0.000000000               0.407611111               0.100236753               0.000000000               0.430708333               0.106427565               0.000000000               0.453805555               0.112618377               0.000000000               0.476902778               0.118809188               0.000000000               0.500000000               0.125000000               0.000000000               0.127273065               0.038607862               0.000000000               0.150568498               0.047913621               0.000000000               0.173863932               0.057219379               0.000000000               0.197159365               0.066525138               0.000000000               0.220454798               0.075830897               0.000000000               0.243750232               0.085136655               0.000000000               0.267045665               0.094442414               0.000000000               0.290341099               0.103748172               0.000000000               0.313636532               0.113053931               0.000000000               0.336931966               0.122359690               0.000000000               0.360227399               0.131665448               0.000000000               0.383522833               0.140971207               0.000000000               0.406818266               0.150276966               0.000000000               0.430113700               0.159582724               0.000000000               0.453409133               0.168888483               0.000000000               0.476704567               0.178194241               0.000000000               0.500000000               0.187500000               0.000000000               0.122875978               0.050896897               0.000000000               0.146446229               0.063340840               0.000000000               0.170016481               0.075784784               0.000000000               0.193586732               0.088228728               0.000000000               0.217156983               0.100672672               0.000000000               0.240727235               0.113116616               0.000000000               0.264297486               0.125560560               0.000000000               0.287867738               0.138004504               0.000000000               0.311437989               0.150448448               0.000000000               0.335008240               0.162892392               0.000000000               0.358578492               0.175336336               0.000000000               0.382148743               0.187780280               0.000000000               0.405718994               0.200224224               0.000000000               0.429289246               0.212668168               0.000000000               0.452859497               0.225112112               0.000000000               0.476429749               0.237556056               0.000000000               0.500000000               0.250000000               0.000000000               0.117295528               0.062695766               0.000000000               0.141214558               0.078308531               0.000000000               0.165133587               0.093921295               0.000000000               0.189052617               0.109534060               0.000000000               0.212971646               0.125146824               0.000000000               0.236890676               0.140759589               0.000000000               0.260809705               0.156372354               0.000000000               0.284728735               0.171985118               0.000000000               0.308647764               0.187597883               0.000000000               0.332566794               0.203210648               0.000000000               0.356485823               0.218823412               0.000000000               0.380404853               0.234436177               0.000000000               0.404323882               0.250048941               0.000000000               0.428242912               0.265661706               0.000000000               0.452161941               0.281274471               0.000000000               0.476080971               0.296887235               0.000000000               0.500000000               0.312500000               0.000000000               0.110585458               0.073890841               0.000000000               0.134923867               0.092710163               0.000000000               0.159262276               0.111529486               0.000000000               0.183600685               0.130348808               0.000000000               0.207939094               0.149168131               0.000000000               0.232277503               0.167987453               0.000000000               0.256615912               0.186806776               0.000000000               0.280954320               0.205626098               0.000000000               0.305292729               0.224445420               0.000000000               0.329631138               0.243264743               0.000000000               0.353969547               0.262084065               0.000000000               0.378307956               0.280903388               0.000000000               0.402646365               0.299722710               0.000000000               0.426984773               0.318542033               0.000000000               0.451323182               0.337361355               0.000000000               0.475661591               0.356180678               0.000000000               0.500000000               0.375000000               0.000000000               0.102810390               0.084374307               0.000000000               0.127634741               0.106444663               0.000000000               0.152459092               0.128515018               0.000000000               0.177283442               0.150585374               0.000000000               0.202107793               0.172655730               0.000000000               0.226932143               0.194726086               0.000000000               0.251756494               0.216796442               0.000000000               0.276580845               0.238866798               0.000000000               0.301405195               0.260937153               0.000000000               0.326229546               0.283007509               0.000000000               0.351053896               0.305077865               0.000000000               0.375878247               0.327148221               0.000000000               0.400702598               0.349218577               0.000000000               0.425526948               0.371288933               0.000000000               0.450351299               0.393359288               0.000000000               0.475175649               0.415429644               0.000000000               0.500000000               0.437500000               0.000000000               0.094045202               0.094045202               0.000000000               0.119417377               0.119417377               0.000000000               0.144789552               0.144789552               0.000000000               0.170161727               0.170161727               0.000000000               0.195533901               0.195533901               0.000000000               0.220906076               0.220906076               0.000000000               0.246278251               0.246278251               0.000000000               0.271650426               0.271650426               0.000000000               0.297022601               0.297022601               0.000000000               0.322394776               0.322394776               0.000000000               0.347766951               0.347766951               0.000000000               0.373139126               0.373139126               0.000000000               0.398511300               0.398511300               0.000000000               0.423883475               0.423883475               0.000000000               0.449255650               0.449255650               0.000000000               0.474627825               0.474627825               0.000000000               0.500000000               0.500000000               0.000000000               0.084374307               0.102810390               0.000000000               0.106444663               0.127634741               0.000000000               0.128515018               0.152459092               0.000000000               0.150585374               0.177283442               0.000000000               0.172655730               0.202107793               0.000000000               0.194726086               0.226932143               0.000000000               0.216796442               0.251756494               0.000000000               0.238866798               0.276580845               0.000000000               0.260937153               0.301405195               0.000000000               0.283007509               0.326229546               0.000000000               0.305077865               0.351053896               0.000000000               0.327148221               0.375878247               0.000000000               0.349218577               0.400702598               0.000000000               0.371288933               0.425526948               0.000000000               0.393359288               0.450351299               0.000000000               0.415429644               0.475175649               0.000000000               0.437500000               0.500000000               0.000000000               0.073890841               0.110585458               0.000000000               0.092710163               0.134923867               0.000000000               0.111529486               0.159262276               0.000000000               0.130348808               0.183600685               0.000000000               0.149168131               0.207939094               0.000000000               0.167987453               0.232277503               0.000000000               0.186806776               0.256615912               0.000000000               0.205626098               0.280954320               0.000000000               0.224445420               0.305292729               0.000000000               0.243264743               0.329631138               0.000000000               0.262084065               0.353969547               0.000000000               0.280903388               0.378307956               0.000000000               0.299722710               0.402646365               0.000000000               0.318542033               0.426984773               0.000000000               0.337361355               0.451323182               0.000000000               0.356180678               0.475661591               0.000000000               0.375000000               0.500000000               0.000000000               0.062695766               0.117295528               0.000000000               0.078308531               0.141214558               0.000000000               0.093921295               0.165133587               0.000000000               0.109534060               0.189052617               0.000000000               0.125146824               0.212971646               0.000000000               0.140759589               0.236890676               0.000000000               0.156372354               0.260809705               0.000000000               0.171985118               0.284728735               0.000000000               0.187597883               0.308647764               0.000000000               0.203210648               0.332566794               0.000000000               0.218823412               0.356485823               0.000000000               0.234436177               0.380404853               0.000000000               0.250048941               0.404323882               0.000000000               0.265661706               0.428242912               0.000000000               0.281274471               0.452161941               0.000000000               0.296887235               0.476080971               0.000000000               0.312500000               0.500000000               0.000000000               0.050896897               0.122875978               0.000000000               0.063340840               0.146446229               0.000000000               0.075784784               0.170016481               0.000000000               0.088228728               0.193586732               0.000000000               0.100672672               0.217156983               0.000000000               0.113116616               0.240727235               0.000000000               0.125560560               0.264297486               0.000000000               0.138004504               0.287867738               0.000000000               0.150448448               0.311437989               0.000000000               0.162892392               0.335008240               0.000000000               0.175336336               0.358578492               0.000000000               0.187780280               0.382148743               0.000000000               0.200224224               0.405718994               0.000000000               0.212668168               0.429289246               0.000000000               0.225112112               0.452859497               0.000000000               0.237556056               0.476429749               0.000000000               0.250000000               0.500000000               0.000000000               0.038607862               0.127273065               0.000000000               0.047913621               0.150568498               0.000000000               0.057219379               0.173863932               0.000000000               0.066525138               0.197159365               0.000000000               0.075830897               0.220454798               0.000000000               0.085136655               0.243750232               0.000000000               0.094442414               0.267045665               0.000000000               0.103748172               0.290341099               0.000000000               0.113053931               0.313636532               0.000000000               0.122359690               0.336931966               0.000000000               0.131665448               0.360227399               0.000000000               0.140971207               0.383522833               0.000000000               0.150276966               0.406818266               0.000000000               0.159582724               0.430113700               0.000000000               0.168888483               0.453409133               0.000000000               0.178194241               0.476704567               0.000000000               0.187500000               0.500000000               0.000000000               0.025947013               0.130444442               0.000000000               0.032137825               0.153541665               0.000000000               0.038328636               0.176638887               0.000000000               0.044519448               0.199736109               0.000000000               0.050710260               0.222833332               0.000000000               0.056901071               0.245930554               0.000000000               0.063091883               0.269027776               0.000000000               0.069282695               0.292124999               0.000000000               0.075473506               0.315222221               0.000000000               0.081664318               0.338319444               0.000000000               0.087855130               0.361416666               0.000000000               0.094045942               0.384513888               0.000000000               0.100236753               0.407611111               0.000000000               0.106427565               0.430708333               0.000000000               0.112618377               0.453805555               0.000000000               0.118809188               0.476902778               0.000000000               0.125000000               0.500000000               0.000000000               0.013036280               0.132359569               0.000000000               0.016127762               0.155337096               0.000000000               0.019219245               0.178314623               0.000000000               0.022310727               0.201292150               0.000000000               0.025402210               0.224269676               0.000000000               0.028493692               0.247247203               0.000000000               0.031585175               0.270224730               0.000000000               0.034676657               0.293202257               0.000000000               0.037768140               0.316179784               0.000000000               0.040859622               0.339157311               0.000000000               0.043951105               0.362134838               0.000000000               0.047042587               0.385112365               0.000000000               0.050134070               0.408089892               0.000000000               0.053225552               0.431067419               0.000000000               0.056317035               0.454044946               0.000000000               0.059408517               0.477022473               0.000000000               0.062500000               0.500000000               0.000000000               0.000000000               0.133000000               0.000000000               0.000000000               0.155937500               0.000000000               0.000000000               0.178875000               0.000000000               0.000000000               0.201812500               0.000000000               0.000000000               0.224750000               0.000000000               0.000000000               0.247687500               0.000000000               0.000000000               0.270625000               0.000000000               0.000000000               0.293562500               0.000000000               0.000000000               0.316500000               0.000000000               0.000000000               0.339437500               0.000000000               0.000000000               0.362375000               0.000000000               0.000000000               0.385312500               0.000000000               0.000000000               0.408250000               0.000000000               0.000000000               0.431187500               0.000000000               0.000000000               0.454125000               0.000000000               0.000000000               0.477062500               0.000000000               0.000000000               0.500000000               0.000000000               0.133000000               0.000000000               0.000000000               0.155937500               0.000000000               0.000000000               0.178875000               0.000000000               0.000000000               0.201812500               0.000000000               0.000000000               0.224750000               0.000000000               0.000000000               0.247687500               0.000000000               0.000000000               0.270625000               0.000000000               0.000000000               0.293562500               0.000000000               0.000000000               0.316500000               0.000000000               0.000000000               0.339437500               0.000000000               0.000000000               0.362375000               0.000000000               0.000000000               0.385312500               0.000000000               0.000000000               0.408250000               0.000000000               0.000000000               0.431187500               0.000000000               0.000000000               0.454125000               0.000000000               0.000000000               0.477062500               0.000000000               0.000000000               0.500000000               0.000000000               0.000000000               0.132359569              -0.013036280               0.000000000               0.155337096              -0.016127762               0.000000000               0.178314623              -0.019219245               0.000000000               0.201292150              -0.022310727               0.000000000               0.224269676              -0.025402210               0.000000000               0.247247203              -0.028493692               0.000000000               0.270224730              -0.031585175               0.000000000               0.293202257              -0.034676657               0.000000000               0.316179784              -0.037768140               0.000000000               0.339157311              -0.040859622               0.000000000               0.362134838              -0.043951105               0.000000000               0.385112365              -0.047042587               0.000000000               0.408089892              -0.050134070               0.000000000               0.431067419              -0.053225552               0.000000000               0.454044946              -0.056317035               0.000000000               0.477022473              -0.059408517               0.000000000               0.500000000              -0.062500000               0.000000000               0.130444442              -0.025947013               0.000000000               0.153541665              -0.032137825               0.000000000               0.176638887              -0.038328636               0.000000000               0.199736109              -0.044519448               0.000000000               0.222833332              -0.050710260               0.000000000               0.245930554              -0.056901071               0.000000000               0.269027776              -0.063091883               0.000000000               0.292124999              -0.069282695               0.000000000               0.315222221              -0.075473506               0.000000000               0.338319444              -0.081664318               0.000000000               0.361416666              -0.087855130               0.000000000               0.384513888              -0.094045942               0.000000000               0.407611111              -0.100236753               0.000000000               0.430708333              -0.106427565               0.000000000               0.453805555              -0.112618377               0.000000000               0.476902778              -0.118809188               0.000000000               0.500000000              -0.125000000               0.000000000               0.127273065              -0.038607862               0.000000000               0.150568498              -0.047913621               0.000000000               0.173863932              -0.057219379               0.000000000               0.197159365              -0.066525138               0.000000000               0.220454798              -0.075830897               0.000000000               0.243750232              -0.085136655               0.000000000               0.267045665              -0.094442414               0.000000000               0.290341099              -0.103748172               0.000000000               0.313636532              -0.113053931               0.000000000               0.336931966              -0.122359690               0.000000000               0.360227399              -0.131665448               0.000000000               0.383522833              -0.140971207               0.000000000               0.406818266              -0.150276966               0.000000000               0.430113700              -0.159582724               0.000000000               0.453409133              -0.168888483               0.000000000               0.476704567              -0.178194241               0.000000000               0.500000000              -0.187500000               0.000000000               0.122875978              -0.050896897               0.000000000               0.146446229              -0.063340840               0.000000000               0.170016481              -0.075784784               0.000000000               0.193586732              -0.088228728               0.000000000               0.217156983              -0.100672672               0.000000000               0.240727235              -0.113116616               0.000000000               0.264297486              -0.125560560               0.000000000               0.287867738              -0.138004504               0.000000000               0.311437989              -0.150448448               0.000000000               0.335008240              -0.162892392               0.000000000               0.358578492              -0.175336336               0.000000000               0.382148743              -0.187780280               0.000000000               0.405718994              -0.200224224               0.000000000               0.429289246              -0.212668168               0.000000000               0.452859497              -0.225112112               0.000000000               0.476429749              -0.237556056               0.000000000               0.500000000              -0.250000000               0.000000000               0.117295528              -0.062695766               0.000000000               0.141214558              -0.078308531               0.000000000               0.165133587              -0.093921295               0.000000000               0.189052617              -0.109534060               0.000000000               0.212971646              -0.125146824               0.000000000               0.236890676              -0.140759589               0.000000000               0.260809705              -0.156372354               0.000000000               0.284728735              -0.171985118               0.000000000               0.308647764              -0.187597883               0.000000000               0.332566794              -0.203210648               0.000000000               0.356485823              -0.218823412               0.000000000               0.380404853              -0.234436177               0.000000000               0.404323882              -0.250048941               0.000000000               0.428242912              -0.265661706               0.000000000               0.452161941              -0.281274471               0.000000000               0.476080971              -0.296887235               0.000000000               0.500000000              -0.312500000               0.000000000               0.110585458              -0.073890841               0.000000000               0.134923867              -0.092710163               0.000000000               0.159262276              -0.111529486               0.000000000               0.183600685              -0.130348808               0.000000000               0.207939094              -0.149168131               0.000000000               0.232277503              -0.167987453               0.000000000               0.256615912              -0.186806776               0.000000000               0.280954320              -0.205626098               0.000000000               0.305292729              -0.224445420               0.000000000               0.329631138              -0.243264743               0.000000000               0.353969547              -0.262084065               0.000000000               0.378307956              -0.280903388               0.000000000               0.402646365              -0.299722710               0.000000000               0.426984773              -0.318542033               0.000000000               0.451323182              -0.337361355               0.000000000               0.475661591              -0.356180678               0.000000000               0.500000000              -0.375000000               0.000000000               0.102810390              -0.084374307               0.000000000               0.127634741              -0.106444663               0.000000000               0.152459092              -0.128515018               0.000000000               0.177283442              -0.150585374               0.000000000               0.202107793              -0.172655730               0.000000000               0.226932143              -0.194726086               0.000000000               0.251756494              -0.216796442               0.000000000               0.276580845              -0.238866798               0.000000000               0.301405195              -0.260937153               0.000000000               0.326229546              -0.283007509               0.000000000               0.351053896              -0.305077865               0.000000000               0.375878247              -0.327148221               0.000000000               0.400702598              -0.349218577               0.000000000               0.425526948              -0.371288933               0.000000000               0.450351299              -0.393359288               0.000000000               0.475175649              -0.415429644               0.000000000               0.500000000              -0.437500000               0.000000000               0.094045202              -0.094045202               0.000000000               0.119417377              -0.119417377               0.000000000               0.144789552              -0.144789552               0.000000000               0.170161727              -0.170161727               0.000000000               0.195533901              -0.195533901               0.000000000               0.220906076              -0.220906076               0.000000000               0.246278251              -0.246278251               0.000000000               0.271650426              -0.271650426               0.000000000               0.297022601              -0.297022601               0.000000000               0.322394776              -0.322394776               0.000000000               0.347766951              -0.347766951               0.000000000               0.373139126              -0.373139126               0.000000000               0.398511300              -0.398511300               0.000000000               0.423883475              -0.423883475               0.000000000               0.449255650              -0.449255650               0.000000000               0.474627825              -0.474627825               0.000000000               0.500000000              -0.500000000               0.000000000               0.084374307              -0.102810390               0.000000000               0.106444663              -0.127634741               0.000000000               0.128515018              -0.152459092               0.000000000               0.150585374              -0.177283442               0.000000000               0.172655730              -0.202107793               0.000000000               0.194726086              -0.226932143               0.000000000               0.216796442              -0.251756494               0.000000000               0.238866798              -0.276580845               0.000000000               0.260937153              -0.301405195               0.000000000               0.283007509              -0.326229546               0.000000000               0.305077865              -0.351053896               0.000000000               0.327148221              -0.375878247               0.000000000               0.349218577              -0.400702598               0.000000000               0.371288933              -0.425526948               0.000000000               0.393359288              -0.450351299               0.000000000               0.415429644              -0.475175649               0.000000000               0.437500000              -0.500000000               0.000000000               0.073890841              -0.110585458               0.000000000               0.092710163              -0.134923867               0.000000000               0.111529486              -0.159262276               0.000000000               0.130348808              -0.183600685               0.000000000               0.149168131              -0.207939094               0.000000000               0.167987453              -0.232277503               0.000000000               0.186806776              -0.256615912               0.000000000               0.205626098              -0.280954320               0.000000000               0.224445420              -0.305292729               0.000000000               0.243264743              -0.329631138               0.000000000               0.262084065              -0.353969547               0.000000000               0.280903388              -0.378307956               0.000000000               0.299722710              -0.402646365               0.000000000               0.318542033              -0.426984773               0.000000000               0.337361355              -0.451323182               0.000000000               0.356180678              -0.475661591               0.000000000               0.375000000              -0.500000000               0.000000000               0.062695766              -0.117295528               0.000000000               0.078308531              -0.141214558               0.000000000               0.093921295              -0.165133587               0.000000000               0.109534060              -0.189052617               0.000000000               0.125146824              -0.212971646               0.000000000               0.140759589              -0.236890676               0.000000000               0.156372354              -0.260809705               0.000000000               0.171985118              -0.284728735               0.000000000               0.187597883              -0.308647764               0.000000000               0.203210648              -0.332566794               0.000000000               0.218823412              -0.356485823               0.000000000               0.234436177              -0.380404853               0.000000000               0.250048941              -0.404323882               0.000000000               0.265661706              -0.428242912               0.000000000               0.281274471              -0.452161941               0.000000000               0.296887235              -0.476080971               0.000000000               0.312500000              -0.500000000               0.000000000               0.050896897              -0.122875978               0.000000000               0.063340840              -0.146446229               0.000000000               0.075784784              -0.170016481               0.000000000               0.088228728              -0.193586732               0.000000000               0.100672672              -0.217156983               0.000000000               0.113116616              -0.240727235               0.000000000               0.125560560              -0.264297486               0.000000000               0.138004504              -0.287867738               0.000000000               0.150448448              -0.311437989               0.000000000               0.162892392              -0.335008240               0.000000000               0.175336336              -0.358578492               0.000000000               0.187780280              -0.382148743               0.000000000               0.200224224              -0.405718994               0.000000000               0.212668168              -0.429289246               0.000000000               0.225112112              -0.452859497               0.000000000               0.237556056              -0.476429749               0.000000000               0.250000000              -0.500000000               0.000000000               0.038607862              -0.127273065               0.000000000               0.047913621              -0.150568498               0.000000000               0.057219379              -0.173863932               0.000000000               0.066525138              -0.197159365               0.000000000               0.075830897              -0.220454798               0.000000000               0.085136655              -0.243750232               0.000000000               0.094442414              -0.267045665               0.000000000               0.103748172              -0.290341099               0.000000000               0.113053931              -0.313636532               0.000000000               0.122359690              -0.336931966               0.000000000               0.131665448              -0.360227399               0.000000000               0.140971207              -0.383522833               0.000000000               0.150276966              -0.406818266               0.000000000               0.159582724              -0.430113700               0.000000000               0.168888483              -0.453409133               0.000000000               0.178194241              -0.476704567               0.000000000               0.187500000              -0.500000000               0.000000000               0.025947013              -0.130444442               0.000000000               0.032137825              -0.153541665               0.000000000               0.038328636              -0.176638887               0.000000000               0.044519448              -0.199736109               0.000000000               0.050710260              -0.222833332               0.000000000               0.056901071              -0.245930554               0.000000000               0.063091883              -0.269027776               0.000000000               0.069282695              -0.292124999               0.000000000               0.075473506              -0.315222221               0.000000000               0.081664318              -0.338319444               0.000000000               0.087855130              -0.361416666               0.000000000               0.094045942              -0.384513888               0.000000000               0.100236753              -0.407611111               0.000000000               0.106427565              -0.430708333               0.000000000               0.112618377              -0.453805555               0.000000000               0.118809188              -0.476902778               0.000000000               0.125000000              -0.500000000               0.000000000               0.013036280              -0.132359569               0.000000000               0.016127762              -0.155337096               0.000000000               0.019219245              -0.178314623               0.000000000               0.022310727              -0.201292150               0.000000000               0.025402210              -0.224269676               0.000000000               0.028493692              -0.247247203               0.000000000               0.031585175              -0.270224730               0.000000000               0.034676657              -0.293202257               0.000000000               0.037768140              -0.316179784               0.000000000               0.040859622              -0.339157311               0.000000000               0.043951105              -0.362134838               0.000000000               0.047042587              -0.385112365               0.000000000               0.050134070              -0.408089892               0.000000000               0.053225552              -0.431067419               0.000000000               0.056317035              -0.454044946               0.000000000               0.059408517              -0.477022473               0.000000000               0.062500000              -0.500000000               0.000000000               0.000000000              -0.133000000               0.000000000               0.000000000              -0.155937500               0.000000000               0.000000000              -0.178875000               0.000000000               0.000000000              -0.201812500               0.000000000               0.000000000              -0.224750000               0.000000000               0.000000000              -0.247687500               0.000000000               0.000000000              -0.270625000               0.000000000               0.000000000              -0.293562500               0.000000000               0.000000000              -0.316500000               0.000000000               0.000000000              -0.339437500               0.000000000               0.000000000              -0.362375000               0.000000000               0.000000000              -0.385312500               0.000000000               0.000000000              -0.408250000               0.000000000               0.000000000              -0.431187500               0.000000000               0.000000000              -0.454125000               0.000000000               0.000000000              -0.477062500               0.000000000               0.000000000              -0.500000000               0.000000000              -0.133000000               0.000000000               0.000000000              -0.155937500               0.000000000               0.000000000              -0.178875000               0.000000000               0.000000000              -0.201812500               0.000000000               0.000000000              -0.224750000               0.000000000               0.000000000              -0.247687500               0.000000000               0.000000000              -0.270625000               0.000000000               0.000000000              -0.293562500               0.000000000               0.000000000              -0.316500000               0.000000000               0.000000000              -0.339437500               0.000000000               0.000000000              -0.362375000               0.000000000               0.000000000              -0.385312500               0.000000000               0.000000000              -0.408250000               0.000000000               0.000000000              -0.431187500               0.000000000               0.000000000              -0.454125000               0.000000000               0.000000000              -0.477062500               0.000000000               0.000000000              -0.500000000               0.000000000               0.000000000              -0.132359569              -0.013036280               0.000000000              -0.155337096              -0.016127762               0.000000000              -0.178314623              -0.019219245               0.000000000              -0.201292150              -0.022310727               0.000000000              -0.224269676              -0.025402210               0.000000000              -0.247247203              -0.028493692               0.000000000              -0.270224730              -0.031585175               0.000000000              -0.293202257              -0.034676657               0.000000000              -0.316179784              -0.037768140               0.000000000              -0.339157311              -0.040859622               0.000000000              -0.362134838              -0.043951105               0.000000000              -0.385112365              -0.047042587               0.000000000              -0.408089892              -0.050134070               0.000000000              -0.431067419              -0.053225552               0.000000000              -0.454044946              -0.056317035               0.000000000              -0.477022473              -0.059408517               0.000000000              -0.500000000              -0.062500000               0.000000000              -0.130444442              -0.025947013               0.000000000              -0.153541665              -0.032137825               0.000000000              -0.176638887              -0.038328636               0.000000000              -0.199736109              -0.044519448               0.000000000              -0.222833332              -0.050710260               0.000000000              -0.245930554              -0.056901071               0.000000000              -0.269027776              -0.063091883               0.000000000              -0.292124999              -0.069282695               0.000000000              -0.315222221              -0.075473506               0.000000000              -0.338319444              -0.081664318               0.000000000              -0.361416666              -0.087855130               0.000000000              -0.384513888              -0.094045942               0.000000000              -0.407611111              -0.100236753               0.000000000              -0.430708333              -0.106427565               0.000000000              -0.453805555              -0.112618377               0.000000000              -0.476902778              -0.118809188               0.000000000              -0.500000000              -0.125000000               0.000000000              -0.127273065              -0.038607862               0.000000000              -0.150568498              -0.047913621               0.000000000              -0.173863932              -0.057219379               0.000000000              -0.197159365              -0.066525138               0.000000000              -0.220454798              -0.075830897               0.000000000              -0.243750232              -0.085136655               0.000000000              -0.267045665              -0.094442414               0.000000000              -0.290341099              -0.103748172               0.000000000              -0.313636532              -0.113053931               0.000000000              -0.336931966              -0.122359690               0.000000000              -0.360227399              -0.131665448               0.000000000              -0.383522833              -0.140971207               0.000000000              -0.406818266              -0.150276966               0.000000000              -0.430113700              -0.159582724               0.000000000              -0.453409133              -0.168888483               0.000000000              -0.476704567              -0.178194241               0.000000000              -0.500000000              -0.187500000               0.000000000              -0.122875978              -0.050896897               0.000000000              -0.146446229              -0.063340840               0.000000000              -0.170016481              -0.075784784               0.000000000              -0.193586732              -0.088228728               0.000000000              -0.217156983              -0.100672672               0.000000000              -0.240727235              -0.113116616               0.000000000              -0.264297486              -0.125560560               0.000000000              -0.287867738              -0.138004504               0.000000000              -0.311437989              -0.150448448               0.000000000              -0.335008240              -0.162892392               0.000000000              -0.358578492              -0.175336336               0.000000000              -0.382148743              -0.187780280               0.000000000              -0.405718994              -0.200224224               0.000000000              -0.429289246              -0.212668168               0.000000000              -0.452859497              -0.225112112               0.000000000              -0.476429749              -0.237556056               0.000000000              -0.500000000              -0.250000000               0.000000000              -0.117295528              -0.062695766               0.000000000              -0.141214558              -0.078308531               0.000000000              -0.165133587              -0.093921295               0.000000000              -0.189052617              -0.109534060               0.000000000              -0.212971646              -0.125146824               0.000000000              -0.236890676              -0.140759589               0.000000000              -0.260809705              -0.156372354               0.000000000              -0.284728735              -0.171985118               0.000000000              -0.308647764              -0.187597883               0.000000000              -0.332566794              -0.203210648               0.000000000              -0.356485823              -0.218823412               0.000000000              -0.380404853              -0.234436177               0.000000000              -0.404323882              -0.250048941               0.000000000              -0.428242912              -0.265661706               0.000000000              -0.452161941              -0.281274471               0.000000000              -0.476080971              -0.296887235               0.000000000              -0.500000000              -0.312500000               0.000000000              -0.110585458              -0.073890841               0.000000000              -0.134923867              -0.092710163               0.000000000              -0.159262276              -0.111529486               0.000000000              -0.183600685              -0.130348808               0.000000000              -0.207939094              -0.149168131               0.000000000              -0.232277503              -0.167987453               0.000000000              -0.256615912              -0.186806776               0.000000000              -0.280954320              -0.205626098               0.000000000              -0.305292729              -0.224445420               0.000000000              -0.329631138              -0.243264743               0.000000000              -0.353969547              -0.262084065               0.000000000              -0.378307956              -0.280903388               0.000000000              -0.402646365              -0.299722710               0.000000000              -0.426984773              -0.318542033               0.000000000              -0.451323182              -0.337361355               0.000000000              -0.475661591              -0.356180678               0.000000000              -0.500000000              -0.375000000               0.000000000              -0.102810390              -0.084374307               0.000000000              -0.127634741              -0.106444663               0.000000000              -0.152459092              -0.128515018               0.000000000              -0.177283442              -0.150585374               0.000000000              -0.202107793              -0.172655730               0.000000000              -0.226932143              -0.194726086               0.000000000              -0.251756494              -0.216796442               0.000000000              -0.276580845              -0.238866798               0.000000000              -0.301405195              -0.260937153               0.000000000              -0.326229546              -0.283007509               0.000000000              -0.351053896              -0.305077865               0.000000000              -0.375878247              -0.327148221               0.000000000              -0.400702598              -0.349218577               0.000000000              -0.425526948              -0.371288933               0.000000000              -0.450351299              -0.393359288               0.000000000              -0.475175649              -0.415429644               0.000000000              -0.500000000              -0.437500000               0.000000000              -0.094045202              -0.094045202               0.000000000              -0.119417377              -0.119417377               0.000000000              -0.144789552              -0.144789552               0.000000000              -0.170161727              -0.170161727               0.000000000              -0.195533901              -0.195533901               0.000000000              -0.220906076              -0.220906076               0.000000000              -0.246278251              -0.246278251               0.000000000              -0.271650426              -0.271650426               0.000000000              -0.297022601              -0.297022601               0.000000000              -0.322394776              -0.322394776               0.000000000              -0.347766951              -0.347766951               0.000000000              -0.373139126              -0.373139126               0.000000000              -0.398511300              -0.398511300               0.000000000              -0.423883475              -0.423883475               0.000000000              -0.449255650              -0.449255650               0.000000000              -0.474627825              -0.474627825               0.000000000              -0.500000000              -0.500000000               0.000000000              -0.084374307              -0.102810390               0.000000000              -0.106444663              -0.127634741               0.000000000              -0.128515018              -0.152459092               0.000000000              -0.150585374              -0.177283442               0.000000000              -0.172655730              -0.202107793               0.000000000              -0.194726086              -0.226932143               0.000000000              -0.216796442              -0.251756494               0.000000000              -0.238866798              -0.276580845               0.000000000              -0.260937153              -0.301405195               0.000000000              -0.283007509              -0.326229546               0.000000000              -0.305077865              -0.351053896               0.000000000              -0.327148221              -0.375878247               0.000000000              -0.349218577              -0.400702598               0.000000000              -0.371288933              -0.425526948               0.000000000              -0.393359288              -0.450351299               0.000000000              -0.415429644              -0.475175649               0.000000000              -0.437500000              -0.500000000               0.000000000              -0.073890841              -0.110585458               0.000000000              -0.092710163              -0.134923867               0.000000000              -0.111529486              -0.159262276               0.000000000              -0.130348808              -0.183600685               0.000000000              -0.149168131              -0.207939094               0.000000000              -0.167987453              -0.232277503               0.000000000              -0.186806776              -0.256615912               0.000000000              -0.205626098              -0.280954320               0.000000000              -0.224445420              -0.305292729               0.000000000              -0.243264743              -0.329631138               0.000000000              -0.262084065              -0.353969547               0.000000000              -0.280903388              -0.378307956               0.000000000              -0.299722710              -0.402646365               0.000000000              -0.318542033              -0.426984773               0.000000000              -0.337361355              -0.451323182               0.000000000              -0.356180678              -0.475661591               0.000000000              -0.375000000              -0.500000000               0.000000000              -0.062695766              -0.117295528               0.000000000              -0.078308531              -0.141214558               0.000000000              -0.093921295              -0.165133587               0.000000000              -0.109534060              -0.189052617               0.000000000              -0.125146824              -0.212971646               0.000000000              -0.140759589              -0.236890676               0.000000000              -0.156372354              -0.260809705               0.000000000              -0.171985118              -0.284728735               0.000000000              -0.187597883              -0.308647764               0.000000000              -0.203210648              -0.332566794               0.000000000              -0.218823412              -0.356485823               0.000000000              -0.234436177              -0.380404853               0.000000000              -0.250048941              -0.404323882               0.000000000              -0.265661706              -0.428242912               0.000000000              -0.281274471              -0.452161941               0.000000000              -0.296887235              -0.476080971               0.000000000              -0.312500000              -0.500000000               0.000000000              -0.050896897              -0.122875978               0.000000000              -0.063340840              -0.146446229               0.000000000              -0.075784784              -0.170016481               0.000000000              -0.088228728              -0.193586732               0.000000000              -0.100672672              -0.217156983               0.000000000              -0.113116616              -0.240727235               0.000000000              -0.125560560              -0.264297486               0.000000000              -0.138004504              -0.287867738               0.000000000              -0.150448448              -0.311437989               0.000000000              -0.162892392              -0.335008240               0.000000000              -0.175336336              -0.358578492               0.000000000              -0.187780280              -0.382148743               0.000000000              -0.200224224              -0.405718994               0.000000000              -0.212668168              -0.429289246               0.000000000              -0.225112112              -0.452859497               0.000000000              -0.237556056              -0.476429749               0.000000000              -0.250000000              -0.500000000               0.000000000              -0.038607862              -0.127273065               0.000000000              -0.047913621              -0.150568498               0.000000000              -0.057219379              -0.173863932               0.000000000              -0.066525138              -0.197159365               0.000000000              -0.075830897              -0.220454798               0.000000000              -0.085136655              -0.243750232               0.000000000              -0.094442414              -0.267045665               0.000000000              -0.103748172              -0.290341099               0.000000000              -0.113053931              -0.313636532               0.000000000              -0.122359690              -0.336931966               0.000000000              -0.131665448              -0.360227399               0.000000000              -0.140971207              -0.383522833               0.000000000              -0.150276966              -0.406818266               0.000000000              -0.159582724              -0.430113700               0.000000000              -0.168888483              -0.453409133               0.000000000              -0.178194241              -0.476704567               0.000000000              -0.187500000              -0.500000000               0.000000000              -0.025947013              -0.130444442               0.000000000              -0.032137825              -0.153541665               0.000000000              -0.038328636              -0.176638887               0.000000000              -0.044519448              -0.199736109               0.000000000              -0.050710260              -0.222833332               0.000000000              -0.056901071              -0.245930554               0.000000000              -0.063091883              -0.269027776               0.000000000              -0.069282695              -0.292124999               0.000000000              -0.075473506              -0.315222221               0.000000000              -0.081664318              -0.338319444               0.000000000              -0.087855130              -0.361416666               0.000000000              -0.094045942              -0.384513888               0.000000000              -0.100236753              -0.407611111               0.000000000              -0.106427565              -0.430708333               0.000000000              -0.112618377              -0.453805555               0.000000000              -0.118809188              -0.476902778               0.000000000              -0.125000000              -0.500000000               0.000000000              -0.013036280              -0.132359569               0.000000000              -0.016127762              -0.155337096               0.000000000              -0.019219245              -0.178314623               0.000000000              -0.022310727              -0.201292150               0.000000000              -0.025402210              -0.224269676               0.000000000              -0.028493692              -0.247247203               0.000000000              -0.031585175              -0.270224730               0.000000000              -0.034676657              -0.293202257               0.000000000              -0.037768140              -0.316179784               0.000000000              -0.040859622              -0.339157311               0.000000000              -0.043951105              -0.362134838               0.000000000              -0.047042587              -0.385112365               0.000000000              -0.050134070              -0.408089892               0.000000000              -0.053225552              -0.431067419               0.000000000              -0.056317035              -0.454044946               0.000000000              -0.059408517              -0.477022473               0.000000000              -0.062500000              -0.500000000               0.000000000               0.000000000              -0.133000000               0.000000000               0.000000000              -0.155937500               0.000000000               0.000000000              -0.178875000               0.000000000               0.000000000              -0.201812500               0.000000000               0.000000000              -0.224750000               0.000000000               0.000000000              -0.247687500               0.000000000               0.000000000              -0.270625000               0.000000000               0.000000000              -0.293562500               0.000000000               0.000000000              -0.316500000               0.000000000               0.000000000              -0.339437500               0.000000000               0.000000000              -0.362375000               0.000000000               0.000000000              -0.385312500               0.000000000               0.000000000              -0.408250000               0.000000000               0.000000000              -0.431187500               0.000000000               0.000000000              -0.454125000               0.000000000               0.000000000              -0.477062500               0.000000000               0.000000000              -0.500000000               0.000000000              -0.133000000               0.000000000               0.000000000              -0.155937500               0.000000000               0.000000000              -0.178875000               0.000000000               0.000000000              -0.201812500               0.000000000               0.000000000              -0.224750000               0.000000000               0.000000000              -0.247687500               0.000000000               0.000000000              -0.270625000               0.000000000               0.000000000              -0.293562500               0.000000000               0.000000000              -0.316500000               0.000000000               0.000000000              -0.339437500               0.000000000               0.000000000              -0.362375000               0.000000000               0.000000000              -0.385312500               0.000000000               0.000000000              -0.408250000               0.000000000               0.000000000              -0.431187500               0.000000000               0.000000000              -0.454125000               0.000000000               0.000000000              -0.477062500               0.000000000               0.000000000              -0.500000000               0.000000000               0.000000000              -0.132359569               0.013036280               0.000000000              -0.155337096               0.016127762               0.000000000              -0.178314623               0.019219245               0.000000000              -0.201292150               0.022310727               0.000000000              -0.224269676               0.025402210               0.000000000              -0.247247203               0.028493692               0.000000000              -0.270224730               0.031585175               0.000000000              -0.293202257               0.034676657               0.000000000              -0.316179784               0.037768140               0.000000000              -0.339157311               0.040859622               0.000000000              -0.362134838               0.043951105               0.000000000              -0.385112365               0.047042587               0.000000000              -0.408089892               0.050134070               0.000000000              -0.431067419               0.053225552               0.000000000              -0.454044946               0.056317035               0.000000000              -0.477022473               0.059408517               0.000000000              -0.500000000               0.062500000               0.000000000              -0.130444442               0.025947013               0.000000000              -0.153541665               0.032137825               0.000000000              -0.176638887               0.038328636               0.000000000              -0.199736109               0.044519448               0.000000000              -0.222833332               0.050710260               0.000000000              -0.245930554               0.056901071               0.000000000              -0.269027776               0.063091883               0.000000000              -0.292124999               0.069282695               0.000000000              -0.315222221               0.075473506               0.000000000              -0.338319444               0.081664318               0.000000000              -0.361416666               0.087855130               0.000000000              -0.384513888               0.094045942               0.000000000              -0.407611111               0.100236753               0.000000000              -0.430708333               0.106427565               0.000000000              -0.453805555               0.112618377               0.000000000              -0.476902778               0.118809188               0.000000000              -0.500000000               0.125000000               0.000000000              -0.127273065               0.038607862               0.000000000              -0.150568498               0.047913621               0.000000000              -0.173863932               0.057219379               0.000000000              -0.197159365               0.066525138               0.000000000              -0.220454798               0.075830897               0.000000000              -0.243750232               0.085136655               0.000000000              -0.267045665               0.094442414               0.000000000              -0.290341099               0.103748172               0.000000000              -0.313636532               0.113053931               0.000000000              -0.336931966               0.122359690               0.000000000              -0.360227399               0.131665448               0.000000000              -0.383522833               0.140971207               0.000000000              -0.406818266               0.150276966               0.000000000              -0.430113700               0.159582724               0.000000000              -0.453409133               0.168888483               0.000000000              -0.476704567               0.178194241               0.000000000              -0.500000000               0.187500000               0.000000000              -0.122875978               0.050896897               0.000000000              -0.146446229               0.063340840               0.000000000              -0.170016481               0.075784784               0.000000000              -0.193586732               0.088228728               0.000000000              -0.217156983               0.100672672               0.000000000              -0.240727235               0.113116616               0.000000000              -0.264297486               0.125560560               0.000000000              -0.287867738               0.138004504               0.000000000              -0.311437989               0.150448448               0.000000000              -0.335008240               0.162892392               0.000000000              -0.358578492               0.175336336               0.000000000              -0.382148743               0.187780280               0.000000000              -0.405718994               0.200224224               0.000000000              -0.429289246               0.212668168               0.000000000              -0.452859497               0.225112112               0.000000000              -0.476429749               0.237556056               0.000000000              -0.500000000               0.250000000               0.000000000              -0.117295528               0.062695766               0.000000000              -0.141214558               0.078308531               0.000000000              -0.165133587               0.093921295               0.000000000              -0.189052617               0.109534060               0.000000000              -0.212971646               0.125146824               0.000000000              -0.236890676               0.140759589               0.000000000              -0.260809705               0.156372354               0.000000000              -0.284728735               0.171985118               0.000000000              -0.308647764               0.187597883               0.000000000              -0.332566794               0.203210648               0.000000000              -0.356485823               0.218823412               0.000000000              -0.380404853               0.234436177               0.000000000              -0.404323882               0.250048941               0.000000000              -0.428242912               0.265661706               0.000000000              -0.452161941               0.281274471               0.000000000              -0.476080971               0.296887235               0.000000000              -0.500000000               0.312500000               0.000000000              -0.110585458               0.073890841               0.000000000              -0.134923867               0.092710163               0.000000000              -0.159262276               0.111529486               0.000000000              -0.183600685               0.130348808               0.000000000              -0.207939094               0.149168131               0.000000000              -0.232277503               0.167987453               0.000000000              -0.256615912               0.186806776               0.000000000              -0.280954320               0.205626098               0.000000000              -0.305292729               0.224445420               0.000000000              -0.329631138               0.243264743               0.000000000              -0.353969547               0.262084065               0.000000000              -0.378307956               0.280903388               0.000000000              -0.402646365               0.299722710               0.000000000              -0.426984773               0.318542033               0.000000000              -0.451323182               0.337361355               0.000000000              -0.475661591               0.356180678               0.000000000              -0.500000000               0.375000000               0.000000000              -0.102810390               0.084374307               0.000000000              -0.127634741               0.106444663               0.000000000              -0.152459092               0.128515018               0.000000000              -0.177283442               0.150585374               0.000000000              -0.202107793               0.172655730               0.000000000              -0.226932143               0.194726086               0.000000000              -0.251756494               0.216796442               0.000000000              -0.276580845               0.238866798               0.000000000              -0.301405195               0.260937153               0.000000000              -0.326229546               0.283007509               0.000000000              -0.351053896               0.305077865               0.000000000              -0.375878247               0.327148221               0.000000000              -0.400702598               0.349218577               0.000000000              -0.425526948               0.371288933               0.000000000              -0.450351299               0.393359288               0.000000000              -0.475175649               0.415429644               0.000000000              -0.500000000               0.437500000               0.000000000              -0.094045202               0.094045202               0.000000000              -0.119417377               0.119417377               0.000000000              -0.144789552               0.144789552               0.000000000              -0.170161727               0.170161727               0.000000000              -0.195533901               0.195533901               0.000000000              -0.220906076               0.220906076               0.000000000              -0.246278251               0.246278251               0.000000000              -0.271650426               0.271650426               0.000000000              -0.297022601               0.297022601               0.000000000              -0.322394776               0.322394776               0.000000000              -0.347766951               0.347766951               0.000000000              -0.373139126               0.373139126               0.000000000              -0.398511300               0.398511300               0.000000000              -0.423883475               0.423883475               0.000000000              -0.449255650               0.449255650               0.000000000              -0.474627825               0.474627825               0.000000000              -0.500000000               0.500000000               0.000000000              -0.084374307               0.102810390               0.000000000              -0.106444663               0.127634741               0.000000000              -0.128515018               0.152459092               0.000000000              -0.150585374               0.177283442               0.000000000              -0.172655730               0.202107793               0.000000000              -0.194726086               0.226932143               0.000000000              -0.216796442               0.251756494               0.000000000              -0.238866798               0.276580845               0.000000000              -0.260937153               0.301405195               0.000000000              -0.283007509               0.326229546               0.000000000              -0.305077865               0.351053896               0.000000000              -0.327148221               0.375878247               0.000000000              -0.349218577               0.400702598               0.000000000              -0.371288933               0.425526948               0.000000000              -0.393359288               0.450351299               0.000000000              -0.415429644               0.475175649               0.000000000              -0.437500000               0.500000000               0.000000000              -0.073890841               0.110585458               0.000000000              -0.092710163               0.134923867               0.000000000              -0.111529486               0.159262276               0.000000000              -0.130348808               0.183600685               0.000000000              -0.149168131               0.207939094               0.000000000              -0.167987453               0.232277503               0.000000000              -0.186806776               0.256615912               0.000000000              -0.205626098               0.280954320               0.000000000              -0.224445420               0.305292729               0.000000000              -0.243264743               0.329631138               0.000000000              -0.262084065               0.353969547               0.000000000              -0.280903388               0.378307956               0.000000000              -0.299722710               0.402646365               0.000000000              -0.318542033               0.426984773               0.000000000              -0.337361355               0.451323182               0.000000000              -0.356180678               0.475661591               0.000000000              -0.375000000               0.500000000               0.000000000              -0.062695766               0.117295528               0.000000000              -0.078308531               0.141214558               0.000000000              -0.093921295               0.165133587               0.000000000              -0.109534060               0.189052617               0.000000000              -0.125146824               0.212971646               0.000000000              -0.140759589               0.236890676               0.000000000              -0.156372354               0.260809705               0.000000000              -0.171985118               0.284728735               0.000000000              -0.187597883               0.308647764               0.000000000              -0.203210648               0.332566794               0.000000000              -0.218823412               0.356485823               0.000000000              -0.234436177               0.380404853               0.000000000              -0.250048941               0.404323882               0.000000000              -0.265661706               0.428242912               0.000000000              -0.281274471               0.452161941               0.000000000              -0.296887235               0.476080971               0.000000000              -0.312500000               0.500000000               0.000000000              -0.050896897               0.122875978               0.000000000              -0.063340840               0.146446229               0.000000000              -0.075784784               0.170016481               0.000000000              -0.088228728               0.193586732               0.000000000              -0.100672672               0.217156983               0.000000000              -0.113116616               0.240727235               0.000000000              -0.125560560               0.264297486               0.000000000              -0.138004504               0.287867738               0.000000000              -0.150448448               0.311437989               0.000000000              -0.162892392               0.335008240               0.000000000              -0.175336336               0.358578492               0.000000000              -0.187780280               0.382148743               0.000000000              -0.200224224               0.405718994               0.000000000              -0.212668168               0.429289246               0.000000000              -0.225112112               0.452859497               0.000000000              -0.237556056               0.476429749               0.000000000              -0.250000000               0.500000000               0.000000000              -0.038607862               0.127273065               0.000000000              -0.047913621               0.150568498               0.000000000              -0.057219379               0.173863932               0.000000000              -0.066525138               0.197159365               0.000000000              -0.075830897               0.220454798               0.000000000              -0.085136655               0.243750232               0.000000000              -0.094442414               0.267045665               0.000000000              -0.103748172               0.290341099               0.000000000              -0.113053931               0.313636532               0.000000000              -0.122359690               0.336931966               0.000000000              -0.131665448               0.360227399               0.000000000              -0.140971207               0.383522833               0.000000000              -0.150276966               0.406818266               0.000000000              -0.159582724               0.430113700               0.000000000              -0.168888483               0.453409133               0.000000000              -0.178194241               0.476704567               0.000000000              -0.187500000               0.500000000               0.000000000              -0.025947013               0.130444442               0.000000000              -0.032137825               0.153541665               0.000000000              -0.038328636               0.176638887               0.000000000              -0.044519448               0.199736109               0.000000000              -0.050710260               0.222833332               0.000000000              -0.056901071               0.245930554               0.000000000              -0.063091883               0.269027776               0.000000000              -0.069282695               0.292124999               0.000000000              -0.075473506               0.315222221               0.000000000              -0.081664318               0.338319444               0.000000000              -0.087855130               0.361416666               0.000000000              -0.094045942               0.384513888               0.000000000              -0.100236753               0.407611111               0.000000000              -0.106427565               0.430708333               0.000000000              -0.112618377               0.453805555               0.000000000              -0.118809188               0.476902778               0.000000000              -0.125000000               0.500000000               0.000000000              -0.013036280               0.132359569               0.000000000              -0.016127762               0.155337096               0.000000000              -0.019219245               0.178314623               0.000000000              -0.022310727               0.201292150               0.000000000              -0.025402210               0.224269676               0.000000000              -0.028493692               0.247247203               0.000000000              -0.031585175               0.270224730               0.000000000              -0.034676657               0.293202257               0.000000000              -0.037768140               0.316179784               0.000000000              -0.040859622               0.339157311               0.000000000              -0.043951105               0.362134838               0.000000000              -0.047042587               0.385112365               0.000000000              -0.050134070               0.408089892               0.000000000              -0.053225552               0.431067419               0.000000000              -0.056317035               0.454044946               0.000000000              -0.059408517               0.477022473               0.000000000              -0.062500000               0.500000000               0.000000000               0.000000000               0.133000000               0.000000000               0.000000000               0.155937500               0.000000000               0.000000000               0.178875000               0.000000000               0.000000000               0.201812500               0.000000000               0.000000000               0.224750000               0.000000000               0.000000000               0.247687500               0.000000000               0.000000000               0.270625000               0.000000000               0.000000000               0.293562500               0.000000000               0.000000000               0.316500000               0.000000000               0.000000000               0.339437500               0.000000000               0.000000000               0.362375000               0.000000000               0.000000000               0.385312500               0.000000000               0.000000000               0.408250000               0.000000000               0.000000000               0.431187500               0.000000000               0.000000000               0.454125000               0.000000000               0.000000000               0.477062500               0.000000000               0.000000000               0.500000000               0.000000000 </DataArray>
</Points>
<Cells>
<DataArray type="Int32"                                    Name="connectivity"                                                      NumberOfComponents=" 1" format="ascii">
         0          1         18         17          1          2         19         18          2          3         20         19          3          4         21         20          4          5         22         21          5          6         23         22          6          7         24         23          7          8         25         24          8          9         26         25          9         10         27         26         10         11         28         27         11         12         29         28         12         13         30         29         13         14         31         30         14         15         32         31         15         16         33         32         17         18         35         34         18         19         36         35         19         20         37         36         20         21         38         37         21         22         39         38         22         23         40         39         23         24         41         40         24         25         42         41         25         26         43         42         26         27         44         43         27         28         45         44         28         29         46         45         29         30         47         46         30         31         48         47         31         32         49         48         32         33         50         49         34         35         52         51         35         36         53         52         36         37         54         53         37         38         55         54         38         39         56         55         39         40         57         56         40         41         58         57         41         42         59         58         42         43         60         59         43         44         61         60         44         45         62         61         45         46         63         62         46         47         64         63         47         48         65         64         48         49         66         65         49         50         67         66         51         52         69         68         52         53         70         69         53         54         71         70         54         55         72         71         55         56         73         72         56         57         74         73         57         58         75         74         58         59         76         75         59         60         77         76         60         61         78         77         61         62         79         78         62         63         80         79         63         64         81         80         64         65         82         81         65         66         83         82         66         67         84         83         68         69         86         85         69         70         87         86         70         71         88         87         71         72         89         88         72         73         90         89         73         74         91         90         74         75         92         91         75         76         93         92         76         77         94         93         77         78         95         94         78         79         96         95         79         80         97         96         80         81         98         97         81         82         99         98         82         83        100         99         83         84        101        100         85         86        103        102         86         87        104        103         87         88        105        104         88         89        106        105         89         90        107        106         90         91        108        107         91         92        109        108         92         93        110        109         93         94        111        110         94         95        112        111         95         96        113        112         96         97        114        113         97         98        115        114         98         99        116        115         99        100        117        116        100        101        118        117        102        103        120        119        103        104        121        120        104        105        122        121        105        106        123        122        106        107        124        123        107        108        125        124        108        109        126        125        109        110        127        126        110        111        128        127        111        112        129        128        112        113        130        129        113        114        131        130        114        115        132        131        115        116        133        132        116        117        134        133        117        118        135        134        119        120        137        136        120        121        138        137        121        122        139        138        122        123        140        139        123        124        141        140        124        125        142        141        125        126        143        142        126        127        144        143        127        128        145        144        128        129        146        145        129        130        147        146        130        131        148        147        131        132        149        148        132        133        150        149        133        134        151        150        134        135        152        151        136        137        154        153        137        138        155        154        138        139        156        155        139        140        157        156        140        141        158        157        141        142        159        158        142        143        160        159        143        144        161        160        144        145        162        161        145        146        163        162        146        147        164        163        147        148        165        164        148        149        166        165        149        150        167        166        150        151        168        167        151        152        169        168        153        154        171        170        154        155        172        171        155        156        173        172        156        157        174        173        157        158        175        174        158        159        176        175        159        160        177        176        160        161        178        177        161        162        179        178        162        163        180        179        163        164        181        180        164        165        182        181        165        166        183        182        166        167        184        183        167        168        185        184        168        169        186        185        170        171        188        187        171        172        189        188        172        173        190        189        173        174        191        190        174        175        192        191        175        176        193        192        176        177        194        193        177        178        195        194        178        179        196        195        179        180        197        196        180        181        198        197        181        182        199        198        182        183        200        199        183        184        201        200        184        185        202        201        185        186        203        202        187        188        205        204        188        189        206        205        189        190        207        206        190        191        208        207        191        192        209        208        192        193        210        209        193        194        211        210        194        195        212        211        195        196        213        212        196        197        214        213        197        198        215        214        198        199        216        215        199        200        217        216        200        201        218        217        201        202        219        218        202        203        220        219        204        205        222        221        205        206        223        222        206        207        224        223        207        208        225        224        208        209        226        225        209        210        227        226        210        211        228        227        211        212        229        228        212        213        230        229        213        214        231        230        214        215        232        231        215        216        233        232        216        217        234        233        217        218        235        234        218        219        236        235        219        220        237        236        221        222        239        238        222        223        240        239        223        224        241        240        224        225        242        241        225        226        243        242        226        227        244        243        227        228        245        244        228        229        246        245        229        230        247        246        230        231        248        247        231        232        249        248        232        233        250        249        233        234        251        250        234        235        252        251        235        236        253        252        236        237        254        253        238        239        256        255        239        240        257        256        240        241        258        257        241        242        259        258        242        243        260        259        243        244        261        260        244        245        262        261        245        246        263        262        246        247        264        263        247        248        265        264        248        249        266        265        249        250        267        266        250        251        268        267        251        252        269        268        252        253        270        269        253        254        271        270        255        256        273        272        256        257        274        273        257        258        275        274        258        259        276        275        259        260        277        276        260        261        278        277        261        262        279        278        262        263        280        279        263        264        281        280        264        265        282        281        265        266        283        282        266        267        284        283        267        268        285        284        268        269        286        285        269        270        287        286        270        271        288        287        306        307          1          0        307        308          2          1        308        309          3          2        309        310          4          3        310        311          5          4        311        312          6          5        312        313          7          6        313        314          8          7        314        315          9          8        315        316         10          9        316        317         11         10        317        318         12         11        318        319         13         12        319        320         14         13        320        321         15         14        321        322         16         15        323        324        307        306        324        325        308        307        325        326        309        308        326        327        310        309        327        328        311        310        328        329        312        311        329        330        313        312        330        331        314        313        331        332        315        314        332        333        316        315        333        334        317        316        334        335        318        317        335        336        319        318        336        337        320        319        337        338        321        320        338        339        322        321        340        341        324        323        341        342        325        324        342        343        326        325        343        344        327        326        344        345        328        327        345        346        329        328        346        347        330        329        347        348        331        330        348        349        332        331        349        350        333        332        350        351        334        333        351        352        335        334        352        353        336        335        353        354        337        336        354        355        338        337        355        356        339        338        357        358        341        340        358        359        342        341        359        360        343        342        360        361        344        343        361        362        345        344        362        363        346        345        363        364        347        346        364        365        348        347        365        366        349        348        366        367        350        349        367        368        351        350        368        369        352        351        369        370        353        352        370        371        354        353        371        372        355        354        372        373        356        355        374        375        358        357        375        376        359        358        376        377        360        359        377        378        361        360        378        379        362        361        379        380        363        362        380        381        364        363        381        382        365        364        382        383        366        365        383        384        367        366        384        385        368        367        385        386        369        368        386        387        370        369        387        388        371        370        388        389        372        371        389        390        373        372        391        392        375        374        392        393        376        375        393        394        377        376        394        395        378        377        395        396        379        378        396        397        380        379        397        398        381        380        398        399        382        381        399        400        383        382        400        401        384        383        401        402        385        384        402        403        386        385        403        404        387        386        404        405        388        387        405        406        389        388        406        407        390        389        408        409        392        391        409        410        393        392        410        411        394        393        411        412        395        394        412        413        396        395        413        414        397        396        414        415        398        397        415        416        399        398        416        417        400        399        417        418        401        400        418        419        402        401        419        420        403        402        420        421        404        403        421        422        405        404        422        423        406        405        423        424        407        406        425        426        409        408        426        427        410        409        427        428        411        410        428        429        412        411        429        430        413        412        430        431        414        413        431        432        415        414        432        433        416        415        433        434        417        416        434        435        418        417        435        436        419        418        436        437        420        419        437        438        421        420        438        439        422        421        439        440        423        422        440        441        424        423        442        443        426        425        443        444        427        426        444        445        428        427        445        446        429        428        446        447        430        429        447        448        431        430        448        449        432        431        449        450        433        432        450        451        434        433        451        452        435        434        452        453        436        435        453        454        437        436        454        455        438        437        455        456        439        438        456        457        440        439        457        458        441        440        459        460        443        442        460        461        444        443        461        462        445        444        462        463        446        445        463        464        447        446        464        465        448        447        465        466        449        448        466        467        450        449        467        468        451        450        468        469        452        451        469        470        453        452        470        471        454        453        471        472        455        454        472        473        456        455        473        474        457        456        474        475        458        457        476        477        460        459        477        478        461        460        478        479        462        461        479        480        463        462        480        481        464        463        481        482        465        464        482        483        466        465        483        484        467        466        484        485        468        467        485        486        469        468        486        487        470        469        487        488        471        470        488        489        472        471        489        490        473        472        490        491        474        473        491        492        475        474        493        494        477        476        494        495        478        477        495        496        479        478        496        497        480        479        497        498        481        480        498        499        482        481        499        500        483        482        500        501        484        483        501        502        485        484        502        503        486        485        503        504        487        486        504        505        488        487        505        506        489        488        506        507        490        489        507        508        491        490        508        509        492        491        510        511        494        493        511        512        495        494        512        513        496        495        513        514        497        496        514        515        498        497        515        516        499        498        516        517        500        499        517        518        501        500        518        519        502        501        519        520        503        502        520        521        504        503        521        522        505        504        522        523        506        505        523        524        507        506        524        525        508        507        525        526        509        508        527        528        511        510        528        529        512        511        529        530        513        512        530        531        514        513        531        532        515        514        532        533        516        515        533        534        517        516        534        535        518        517        535        536        519        518        536        537        520        519        537        538        521        520        538        539        522        521        539        540        523        522        540        541        524        523        541        542        525        524        542        543        526        525        544        545        528        527        545        546        529        528        546        547        530        529        547        548        531        530        548        549        532        531        549        550        533        532        550        551        534        533        551        552        535        534        552        553        536        535        553        554        537        536        554        555        538        537        555        556        539        538        556        557        540        539        557        558        541        540        558        559        542        541        559        560        543        542        561        562        545        544        562        563        546        545        563        564        547        546        564        565        548        547        565        566        549        548        566        567        550        549        567        568        551        550        568        569        552        551        569        570        553        552        570        571        554        553        571        572        555        554        572        573        556        555        573        574        557        556        574        575        558        557        575        576        559        558        576        577        560        559        578        579        596        595        579        580        597        596        580        581        598        597        581        582        599        598        582        583        600        599        583        584        601        600        584        585        602        601        585        586        603        602        586        587        604        603        587        588        605        604        588        589        606        605        589        590        607        606        590        591        608        607        591        592        609        608        592        593        610        609        593        594        611        610        595        596        613        612        596        597        614        613        597        598        615        614        598        599        616        615        599        600        617        616        600        601        618        617        601        602        619        618        602        603        620        619        603        604        621        620        604        605        622        621        605        606        623        622        606        607        624        623        607        608        625        624        608        609        626        625        609        610        627        626        610        611        628        627        612        613        630        629        613        614        631        630        614        615        632        631        615        616        633        632        616        617        634        633        617        618        635        634        618        619        636        635        619        620        637        636        620        621        638        637        621        622        639        638        622        623        640        639        623        624        641        640        624        625        642        641        625        626        643        642        626        627        644        643        627        628        645        644        629        630        647        646        630        631        648        647        631        632        649        648        632        633        650        649        633        634        651        650        634        635        652        651        635        636        653        652        636        637        654        653        637        638        655        654        638        639        656        655        639        640        657        656        640        641        658        657        641        642        659        658        642        643        660        659        643        644        661        660        644        645        662        661        646        647        664        663        647        648        665        664        648        649        666        665        649        650        667        666        650        651        668        667        651        652        669        668        652        653        670        669        653        654        671        670        654        655        672        671        655        656        673        672        656        657        674        673        657        658        675        674        658        659        676        675        659        660        677        676        660        661        678        677        661        662        679        678        663        664        681        680        664        665        682        681        665        666        683        682        666        667        684        683        667        668        685        684        668        669        686        685        669        670        687        686        670        671        688        687        671        672        689        688        672        673        690        689        673        674        691        690        674        675        692        691        675        676        693        692        676        677        694        693        677        678        695        694        678        679        696        695        680        681        698        697        681        682        699        698        682        683        700        699        683        684        701        700        684        685        702        701        685        686        703        702        686        687        704        703        687        688        705        704        688        689        706        705        689        690        707        706        690        691        708        707        691        692        709        708        692        693        710        709        693        694        711        710        694        695        712        711        695        696        713        712        697        698        715        714        698        699        716        715        699        700        717        716        700        701        718        717        701        702        719        718        702        703        720        719        703        704        721        720        704        705        722        721        705        706        723        722        706        707        724        723        707        708        725        724        708        709        726        725        709        710        727        726        710        711        728        727        711        712        729        728        712        713        730        729        714        715        732        731        715        716        733        732        716        717        734        733        717        718        735        734        718        719        736        735        719        720        737        736        720        721        738        737        721        722        739        738        722        723        740        739        723        724        741        740        724        725        742        741        725        726        743        742        726        727        744        743        727        728        745        744        728        729        746        745        729        730        747        746        731        732        749        748        732        733        750        749        733        734        751        750        734        735        752        751        735        736        753        752        736        737        754        753        737        738        755        754        738        739        756        755        739        740        757        756        740        741        758        757        741        742        759        758        742        743        760        759        743        744        761        760        744        745        762        761        745        746        763        762        746        747        764        763        748        749        766        765        749        750        767        766        750        751        768        767        751        752        769        768        752        753        770        769        753        754        771        770        754        755        772        771        755        756        773        772        756        757        774        773        757        758        775        774        758        759        776        775        759        760        777        776        760        761        778        777        761        762        779        778        762        763        780        779        763        764        781        780        765        766        783        782        766        767        784        783        767        768        785        784        768        769        786        785        769        770        787        786        770        771        788        787        771        772        789        788        772        773        790        789        773        774        791        790        774        775        792        791        775        776        793        792        776        777        794        793        777        778        795        794        778        779        796        795        779        780        797        796        780        781        798        797        782        783        800        799        783        784        801        800        784        785        802        801        785        786        803        802        786        787        804        803        787        788        805        804        788        789        806        805        789        790        807        806        790        791        808        807        791        792        809        808        792        793        810        809        793        794        811        810        794        795        812        811        795        796        813        812        796        797        814        813        797        798        815        814        799        800        817        816        800        801        818        817        801        802        819        818        802        803        820        819        803        804        821        820        804        805        822        821        805        806        823        822        806        807        824        823        807        808        825        824        808        809        826        825        809        810        827        826        810        811        828        827        811        812        829        828        812        813        830        829        813        814        831        830        814        815        832        831        816        817        834        833        817        818        835        834        818        819        836        835        819        820        837        836        820        821        838        837        821        822        839        838        822        823        840        839        823        824        841        840        824        825        842        841        825        826        843        842        826        827        844        843        827        828        845        844        828        829        846        845        829        830        847        846        830        831        848        847        831        832        849        848        833        834        562        561        834        835        563        562        835        836        564        563        836        837        565        564        837        838        566        565        838        839        567        566        839        840        568        567        840        841        569        568        841        842        570        569        842        843        571        570        843        844        572        571        844        845        573        572        845        846        574        573        846        847        575        574        847        848        576        575        848        849        577        576        884        885        579        578        885        886        580        579        886        887        581        580        887        888        582        581        888        889        583        582        889        890        584        583        890        891        585        584        891        892        586        585        892        893        587        586        893        894        588        587        894        895        589        588        895        896        590        589        896        897        591        590        897        898        592        591        898        899        593        592        899        900        594        593        901        902        885        884        902        903        886        885        903        904        887        886        904        905        888        887        905        906        889        888        906        907        890        889        907        908        891        890        908        909        892        891        909        910        893        892        910        911        894        893        911        912        895        894        912        913        896        895        913        914        897        896        914        915        898        897        915        916        899        898        916        917        900        899        918        919        902        901        919        920        903        902        920        921        904        903        921        922        905        904        922        923        906        905        923        924        907        906        924        925        908        907        925        926        909        908        926        927        910        909        927        928        911        910        928        929        912        911        929        930        913        912        930        931        914        913        931        932        915        914        932        933        916        915        933        934        917        916        935        936        919        918        936        937        920        919        937        938        921        920        938        939        922        921        939        940        923        922        940        941        924        923        941        942        925        924        942        943        926        925        943        944        927        926        944        945        928        927        945        946        929        928        946        947        930        929        947        948        931        930        948        949        932        931        949        950        933        932        950        951        934        933        952        953        936        935        953        954        937        936        954        955        938        937        955        956        939        938        956        957        940        939        957        958        941        940        958        959        942        941        959        960        943        942        960        961        944        943        961        962        945        944        962        963        946        945        963        964        947        946        964        965        948        947        965        966        949        948        966        967        950        949        967        968        951        950        969        970        953        952        970        971        954        953        971        972        955        954        972        973        956        955        973        974        957        956        974        975        958        957        975        976        959        958        976        977        960        959        977        978        961        960        978        979        962        961        979        980        963        962        980        981        964        963        981        982        965        964        982        983        966        965        983        984        967        966        984        985        968        967        986        987        970        969        987        988        971        970        988        989        972        971        989        990        973        972        990        991        974        973        991        992        975        974        992        993        976        975        993        994        977        976        994        995        978        977        995        996        979        978        996        997        980        979        997        998        981        980        998        999        982        981        999       1000        983        982       1000       1001        984        983       1001       1002        985        984       1003       1004        987        986       1004       1005        988        987       1005       1006        989        988       1006       1007        990        989       1007       1008        991        990       1008       1009        992        991       1009       1010        993        992       1010       1011        994        993       1011       1012        995        994       1012       1013        996        995       1013       1014        997        996       1014       1015        998        997       1015       1016        999        998       1016       1017       1000        999       1017       1018       1001       1000       1018       1019       1002       1001       1020       1021       1004       1003       1021       1022       1005       1004       1022       1023       1006       1005       1023       1024       1007       1006       1024       1025       1008       1007       1025       1026       1009       1008       1026       1027       1010       1009       1027       1028       1011       1010       1028       1029       1012       1011       1029       1030       1013       1012       1030       1031       1014       1013       1031       1032       1015       1014       1032       1033       1016       1015       1033       1034       1017       1016       1034       1035       1018       1017       1035       1036       1019       1018       1037       1038       1021       1020       1038       1039       1022       1021       1039       1040       1023       1022       1040       1041       1024       1023       1041       1042       1025       1024       1042       1043       1026       1025       1043       1044       1027       1026       1044       1045       1028       1027       1045       1046       1029       1028       1046       1047       1030       1029       1047       1048       1031       1030       1048       1049       1032       1031       1049       1050       1033       1032       1050       1051       1034       1033       1051       1052       1035       1034       1052       1053       1036       1035       1054       1055       1038       1037       1055       1056       1039       1038       1056       1057       1040       1039       1057       1058       1041       1040       1058       1059       1042       1041       1059       1060       1043       1042       1060       1061       1044       1043       1061       1062       1045       1044       1062       1063       1046       1045       1063       1064       1047       1046       1064       1065       1048       1047       1065       1066       1049       1048       1066       1067       1050       1049       1067       1068       1051       1050       1068       1069       1052       1051       1069       1070       1053       1052       1071       1072       1055       1054       1072       1073       1056       1055       1073       1074       1057       1056       1074       1075       1058       1057       1075       1076       1059       1058       1076       1077       1060       1059       1077       1078       1061       1060       1078       1079       1062       1061       1079       1080       1063       1062       1080       1081       1064       1063       1081       1082       1065       1064       1082       1083       1066       1065       1083       1084       1067       1066       1084       1085       1068       1067       1085       1086       1069       1068       1086       1087       1070       1069       1088       1089       1072       1071       1089       1090       1073       1072       1090       1091       1074       1073       1091       1092       1075       1074       1092       1093       1076       1075       1093       1094       1077       1076       1094       1095       1078       1077       1095       1096       1079       1078       1096       1097       1080       1079       1097       1098       1081       1080       1098       1099       1082       1081       1099       1100       1083       1082       1100       1101       1084       1083       1101       1102       1085       1084       1102       1103       1086       1085       1103       1104       1087       1086       1105       1106       1089       1088       1106       1107       1090       1089       1107       1108       1091       1090       1108       1109       1092       1091       1109       1110       1093       1092       1110       1111       1094       1093       1111       1112       1095       1094       1112       1113       1096       1095       1113       1114       1097       1096       1114       1115       1098       1097       1115       1116       1099       1098       1116       1117       1100       1099       1117       1118       1101       1100       1118       1119       1102       1101       1119       1120       1103       1102       1120       1121       1104       1103       1122       1123       1106       1105       1123       1124       1107       1106       1124       1125       1108       1107       1125       1126       1109       1108       1126       1127       1110       1109       1127       1128       1111       1110       1128       1129       1112       1111       1129       1130       1113       1112       1130       1131       1114       1113       1131       1132       1115       1114       1132       1133       1116       1115       1133       1134       1117       1116       1134       1135       1118       1117       1135       1136       1119       1118       1136       1137       1120       1119       1137       1138       1121       1120        272        273       1123       1122        273        274       1124       1123        274        275       1125       1124        275        276       1126       1125        276        277       1127       1126        277        278       1128       1127        278        279       1129       1128        279        280       1130       1129        280        281       1131       1130        281        282       1132       1131        282        283       1133       1132        283        284       1134       1133        284        285       1135       1134        285        286       1136       1135        286        287       1137       1136        287        288       1138       1137 </DataArray>
<DataArray type="Int32"                                    Name="offsets"                                                      NumberOfComponents=" 1" format="ascii">
         4          8         12         16         20         24         28         32         36         40         44         48         52         56         60         64         68         72         76         80         84         88         92         96        100        104        108        112        116        120        124        128        132        136        140        144        148        152        156        160        164        168        172        176        180        184        188        192        196        200        204        208        212        216        220        224        228        232        236        240        244        248        252        256        260        264        268        272        276        280        284        288        292        296        300        304        308        312        316        320        324        328        332        336        340        344        348        352        356        360        364        368        372        376        380        384        388        392        396        400        404        408        412        416        420        424        428        432        436        440        444        448        452        456        460        464        468        472        476        480        484        488        492        496        500        504        508        512        516        520        524        528        532        536        540        544        548        552        556        560        564        568        572        576        580        584        588        592        596        600        604        608        612        616        620        624        628        632        636        640        644        648        652        656        660        664        668        672        676        680        684        688        692        696        700        704        708        712        716        720        724        728        732        736        740        744        748        752        756        760        764        768        772        776        780        784        788        792        796        800        804        808        812        816        820        824        828        832        836        840        844        848        852        856        860        864        868        872        876        880        884        888        892        896        900        904        908        912        916        920        924        928        932        936        940        944        948        952        956        960        964        968        972        976        980        984        988        992        996       1000       1004       1008       1012       1016       1020       1024       1028       1032       1036       1040       1044       1048       1052       1056       1060       1064       1068       1072       1076       1080       1084       1088       1092       1096       1100       1104       1108       1112       1116       1120       1124       1128       1132       1136       1140       1144       1148       1152       1156       1160       1164       1168       1172       1176       1180       1184       1188       1192       1196       1200       1204       1208       1212       1216       1220       1224       1228       1232       1236       1240       1244       1248       1252       1256       1260       1264       1268       1272       1276       1280       1284       1288       1292       1296       1300       1304       1308       1312       1316       1320       1324       1328       1332       1336       1340       1344       1348       1352       1356       1360       1364       1368       1372       1376       1380       1384       1388       1392       1396       1400       1404       1408       1412       1416       1420       1424       1428       1432       1436       1440       1444       1448       1452       1456       1460       1464       1468       1472       1476       1480       1484       1488       1492       1496       1500       1504       1508       1512       1516       1520       1524       1528       1532       1536       1540       1544       1548       1552       1556       1560       1564       1568       1572       1576       1580       1584       1588       1592       1596       1600       1604       1608       1612       1616       1620       1624       1628       1632       1636       1640       1644       1648       1652       1656       1660       1664       1668       1672       1676       1680       1684       1688       1692       1696       1700       1704       1708       1712       1716       1720       1724       1728       1732       1736       1740       1744       1748       1752       1756       1760       1764       1768       1772       1776       1780       1784       1788       1792       1796       1800       1804       1808       1812       1816       1820       1824       1828       1832       1836       1840       1844       1848       1852       1856       1860       1864       1868       1872       1876       1880       1884       1888       1892       1896       1900       1904       1908       1912       1916       1920       1924       1928       1932       1936       1940       1944       1948       1952       1956       1960       1964       1968       1972       1976       1980       1984       1988       1992       1996       2000       2004       2008       2012       2016       2020       2024       2028       2032       2036       2040       2044       2048       2052       2056       2060       2064       2068       2072       2076       2080       2084       2088       2092       2096       2100       2104       2108       2112       2116       2120       2124       2128       2132       2136       2140       2144       2148       2152       2156       2160       2164       2168       2172       2176       2180       2184       2188       2192       2196       2200       2204       2208       2212       2216       2220       2224       2228       2232       2236       2240       2244       2248       2252       2256       2260       2264       2268       2272       2276       2280       2284       2288       2292       2296       2300       2304       2308       2312       2316       2320       2324       2328       2332       2336       2340       2344       2348       2352       2356       2360       2364       2368       2372       2376       2380       2384       2388       2392       2396       2400       2404       2408       2412       2416       2420       2424       2428       2432       2436       2440       2444       2448       2452       2456       2460       2464       2468       2472       2476       2480       2484       2488       2492       2496       2500       2504       2508       2512       2516       2520       2524       2528       2532       2536       2540       2544       2548       2552       2556       2560       2564       2568       2572       2576       2580       2584       2588       2592       2596       2600       2604       2608       2612       2616       2620       2624       2628       2632       2636       2640       2644       2648       2652       2656       2660       2664       2668       2672       2676       2680       2684       2688       2692       2696       2700       2704       2708       2712       2716       2720       2724       2728       2732       2736       2740       2744       2748       2752       2756       2760       2764       2768       2772       2776       2780       2784       2788       2792       2796       2800       2804       2808       2812       2816       2820       2824       2828       2832       2836       2840       2844       2848       2852       2856       2860       2864       2868       2872       2876       2880       2884       2888       2892       2896       2900       2904       2908       2912       2916       2920       2924       2928       2932       2936       2940       2944       2948       2952       2956       2960       2964       2968       2972       2976       2980       2984       2988       2992       2996       3000       3004       3008       3012       3016       3020       3024       3028       3032       3036       3040       3044       3048       3052       3056       3060       3064       3068       3072       3076       3080       3084       3088       3092       3096       3100       3104       3108       3112       3116       3120       3124       3128       3132       3136       3140       3144       3148       3152       3156       3160       3164       3168       3172       3176       3180       3184       3188       3192       3196       3200       3204       3208       3212       3216       3220       3224       3228       3232       3236       3240       3244       3248       3252       3256       3260       3264       3268       3272       3276       3280       3284       3288       3292       3296       3300       3304       3308       3312       3316       3320       3324       3328       3332       3336       3340       3344       3348       3352       3356       3360       3364       3368       3372       3376       3380       3384       3388       3392       3396       3400       3404       3408       3412       3416       3420       3424       3428       3432       3436       3440       3444       3448       3452       3456       3460       3464       3468       3472       3476       3480       3484       3488       3492       3496       3500       3504       3508       3512       3516       3520       3524       3528       3532       3536       3540       3544       3548       3552       3556       3560       3564       3568       3572       3576       3580       3584       3588       3592       3596       3600       3604       3608       3612       3616       3620       3624       3628       3632       3636       3640       3644       3648       3652       3656       3660       3664       3668       3672       3676       3680       3684       3688       3692       3696       3700       3704       3708       3712       3716       3720       3724       3728       3732       3736       3740       3744       3748       3752       3756       3760       3764       3768       3772       3776       3780       3784       3788       3792       3796       3800       3804       3808       3812       3816       3820       3824       3828       3832       3836       3840       3844       3848       3852       3856       3860       3864       3868       3872       3876       3880       3884       3888       3892       3896       3900       3904       3908       3912       3916       3920       3924       3928       3932       3936       3940       3944       3948       3952       3956       3960       3964       3968       3972       3976       3980       3984       3988       3992       3996       4000       4004       4008       4012       4016       4020       4024       4028       4032       4036       4040       4044       4048       4052       4056       4060       4064       4068       4072       4076       4080       4084       4088       4092       4096 </DataArray>
<DataArray type="UInt8"                                    Name="types"                                                      NumberOfComponents=" 1" format="ascii">
         9          9          9          9          9          9          9          9          9          9          9          9          9          9          9          9          9          9          9          9          9          9          9          9          9          9          9          9          9          9          9          9          9          9          9          9          9          9          9          9          9          9          9          9          9          9          9          9          9          9          9          9          9          9          9          9          9          9          9          9          9          9          9          9          9          9          9          9          9          9          9          9          9          9          9          9          9          9          9          9          9          9          9          9          9          9          9          9          9          9          9          9          9          9          9          9          9          9          9          9          9          9          9          9          9          9          9          9          9          9          9          9          9          9          9          9          9          9          9          9          9          9          9          9          9          9          9          9          9          9          9          9          9          9          9          9          9          9          9          9          9          9          9          9          9          9          9          9          9          9          9          9          9          9          9          9          9          9          9          9          9          9          9          9          9          9          9          9          9          9          9          9          9          9          9          9          9          9          9          9          9          9          9          9          9          9          9          9          9          9          9          9          9          9          9          9          9          9          9          9          9          9          9          9          9          9          9          9          9          9          9          9          9          9          9          9          9          9          9          9          9          9          9          9          9          9          9          9          9          9          9          9          9          9          9          9          9          9          9          9          9          9          9          9          9          9          9          9          9          9          9          9          9          9          9          9          9          9          9          9          9          9          9          9          9          9          9          9          9          9          9          9          9          9          9          9          9          9          9          9          9          9          9          9          9          9          9          9          9          9          9          9          9          9          9          9          9          9          9          9          9          9          9          9          9          9          9          9          9          9          9          9          9          9          9          9          9          9          9          9          9          9          9          9          9          9          9          9          9          9          9          9          9          9          9          9          9          9          9          9          9          9          9          9          9          9          9          9          9          9          9          9          9          9          9          9          9          9          9          9          9          9          9          9          9          9          9          9          9          9          9          9          9          9          9          9          9          9          9          9          9          9          9          9          9          9          9          9          9          9          9          9          9          9          9          9          9          9          9          9          9          9          9          9          9          9          9          9          9          9          9          9          9          9          9          9          9          9          9          9          9          9          9          9          9          9          9          9          9          9          9          9          9          9          9          9          9          9          9          9          9          9          9          9          9          9          9          9          9          9          9          9          9          9          9          9          9          9          9          9          9          9          9          9          9          9          9          9          9          9          9          9          9          9          9          9          9          9          9          9          9          9          9          9          9          9          9          9          9          9          9          9          9          9          9          9          9          9          9          9          9          9          9          9          9          9          9          9          9          9          9          9          9          9          9          9          9          9          9          9          9          9          9          9          9          9          9          9          9          9          9          9          9          9          9          9          9          9          9          9          9          9          9          9          9          9          9          9          9          9          9          9          9          9          9          9          9          9          9          9          9          9          9          9          9          9          9          9          9          9          9          9          9          9          9          9          9          9          9          9          9          9          9          9          9          9          9          9          9          9          9          9          9          9          9          9          9          9          9          9          9          9          9          9          9          9          9          9          9          9          9          9          9          9          9          9          9          9          9          9          9          9          9          9          9          9          9          9          9          9          9          9          9          9          9          9          9          9          9          9          9          9          9          9          9          9          9          9          9          9          9          9          9          9          9          9          9          9          9          9          9          9          9          9          9          9          9          9          9          9          9          9          9          9          9          9          9          9          9          9          9          9          9          9          9          9          9          9          9          9          9          9          9          9          9          9          9          9          9          9          9          9          9          9          9          9          9          9          9          9          9          9          9          9          9          9          9          9          9          9          9          9          9          9          9          9          9          9          9          9          9          9          9          9          9          9          9          9          9          9          9          9          9          9          9          9          9          9          9          9          9          9          9          9          9          9          9          9          9          9          9          9          9          9          9          9          9          9          9          9          9          9          9          9          9          9          9          9          9          9          9          9          9          9          9          9          9          9          9          9          9          9          9          9          9          9          9          9          9          9          9          9          9          9          9          9          9          9          9          9          9          9          9          9          9          9          9          9          9          9          9          9          9          9          9          9          9          9          9          9          9          9          9          9          9          9          9          9          9          9          9          9          9          9          9          9          9          9          9          9          9          9          9          9          9          9          9          9          9          9          9          9          9          9          9          9          9          9          9          9          9          9          9          9          9          9          9          9          9          9          9          9          9          9          9          9          9          9          9          9          9          9          9          9          9          9          9          9          9          9          9          9          9          9          9          9          9          9          9          9          9          9          9          9          9          9          9          9          9          9          9          9          9          9          9          9          9          9          9          9          9          9          9          9          9          9          9          9          9          9          9          9          9          9          9          9          9          9          9          9          9          9          9          9          9          9          9          9          9          9          9          9          9          9          9          9          9          9          9          9          9          9          9          9          9          9          9          9          9          9          9          9          9          9          9          9          9          9          9          9          9          9          9          9          9          9          9          9          9          9          9          9          9          9          9          9          9          9          9          9          9          9          9          9          9          9          9          9          9          9          9          9          9          9 </DataArray>
</Cells>
<CellData>
<DataArray type="Int32"                                    Name="material"                                                      NumberOfComponents=" 1" format="ascii">
         1          1          1          1          1          1          1          1          1          1          1          1          1          1          1          1          1          1          1          1          1          1          1          1          1          1          1          1          1          1          1          1          1          1          1          1          1          1          1          1          1          1          1          1          1          1          1          1          1          1          1          1          1          1          1          1          1          1          1          1          1          1          1          1          1          1          1          1          1          1          1          1          1          1          1          1          1          1          1          1          1          1          1          1          1          1          1          1          1          1          1          1          1          1          1          1          1          1          1          1          1          1          1          1          1          1          1          1          1          1          1          1          1          1          1          1          1          1          1          1          1          1          1          1          1          1          1          1          1          1          1          1          1          1          1          1          1          1          1          1          1          1          1          1          1          1          1          1          1          1          1          1          1          1          1          1          1          1          1          1          1          1          1          1          1          1          1          1          1          1          1          1          1          1          1          1          1          1          1          1          1          1          1          1          1          1          1          1          1          1          1          1          1          1          1          1          1          1          1          1          1          1          1          1          1          1          1          1          1          1          1          1          1          1          1          1          1          1          1          1          1          1          1          1          1          1          1          1          1          1          1          1          1          1          1          1          1          1          1          1          1          1          1          1          1          1          1          1          1          1          1          1          1          1          1          1          1          1          1          1          1          1          1          1          1          1          1          1          1          1          1          1          1          1          1          1          1          1          1          1          1          1          1          1          1          1          1          1          1          1          1          1          1          1          1          1          1          1          1          1          1          1          1          1          1          1          1          1          1          1          1          1          1          1          1          1          1          1          1          1          1          1          1          1          1          1          1          1          1          1          1          1          1          1          1          1          1          1          1          1          1          1          1          1          1          1          1          1          1          1          1          1          1          1          1          1          1          1          1          1          1          1          1          1          1          1          1          1          1          1          1          1          1          1          1          1          1          1          1          1          1          1          1          1          1          1          1          1          1          1          1          1          1          1          1          1          1          1          1          1          1          1          1          1          1          1          1          1          1          1          1          1          1          1          1          1          1          1          1          1          1          1          1          1          1          1          1          1          1          1          1          1          1          1          1          1          1          1          1          1          1          1          1          1          1          1          1          1          1          1          1          1          1          1          1          1          1          1          1          1          1          1          1          1          1          1          1          1          1          1          1          1          1          1          1          1          1          1          1          1          1          1          1          1          1          1          1          1          1          1          1          1          1          1          1          1          1          1          1          1          1          1          1          1          1          1          1          1          1          1          1          1          1          1          1          1          1          1          1          1          1          1          1          1          1          1          1          1          1          1          1          1          1          1          1          1          1          1          1          1          1          1          1          1          1          1          1          1          1          1          1          1          1          1          1          1          1          1          1          1          1          1          1          1          1          1          1          1          1          1          1          1          1          1          1          1          1          1          1          1          1          1          1          1          1          1          1          1          1          1          1          1          1          1          1          1          1          1          1          1          1          1          1          1          1          1          1          1          1          1          1          1          1          1          1          1          1          1          1          1          1          1          1          1          1          1          1          1          1          1          1          1          1          1          1          1          1          1          1          1          1          1          1          1          1          1          1          1          1          1          1          1          1          1          1          1          1          1          1          1          1          1          1          1          1          1          1          1          1          1          1          1          1          1          1          1          1          1          1          1          1          1          1          1          1          1          1          1          1          1          1          1          1          1          1          1          1          1          1          1          1          1          1          1          1          1          1          1          1          1          1          1          1          1          1          1          1          1          1          1          1          1          1          1          1          1          1          1          1          1          1          1          1          1          1          1          1          1          1          1          1          1          1          1          1          1          1          1          1          1          1          1          1          1          1          1          1          1          1          1          1          1          1          1          1          1          1          1          1          1          1          1          1          1          1          1          1          1          1          1          1          1          1          1          1          1          1          1          1          1          1          1          1          1          1          1          1          1          1          1          1          1          1          1          1          1          1          1          1          1          1          1          1          1          1          1          1          1          1          1          1          1          1          1          1          1          1          1          1          1          1          1          1          1          1          1          1          1          1          1          1          1          1          1          1          1          1          1          1          1          1          1          1          1          1          1          1          1          1          1          1          1          1          1          1          1          1          1          1          1          1          1          1          1          1          1          1          1          1          1          1          1          1          1          1          1          1          1          1          1          1          1          1          1          1          1          1          1          1          1          1          1          1          1          1          1          1          1          1          1          1          1          1          1          1          1          1          1          1          1          1          1          1          1          1          1          1          1          1          1          1          1          1          1          1          1          1          1          1          1          1          1          1          1          1          1          1          1          1          1          1          1          1          1          1          1          1          1          1          1          1          1          1          1          1          1          1          1          1          1          1          1          1          1          1          1          1          1          1          1          1          1          1          1          1          1          1          1          1          1          1          1          1          1          1          1          1          1          1          1          1          1          1          1          1          1          1          1          1          1          1          1          1          1          1          1          1          1          1          1          1          1          1          1 </DataArray>
</CellData>
<PointData>
<DataArray type="Float64"                                    Name="u"                                                      NumberOfComponents=" 3" format="ascii">
             -0.000008889               0.000000000               0.999999997              -0.000022580              -0.000000000               0.999999997              -0.000029464              -0.000000000               0.999999997              -0.000033755              -0.000000000               0.999999997              -0.000037213               0.000000000               0.999999997              -0.000040606               0.000000000               0.999999997              -0.000044322               0.000000000               0.999999997              -0.000048461               0.000000000               0.999999997              -0.000053041              -0.000000000               0.999999997              -0.000058128              -0.000000000               0.999999997              -0.000063703               0.000000000               0.999999997              -0.000069772              -0.000000000               0.999999997              -0.000076344              -0.000000000               0.999999997              -0.000083486               0.000000000               0.999999997              -0.000091202               0.000000000               0.999999997              -0.000099490               0.000000000               0.999999997              -0.000108331               0.000000000               0.999999997              -0.000008835               0.000033693               0.999999997              -0.000021993               0.000030097               0.999999997              -0.000028591               0.000029318               0.999999997              -0.000032790               0.000030100               0.999999997              -0.000036237               0.000031765               0.999999997              -0.000039657               0.000034089               0.999999997              -0.000043392               0.000036839               0.999999997              -0.000047586               0.000039887               0.999999997              -0.000052262               0.000043172               0.999999997              -0.000057489               0.000046697               0.999999997              -0.000063208               0.000050389               0.999999997              -0.000069385               0.000054186               0.999999997              -0.000076078               0.000058201               0.999999997              -0.000083317               0.000062277               0.999999997              -0.000091124               0.000066410               0.999999997              -0.000099500               0.000070464               0.999999997              -0.000108429               0.000074464               0.999999997              -0.000008727               0.000067031               0.999999997              -0.000020364               0.000059877               0.999999997              -0.000026136               0.000058473               0.999999997              -0.000029978               0.000060100               0.999999997              -0.000033332               0.000063598               0.999999997              -0.000036841               0.000068285               0.999999997              -0.000040797               0.000073829               0.999999997              -0.000045317               0.000080003               0.999999997              -0.000050401               0.000086625               0.999999997              -0.000056011               0.000093755               0.999999997              -0.000062120               0.000101059               0.999999997              -0.000068731               0.000108692               0.999999997              -0.000075843               0.000116680               0.999999997              -0.000083477               0.000124941               0.999999997              -0.000091668               0.000133270               0.999999997              -0.000100414               0.000141666               0.999999997              -0.000109722               0.000150026               0.999999997              -0.000008607               0.000099644               0.999999997              -0.000017779               0.000088980               0.999999997              -0.000022316               0.000087183               0.999999997              -0.000025733               0.000089909               0.999999997              -0.000029097               0.000095350               0.999999997              -0.000032867               0.000102523               0.999999997              -0.000037304               0.000110979               0.999999997              -0.000042376               0.000120310               0.999999997              -0.000048044               0.000130298               0.999999997              -0.000054352               0.000140947               0.999999997              -0.000061233               0.000152038               0.999999997              -0.000068644               0.000163435               0.999999997              -0.000076565               0.000175362               0.999999997              -0.000084951               0.000187737               0.999999997              -0.000093853               0.000200434               0.999999997              -0.000103288               0.000213321               0.999999997              -0.000113251               0.000226469               0.999999997              -0.000008381               0.000131188               0.999999997              -0.000014340               0.000117157               0.999999997              -0.000017573               0.000115239               0.999999997              -0.000020621               0.000119307               0.999999997              -0.000024232               0.000126795               0.999999997              -0.000028604               0.000136595               0.999999997              -0.000033723               0.000148011               0.999999997              -0.000039614               0.000160548               0.999999997              -0.000046215               0.000173954               0.999999997              -0.000053494               0.000188114               0.999999997              -0.000061440               0.000202907               0.999999997              -0.000070013               0.000218069               0.999999997              -0.000079075               0.000233831               0.999999997              -0.000088608               0.000250221               0.999999997              -0.000098602               0.000267159               0.999999997              -0.000109071               0.000284697               0.999999997              -0.000120064               0.000302761               0.999999997              -0.000008069               0.000161314               0.999999997              -0.000010277               0.000144244               0.999999997              -0.000012332               0.000142501               0.999999997              -0.000015347               0.000148049               0.999999997              -0.000019458               0.000157779               0.999999997              -0.000024610               0.000170281               0.999999997              -0.000030731               0.000184664               0.999999997              -0.000037750               0.000200428               0.999999997              -0.000045603               0.000217181               0.999999997              -0.000054243               0.000234786               0.999999997              -0.000063545               0.000253248               0.999999997              -0.000073406               0.000272262               0.999999997              -0.000083777               0.000291838               0.999999997              -0.000094581               0.000312296               0.999999997              -0.000105884               0.000333644               0.999999997              -0.000117686               0.000355864               0.999999997              -0.000129910               0.000378781               0.999999997              -0.000007730               0.000189702               0.999999997              -0.000005866               0.000170075               0.999999997              -0.000007085               0.000168782               0.999999997              -0.000010451               0.000176008               0.999999997              -0.000015361               0.000187997               0.999999997              -0.000021606               0.000203198               0.999999997              -0.000028996               0.000220512               0.999999997              -0.000037398               0.000239480               0.999999997              -0.000046708               0.000259694               0.999999997              -0.000056708               0.000280834               0.999999997              -0.000067368               0.000303059               0.999999997              -0.000078563               0.000325996               0.999999997              -0.000090314               0.000349591               0.999999997              -0.000102575               0.000374263               0.999999997              -0.000115361               0.000400051               0.999999997              -0.000128558               0.000426673               0.999999997              -0.000141947               0.000453832               0.999999997              -0.000007276               0.000216103               0.999999997              -0.000001433               0.000194591               0.999999997              -0.000002273               0.000193961               0.999999997              -0.000006296               0.000202894               0.999999997              -0.000012283               0.000217136               0.999999997              -0.000019872               0.000235021               0.999999997              -0.000028739               0.000255290               0.999999997              -0.000038644               0.000277616               0.999999997              -0.000049390               0.000301333               0.999999997              -0.000060831               0.000326174               0.999999997              -0.000072937               0.000352134               0.999999997              -0.000085537               0.000379111               0.999999997              -0.000098659               0.000406953               0.999999997              -0.000112282               0.000435996               0.999999997              -0.000126296               0.000466028               0.999999997              -0.000140393               0.000496632               0.999999997              -0.000154334               0.000527182               0.999999997              -0.000006918               0.000240032               0.999999997               0.000002778               0.000217818               0.999999997               0.000001827               0.000217941               0.999999997              -0.000003136               0.000228460               0.999999997              -0.000010434               0.000244997               0.999999997              -0.000019430               0.000265613               0.999999997              -0.000029813               0.000289027               0.999999997              -0.000041192               0.000314706               0.999999997              -0.000053434               0.000342006               0.999999997              -0.000066327               0.000370697               0.999999997              -0.000079649               0.000400719               0.999999997              -0.000093372               0.000431912               0.999999997              -0.000107548               0.000464235               0.999999997              -0.000122102               0.000497547               0.999999997              -0.000136723               0.000531519               0.999999997              -0.000151220               0.000565646               0.999999997              -0.000165559               0.000599639               0.999999997              -0.000006942               0.000262295               0.999999997               0.000005596               0.000241949               0.999999997               0.000006060               0.000239719               0.999999997               0.000002007               0.000247463               0.999999997              -0.000004332               0.000261304               0.999999997              -0.000012291               0.000279250               0.999999997              -0.000021472               0.000300151               0.999999997              -0.000031683               0.000323358               0.999999997              -0.000042741               0.000348390               0.999999997              -0.000054285               0.000374896               0.999999997              -0.000066124               0.000402681               0.999999997              -0.000078061               0.000431607               0.999999997              -0.000090169               0.000461563               0.999999997              -0.000102597               0.000492380               0.999999997              -0.000115289               0.000523997               0.999999997              -0.000128063               0.000556086               0.999999997              -0.000140971               0.000588458               0.999999997              -0.000006657               0.000282364               0.999999997               0.000007349               0.000264935               0.999999997               0.000009205               0.000261691               0.999999997               0.000006288               0.000267237               0.999999997               0.000001012               0.000278694               0.999999997              -0.000005752               0.000294223               0.999999997              -0.000013676               0.000312742               0.999999997              -0.000022693               0.000333624               0.999999997              -0.000032526               0.000356391               0.999999997              -0.000042688               0.000380757               0.999999997              -0.000052974               0.000406422               0.999999997              -0.000063239               0.000433189               0.999999997              -0.000073545               0.000460826               0.999999997              -0.000083909               0.000489354               0.999999997              -0.000094361               0.000518637               0.999999997              -0.000104947               0.000548555               0.999999997              -0.000115668               0.000578954               0.999999997              -0.000006122               0.000299880               0.999999997               0.000008065               0.000286230               0.999999997               0.000011009               0.000283023               0.999999997               0.000009302               0.000287168               0.999999997               0.000005163               0.000296741               0.999999997              -0.000000279               0.000310225               0.999999997              -0.000006908               0.000326637               0.999999997              -0.000014496               0.000345455               0.999999997              -0.000022918               0.000366252               0.999999997              -0.000031648               0.000388658               0.999999997              -0.000040375               0.000412451               0.999999997              -0.000048995               0.000437321               0.999999997              -0.000057472               0.000463057               0.999999997              -0.000065926               0.000489450               0.999999997              -0.000074174               0.000516484               0.999999997              -0.000082241               0.000544238               0.999999997              -0.000090158               0.000572622               0.999999997              -0.000005313               0.000314601               0.999999997               0.000007790               0.000305112               0.999999997               0.000011313               0.000302756               0.999999997               0.000010655               0.000306248               0.999999997               0.000007747               0.000314555               0.999999997               0.000003567               0.000326494               0.999999997              -0.000001567               0.000341286               0.999999997              -0.000007640               0.000358352               0.999999997              -0.000014476               0.000377453               0.999999997              -0.000021695               0.000398295               0.999999997              -0.000028790               0.000420593               0.999999997              -0.000035678               0.000443962               0.999999997              -0.000042461               0.000468184               0.999999997              -0.000048949               0.000493044               0.999999997              -0.000055021               0.000518445               0.999999997              -0.000060588               0.000544361               0.999999997              -0.000065487               0.000570924               0.999999997              -0.000004234               0.000326334               0.999999997               0.000006648               0.000320785               0.999999997               0.000010126               0.000319767               0.999999997               0.000010200               0.000323294               0.999999997               0.000008393               0.000330854               0.999999997               0.000005454               0.000341777               0.999999997               0.000001761               0.000355304               0.999999997              -0.000002760               0.000371063               0.999999997              -0.000007928               0.000388829               0.999999997              -0.000013430               0.000408423               0.999999997              -0.000018936               0.000429497               0.999999997              -0.000024224               0.000451731               0.999999997              -0.000029200               0.000474909               0.999999997              -0.000033887               0.000498839               0.999999997              -0.000038087               0.000523330               0.999999997              -0.000041405               0.000548213               0.999999997              -0.000043483               0.000573574               0.999999997              -0.000002938               0.000334869               0.999999997               0.000004850               0.000332592               0.999999997               0.000007611               0.000332922               0.999999997               0.000007959               0.000336773               0.999999997               0.000007039               0.000344011               0.999999997               0.000005250               0.000354270               0.999999997               0.000002838               0.000367005               0.999999997              -0.000000119               0.000381922               0.999999997              -0.000003494               0.000398775               0.999999997              -0.000007293               0.000417384               0.999999997              -0.000011253               0.000437519               0.999999997              -0.000014769               0.000458977               0.999999997              -0.000017870               0.000481567               0.999999997              -0.000020874               0.000505022               0.999999997              -0.000023532               0.000529132               0.999999997              -0.000025228               0.000553767               0.999999997              -0.000025489               0.000578690               0.999999997              -0.000001504               0.000340026               0.999999997               0.000002564               0.000339907               0.999999997               0.000004079               0.000341283               0.999999997               0.000004377               0.000345508               0.999999997               0.000004024               0.000352644               0.999999997               0.000003209               0.000362513               0.999999997               0.000001981               0.000374883               0.999999997               0.000000520               0.000389367               0.999999997              -0.000001072               0.000405641               0.999999997              -0.000003068               0.000423607               0.999999997              -0.000005133               0.000443238               0.999999997              -0.000006816               0.000464370               0.999999997              -0.000008352               0.000486721               0.999999997              -0.000009791               0.000510024               0.999999997              -0.000010972               0.000534046               0.999999997              -0.000011663               0.000558618               0.999999997              -0.000011561               0.000583422               0.999999997               0.000000000               0.000341766               0.999999997              -0.000000000               0.000342392               0.999999997               0.000000000               0.000344151               0.999999997               0.000000000               0.000348487               0.999999997               0.000000000               0.000355573               0.999999997               0.000000000               0.000365386               0.999999997              -0.000000000               0.000377700               0.999999997              -0.000000000               0.000392021               0.999999997               0.000000000               0.000408096               0.999999997               0.000000000               0.000425839               0.999999997              -0.000000000               0.000445321               0.999999997              -0.000000000               0.000466389               0.999999997              -0.000000000               0.000488630               0.999999997               0.000000000               0.000511927               0.999999997               0.000000000               0.000535958               0.999999997               0.000000000               0.000560454               0.999999997               0.000000000               0.000585234               0.999999997              -0.000008889               0.000000000               0.999999997              -0.000022580              -0.000000000               0.999999997              -0.000029464              -0.000000000               0.999999997              -0.000033755              -0.000000000               0.999999997              -0.000037213               0.000000000               0.999999997              -0.000040606               0.000000000               0.999999997              -0.000044322               0.000000000               0.999999997              -0.000048461               0.000000000               0.999999997              -0.000053041              -0.000000000               0.999999997              -0.000058128              -0.000000000               0.999999997              -0.000063703               0.000000000               0.999999997              -0.000069772              -0.000000000               0.999999997              -0.000076344              -0.000000000               0.999999997              -0.000083486               0.000000000               0.999999997              -0.000091202               0.000000000               0.999999997              -0.000099490               0.000000000               0.999999997              -0.000108331               0.000000000               0.999999997              -0.000008835              -0.000033693               0.999999997              -0.000021993              -0.000030097               0.999999997              -0.000028591              -0.000029318               0.999999997              -0.000032790              -0.000030100               0.999999997              -0.000036237              -0.000031765               0.999999997              -0.000039657              -0.000034089               0.999999997              -0.000043392              -0.000036839               0.999999997              -0.000047586              -0.000039887               0.999999997              -0.000052262              -0.000043172               0.999999997              -0.000057489              -0.000046697               0.999999997              -0.000063208              -0.000050389               0.999999997              -0.000069385              -0.000054186               0.999999997              -0.000076078              -0.000058201               0.999999997              -0.000083317              -0.000062277               0.999999997              -0.000091124              -0.000066410               0.999999997              -0.000099500              -0.000070464               0.999999997              -0.000108429              -0.000074464               0.999999997              -0.000008727              -0.000067031               0.999999997              -0.000020364              -0.000059877               0.999999997              -0.000026136              -0.000058473               0.999999997              -0.000029978              -0.000060100               0.999999997              -0.000033332              -0.000063598               0.999999997              -0.000036841              -0.000068285               0.999999997              -0.000040797              -0.000073829               0.999999997              -0.000045317              -0.000080003               0.999999997              -0.000050401              -0.000086625               0.999999997              -0.000056011              -0.000093755               0.999999997              -0.000062120              -0.000101059               0.999999997              -0.000068731              -0.000108692               0.999999997              -0.000075843              -0.000116680               0.999999997              -0.000083477              -0.000124941               0.999999997              -0.000091668              -0.000133270               0.999999997              -0.000100414              -0.000141666               0.999999997              -0.000109722              -0.000150026               0.999999997              -0.000008607              -0.000099644               0.999999997              -0.000017779              -0.000088980               0.999999997              -0.000022316              -0.000087183               0.999999997              -0.000025733              -0.000089909               0.999999997              -0.000029097              -0.000095350               0.999999997              -0.000032867              -0.000102523               0.999999997              -0.000037304              -0.000110979               0.999999997              -0.000042376              -0.000120310               0.999999997              -0.000048044              -0.000130298               0.999999997              -0.000054352              -0.000140947               0.999999997              -0.000061233              -0.000152038               0.999999997              -0.000068644              -0.000163435               0.999999997              -0.000076565              -0.000175362               0.999999997              -0.000084951              -0.000187737               0.999999997              -0.000093853              -0.000200434               0.999999997              -0.000103288              -0.000213321               0.999999997              -0.000113251              -0.000226469               0.999999997              -0.000008381              -0.000131188               0.999999997              -0.000014340              -0.000117157               0.999999997              -0.000017573              -0.000115239               0.999999997              -0.000020621              -0.000119307               0.999999997              -0.000024232              -0.000126795               0.999999997              -0.000028604              -0.000136595               0.999999997              -0.000033723              -0.000148011               0.999999997              -0.000039614              -0.000160548               0.999999997              -0.000046215              -0.000173954               0.999999997              -0.000053494              -0.000188114               0.999999997              -0.000061440              -0.000202907               0.999999997              -0.000070013              -0.000218069               0.999999997              -0.000079075              -0.000233831               0.999999997              -0.000088608              -0.000250221               0.999999997              -0.000098602              -0.000267159               0.999999997              -0.000109071              -0.000284697               0.999999997              -0.000120064              -0.000302761               0.999999997              -0.000008069              -0.000161314               0.999999997              -0.000010277              -0.000144244               0.999999997              -0.000012332              -0.000142501               0.999999997              -0.000015347              -0.000148049               0.999999997              -0.000019458              -0.000157779               0.999999997              -0.000024610              -0.000170281               0.999999997              -0.000030731              -0.000184664               0.999999997              -0.000037750              -0.000200428               0.999999997              -0.000045603              -0.000217181               0.999999997              -0.000054243              -0.000234786               0.999999997              -0.000063545              -0.000253248               0.999999997              -0.000073406              -0.000272262               0.999999997              -0.000083777              -0.000291838               0.999999997              -0.000094581              -0.000312296               0.999999997              -0.000105884              -0.000333644               0.999999997              -0.000117686              -0.000355864               0.999999997              -0.000129910              -0.000378781               0.999999997              -0.000007730              -0.000189702               0.999999997              -0.000005866              -0.000170075               0.999999997              -0.000007085              -0.000168782               0.999999997              -0.000010451              -0.000176008               0.999999997              -0.000015361              -0.000187997               0.999999997              -0.000021606              -0.000203198               0.999999997              -0.000028996              -0.000220512               0.999999997              -0.000037398              -0.000239480               0.999999997              -0.000046708              -0.000259694               0.999999997              -0.000056708              -0.000280834               0.999999997              -0.000067368              -0.000303059               0.999999997              -0.000078563              -0.000325996               0.999999997              -0.000090314              -0.000349591               0.999999997              -0.000102575              -0.000374263               0.999999997              -0.000115361              -0.000400051               0.999999997              -0.000128558              -0.000426673               0.999999997              -0.000141947              -0.000453832               0.999999997              -0.000007276              -0.000216103               0.999999997              -0.000001433              -0.000194591               0.999999997              -0.000002273              -0.000193961               0.999999997              -0.000006296              -0.000202894               0.999999997              -0.000012283              -0.000217136               0.999999997              -0.000019872              -0.000235021               0.999999997              -0.000028739              -0.000255290               0.999999997              -0.000038644              -0.000277616               0.999999997              -0.000049390              -0.000301333               0.999999997              -0.000060831              -0.000326174               0.999999997              -0.000072937              -0.000352134               0.999999997              -0.000085537              -0.000379111               0.999999997              -0.000098659              -0.000406953               0.999999997              -0.000112282              -0.000435996               0.999999997              -0.000126296              -0.000466028               0.999999997              -0.000140393              -0.000496632               0.999999997              -0.000154334              -0.000527182               0.999999997              -0.000006918              -0.000240032               0.999999997               0.000002778              -0.000217818               0.999999997               0.000001827              -0.000217941               0.999999997              -0.000003136              -0.000228460               0.999999997              -0.000010434              -0.000244997               0.999999997              -0.000019430              -0.000265613               0.999999997              -0.000029813              -0.000289027               0.999999997              -0.000041192              -0.000314706               0.999999997              -0.000053434              -0.000342006               0.999999997              -0.000066327              -0.000370697               0.999999997              -0.000079649              -0.000400719               0.999999997              -0.000093372              -0.000431912               0.999999997              -0.000107548              -0.000464235               0.999999997              -0.000122102              -0.000497547               0.999999997              -0.000136723              -0.000531519               0.999999997              -0.000151220              -0.000565646               0.999999997              -0.000165559              -0.000599639               0.999999997              -0.000006942              -0.000262295               0.999999997               0.000005596              -0.000241949               0.999999997               0.000006060              -0.000239719               0.999999997               0.000002007              -0.000247463               0.999999997              -0.000004332              -0.000261304               0.999999997              -0.000012291              -0.000279250               0.999999997              -0.000021472              -0.000300151               0.999999997              -0.000031683              -0.000323358               0.999999997              -0.000042741              -0.000348390               0.999999997              -0.000054285              -0.000374896               0.999999997              -0.000066124              -0.000402681               0.999999997              -0.000078061              -0.000431607               0.999999997              -0.000090169              -0.000461563               0.999999997              -0.000102597              -0.000492380               0.999999997              -0.000115289              -0.000523997               0.999999997              -0.000128063              -0.000556086               0.999999997              -0.000140971              -0.000588458               0.999999997              -0.000006657              -0.000282364               0.999999997               0.000007349              -0.000264935               0.999999997               0.000009205              -0.000261691               0.999999997               0.000006288              -0.000267237               0.999999997               0.000001012              -0.000278694               0.999999997              -0.000005752              -0.000294223               0.999999997              -0.000013676              -0.000312742               0.999999997              -0.000022693              -0.000333624               0.999999997              -0.000032526              -0.000356391               0.999999997              -0.000042688              -0.000380757               0.999999997              -0.000052974              -0.000406422               0.999999997              -0.000063239              -0.000433189               0.999999997              -0.000073545              -0.000460826               0.999999997              -0.000083909              -0.000489354               0.999999997              -0.000094361              -0.000518637               0.999999997              -0.000104947              -0.000548555               0.999999997              -0.000115668              -0.000578954               0.999999997              -0.000006122              -0.000299880               0.999999997               0.000008065              -0.000286230               0.999999997               0.000011009              -0.000283023               0.999999997               0.000009302              -0.000287168               0.999999997               0.000005163              -0.000296741               0.999999997              -0.000000279              -0.000310225               0.999999997              -0.000006908              -0.000326637               0.999999997              -0.000014496              -0.000345455               0.999999997              -0.000022918              -0.000366252               0.999999997              -0.000031648              -0.000388658               0.999999997              -0.000040375              -0.000412451               0.999999997              -0.000048995              -0.000437321               0.999999997              -0.000057472              -0.000463057               0.999999997              -0.000065926              -0.000489450               0.999999997              -0.000074174              -0.000516484               0.999999997              -0.000082241              -0.000544238               0.999999997              -0.000090158              -0.000572622               0.999999997              -0.000005313              -0.000314601               0.999999997               0.000007790              -0.000305112               0.999999997               0.000011313              -0.000302756               0.999999997               0.000010655              -0.000306248               0.999999997               0.000007747              -0.000314555               0.999999997               0.000003567              -0.000326494               0.999999997              -0.000001567              -0.000341286               0.999999997              -0.000007640              -0.000358352               0.999999997              -0.000014476              -0.000377453               0.999999997              -0.000021695              -0.000398295               0.999999997              -0.000028790              -0.000420593               0.999999997              -0.000035678              -0.000443962               0.999999997              -0.000042461              -0.000468184               0.999999997              -0.000048949              -0.000493044               0.999999997              -0.000055021              -0.000518445               0.999999997              -0.000060588              -0.000544361               0.999999997              -0.000065487              -0.000570924               0.999999997              -0.000004234              -0.000326334               0.999999997               0.000006648              -0.000320785               0.999999997               0.000010126              -0.000319767               0.999999997               0.000010200              -0.000323294               0.999999997               0.000008393              -0.000330854               0.999999997               0.000005454              -0.000341777               0.999999997               0.000001761              -0.000355304               0.999999997              -0.000002760              -0.000371063               0.999999997              -0.000007928              -0.000388829               0.999999997              -0.000013430              -0.000408423               0.999999997              -0.000018936              -0.000429497               0.999999997              -0.000024224              -0.000451731               0.999999997              -0.000029200              -0.000474909               0.999999997              -0.000033887              -0.000498839               0.999999997              -0.000038087              -0.000523330               0.999999997              -0.000041405              -0.000548213               0.999999997              -0.000043483              -0.000573574               0.999999997              -0.000002938              -0.000334869               0.999999997               0.000004850              -0.000332592               0.999999997               0.000007611              -0.000332922               0.999999997               0.000007959              -0.000336773               0.999999997               0.000007039              -0.000344011               0.999999997               0.000005250              -0.000354270               0.999999997               0.000002838              -0.000367005               0.999999997              -0.000000119              -0.000381922               0.999999997              -0.000003494              -0.000398775               0.999999997              -0.000007293              -0.000417384               0.999999997              -0.000011253              -0.000437519               0.999999997              -0.000014769              -0.000458977               0.999999997              -0.000017870              -0.000481567               0.999999997              -0.000020874              -0.000505022               0.999999997              -0.000023532              -0.000529132               0.999999997              -0.000025228              -0.000553767               0.999999997              -0.000025489              -0.000578690               0.999999997              -0.000001504              -0.000340026               0.999999997               0.000002564              -0.000339907               0.999999997               0.000004079              -0.000341283               0.999999997               0.000004377              -0.000345508               0.999999997               0.000004024              -0.000352644               0.999999997               0.000003209              -0.000362513               0.999999997               0.000001981              -0.000374883               0.999999997               0.000000520              -0.000389367               0.999999997              -0.000001072              -0.000405641               0.999999997              -0.000003068              -0.000423607               0.999999997              -0.000005133              -0.000443238               0.999999997              -0.000006816              -0.000464370               0.999999997              -0.000008352              -0.000486721               0.999999997              -0.000009791              -0.000510024               0.999999997              -0.000010972              -0.000534046               0.999999997              -0.000011663              -0.000558618               0.999999997              -0.000011561              -0.000583422               0.999999997              -0.000000000              -0.000341766               0.999999997               0.000000000              -0.000342392               0.999999997              -0.000000000              -0.000344151               0.999999997              -0.000000000              -0.000348487               0.999999997               0.000000000              -0.000355573               0.999999997               0.000000000              -0.000365386               0.999999997              -0.000000000              -0.000377700               0.999999997              -0.000000000              -0.000392021               0.999999997               0.000000000              -0.000408096               0.999999997               0.000000000              -0.000425839               0.999999997               0.000000000              -0.000445321               0.999999997               0.000000000              -0.000466389               0.999999997              -0.000000000              -0.000488630               0.999999997              -0.000000000              -0.000511927               0.999999997               0.000000000              -0.000535958               0.999999997               0.000000000              -0.000560454               0.999999997               0.000000000              -0.000585234               0.999999997               0.000008889              -0.000000000               0.999999997               0.000022580              -0.000000000               0.999999997               0.000029464              -0.000000000               0.999999997               0.000033755              -0.000000000               0.999999997               0.000037213              -0.000000000               0.999999997               0.000040606              -0.000000000               0.999999997               0.000044322               0.000000000               0.999999997               0.000048461              -0.000000000               0.999999997               0.000053041               0.000000000               0.999999997               0.000058128               0.000000000               0.999999997               0.000063703               0.000000000               0.999999997               0.000069772               0.000000000               0.999999997               0.000076344               0.000000000               0.999999997               0.000083486               0.000000000               0.999999997               0.000091202               0.000000000               0.999999997               0.000099490               0.000000000               0.999999997               0.000108331               0.000000000               0.999999997               0.000008835              -0.000033693               0.999999997               0.000021993              -0.000030097               0.999999997               0.000028591              -0.000029318               0.999999997               0.000032790              -0.000030100               0.999999997               0.000036237              -0.000031765               0.999999997               0.000039657              -0.000034089               0.999999997               0.000043392              -0.000036839               0.999999997               0.000047586              -0.000039887               0.999999997               0.000052262              -0.000043172               0.999999997               0.000057489              -0.000046697               0.999999997               0.000063208              -0.000050389               0.999999997               0.000069385              -0.000054186               0.999999997               0.000076078              -0.000058201               0.999999997               0.000083317              -0.000062277               0.999999997               0.000091124              -0.000066410               0.999999997               0.000099500              -0.000070464               0.999999997               0.000108429              -0.000074464               0.999999997               0.000008727              -0.000067031               0.999999997               0.000020364              -0.000059877               0.999999997               0.000026136              -0.000058473               0.999999997               0.000029978              -0.000060100               0.999999997               0.000033332              -0.000063598               0.999999997               0.000036841              -0.000068285               0.999999997               0.000040797              -0.000073829               0.999999997               0.000045317              -0.000080003               0.999999997               0.000050401              -0.000086625               0.999999997               0.000056011              -0.000093755               0.999999997               0.000062120              -0.000101059               0.999999997               0.000068731              -0.000108692               0.999999997               0.000075843              -0.000116680               0.999999997               0.000083477              -0.000124941               0.999999997               0.000091668              -0.000133270               0.999999997               0.000100414              -0.000141666               0.999999997               0.000109722              -0.000150026               0.999999997               0.000008607              -0.000099644               0.999999997               0.000017779              -0.000088980               0.999999997               0.000022316              -0.000087183               0.999999997               0.000025733              -0.000089909               0.999999997               0.000029097              -0.000095350               0.999999997               0.000032867              -0.000102523               0.999999997               0.000037304              -0.000110979               0.999999997               0.000042376              -0.000120310               0.999999997               0.000048044              -0.000130298               0.999999997               0.000054352              -0.000140947               0.999999997               0.000061233              -0.000152038               0.999999997               0.000068644              -0.000163435               0.999999997               0.000076565              -0.000175362               0.999999997               0.000084951              -0.000187737               0.999999997               0.000093853              -0.000200434               0.999999997               0.000103288              -0.000213321               0.999999997               0.000113251              -0.000226469               0.999999997               0.000008381              -0.000131188               0.999999997               0.000014340              -0.000117157               0.999999997               0.000017573              -0.000115239               0.999999997               0.000020621              -0.000119307               0.999999997               0.000024232              -0.000126795               0.999999997               0.000028604              -0.000136595               0.999999997               0.000033723              -0.000148011               0.999999997               0.000039614              -0.000160548               0.999999997               0.000046215              -0.000173954               0.999999997               0.000053494              -0.000188114               0.999999997               0.000061440              -0.000202907               0.999999997               0.000070013              -0.000218069               0.999999997               0.000079075              -0.000233831               0.999999997               0.000088608              -0.000250221               0.999999997               0.000098602              -0.000267159               0.999999997               0.000109071              -0.000284697               0.999999997               0.000120064              -0.000302761               0.999999997               0.000008069              -0.000161314               0.999999997               0.000010277              -0.000144244               0.999999997               0.000012332              -0.000142501               0.999999997               0.000015347              -0.000148049               0.999999997               0.000019458              -0.000157779               0.999999997               0.000024610              -0.000170281               0.999999997               0.000030731              -0.000184664               0.999999997               0.000037750              -0.000200428               0.999999997               0.000045603              -0.000217181               0.999999997               0.000054243              -0.000234786               0.999999997               0.000063545              -0.000253248               0.999999997               0.000073406              -0.000272262               0.999999997               0.000083777              -0.000291838               0.999999997               0.000094581              -0.000312296               0.999999997               0.000105884              -0.000333644               0.999999997               0.000117686              -0.000355864               0.999999997               0.000129910              -0.000378781               0.999999997               0.000007730              -0.000189702               0.999999997               0.000005866              -0.000170075               0.999999997               0.000007085              -0.000168782               0.999999997               0.000010451              -0.000176008               0.999999997               0.000015361              -0.000187997               0.999999997               0.000021606              -0.000203198               0.999999997               0.000028996              -0.000220512               0.999999997               0.000037398              -0.000239480               0.999999997               0.000046708              -0.000259694               0.999999997               0.000056708              -0.000280834               0.999999997               0.000067368              -0.000303059               0.999999997               0.000078563              -0.000325996               0.999999997               0.000090314              -0.000349591               0.999999997               0.000102575              -0.000374263               0.999999997               0.000115361              -0.000400051               0.999999997               0.000128558              -0.000426673               0.999999997               0.000141947              -0.000453832               0.999999997               0.000007276              -0.000216103               0.999999997               0.000001433              -0.000194591               0.999999997               0.000002273              -0.000193961               0.999999997               0.000006296              -0.000202894               0.999999997               0.000012283              -0.000217136               0.999999997               0.000019872              -0.000235021               0.999999997               0.000028739              -0.000255290               0.999999997               0.000038644              -0.000277616               0.999999997               0.000049390              -0.000301333               0.999999997               0.000060831              -0.000326174               0.999999997               0.000072937              -0.000352134               0.999999997               0.000085537              -0.000379111               0.999999997               0.000098659              -0.000406953               0.999999997               0.000112282              -0.000435996               0.999999997               0.000126296              -0.000466028               0.999999997               0.000140393              -0.000496632               0.999999997               0.000154334              -0.000527182               0.999999997               0.000006918              -0.000240032               0.999999997              -0.000002778              -0.000217818               0.999999997              -0.000001827              -0.000217941               0.999999997               0.000003136              -0.000228460               0.999999997               0.000010434              -0.000244997               0.999999997               0.000019430              -0.000265613               0.999999997               0.000029813              -0.000289027               0.999999997               0.000041192              -0.000314706               0.999999997               0.000053434              -0.000342006               0.999999997               0.000066327              -0.000370697               0.999999997               0.000079649              -0.000400719               0.999999997               0.000093372              -0.000431912               0.999999997               0.000107548              -0.000464235               0.999999997               0.000122102              -0.000497547               0.999999997               0.000136723              -0.000531519               0.999999997               0.000151220              -0.000565646               0.999999997               0.000165559              -0.000599639               0.999999997               0.000006942              -0.000262295               0.999999997              -0.000005596              -0.000241949               0.999999997              -0.000006060              -0.000239719               0.999999997              -0.000002007              -0.000247463               0.999999997               0.000004332              -0.000261304               0.999999997               0.000012291              -0.000279250               0.999999997               0.000021472              -0.000300151               0.999999997               0.000031683              -0.000323358               0.999999997               0.000042741              -0.000348390               0.999999997               0.000054285              -0.000374896               0.999999997               0.000066124              -0.000402681               0.999999997               0.000078061              -0.000431607               0.999999997               0.000090169              -0.000461563               0.999999997               0.000102597              -0.000492380               0.999999997               0.000115289              -0.000523997               0.999999997               0.000128063              -0.000556086               0.999999997               0.000140971              -0.000588458               0.999999997               0.000006657              -0.000282364               0.999999997              -0.000007349              -0.000264935               0.999999997              -0.000009205              -0.000261691               0.999999997              -0.000006288              -0.000267237               0.999999997              -0.000001012              -0.000278694               0.999999997               0.000005752              -0.000294223               0.999999997               0.000013676              -0.000312742               0.999999997               0.000022693              -0.000333624               0.999999997               0.000032526              -0.000356391               0.999999997               0.000042688              -0.000380757               0.999999997               0.000052974              -0.000406422               0.999999997               0.000063239              -0.000433189               0.999999997               0.000073545              -0.000460826               0.999999997               0.000083909              -0.000489354               0.999999997               0.000094361              -0.000518637               0.999999997               0.000104947              -0.000548555               0.999999997               0.000115668              -0.000578954               0.999999997               0.000006122              -0.000299880               0.999999997              -0.000008065              -0.000286230               0.999999997              -0.000011009              -0.000283023               0.999999997              -0.000009302              -0.000287168               0.999999997              -0.000005163              -0.000296741               0.999999997               0.000000279              -0.000310225               0.999999997               0.000006908              -0.000326637               0.999999997               0.000014496              -0.000345455               0.999999997               0.000022918              -0.000366252               0.999999997               0.000031648              -0.000388658               0.999999997               0.000040375              -0.000412451               0.999999997               0.000048995              -0.000437321               0.999999997               0.000057472              -0.000463057               0.999999997               0.000065926              -0.000489450               0.999999997               0.000074174              -0.000516484               0.999999997               0.000082241              -0.000544238               0.999999997               0.000090158              -0.000572622               0.999999997               0.000005313              -0.000314601               0.999999997              -0.000007790              -0.000305112               0.999999997              -0.000011313              -0.000302756               0.999999997              -0.000010655              -0.000306248               0.999999997              -0.000007747              -0.000314555               0.999999997              -0.000003567              -0.000326494               0.999999997               0.000001567              -0.000341286               0.999999997               0.000007640              -0.000358352               0.999999997               0.000014476              -0.000377453               0.999999997               0.000021695              -0.000398295               0.999999997               0.000028790              -0.000420593               0.999999997               0.000035678              -0.000443962               0.999999997               0.000042461              -0.000468184               0.999999997               0.000048949              -0.000493044               0.999999997               0.000055021              -0.000518445               0.999999997               0.000060588              -0.000544361               0.999999997               0.000065487              -0.000570924               0.999999997               0.000004234              -0.000326334               0.999999997              -0.000006648              -0.000320785               0.999999997              -0.000010126              -0.000319767               0.999999997              -0.000010200              -0.000323294               0.999999997              -0.000008393              -0.000330854               0.999999997              -0.000005454              -0.000341777               0.999999997              -0.000001761              -0.000355304               0.999999997               0.000002760              -0.000371063               0.999999997               0.000007928              -0.000388829               0.999999997               0.000013430              -0.000408423               0.999999997               0.000018936              -0.000429497               0.999999997               0.000024224              -0.000451731               0.999999997               0.000029200              -0.000474909               0.999999997               0.000033887              -0.000498839               0.999999997               0.000038087              -0.000523330               0.999999997               0.000041405              -0.000548213               0.999999997               0.000043483              -0.000573574               0.999999997               0.000002938              -0.000334869               0.999999997              -0.000004850              -0.000332592               0.999999997              -0.000007611              -0.000332922               0.999999997              -0.000007959              -0.000336773               0.999999997              -0.000007039              -0.000344011               0.999999997              -0.000005250              -0.000354270               0.999999997              -0.000002838              -0.000367005               0.999999997               0.000000119              -0.000381922               0.999999997               0.000003494              -0.000398775               0.999999997               0.000007293              -0.000417384               0.999999997               0.000011253              -0.000437519               0.999999997               0.000014769              -0.000458977               0.999999997               0.000017870              -0.000481567               0.999999997               0.000020874              -0.000505022               0.999999997               0.000023532              -0.000529132               0.999999997               0.000025228              -0.000553767               0.999999997               0.000025489              -0.000578690               0.999999997               0.000001504              -0.000340026               0.999999997              -0.000002564              -0.000339907               0.999999997              -0.000004079              -0.000341283               0.999999997              -0.000004377              -0.000345508               0.999999997              -0.000004024              -0.000352644               0.999999997              -0.000003209              -0.000362513               0.999999997              -0.000001981              -0.000374883               0.999999997              -0.000000520              -0.000389367               0.999999997               0.000001072              -0.000405641               0.999999997               0.000003068              -0.000423607               0.999999997               0.000005133              -0.000443238               0.999999997               0.000006816              -0.000464370               0.999999997               0.000008352              -0.000486721               0.999999997               0.000009791              -0.000510024               0.999999997               0.000010972              -0.000534046               0.999999997               0.000011663              -0.000558618               0.999999997               0.000011561              -0.000583422               0.999999997              -0.000000000              -0.000341766               0.999999997               0.000000000              -0.000342392               0.999999997              -0.000000000              -0.000344151               0.999999997              -0.000000000              -0.000348487               0.999999997               0.000000000              -0.000355573               0.999999997               0.000000000              -0.000365386               0.999999997              -0.000000000              -0.000377700               0.999999997              -0.000000000              -0.000392021               0.999999997               0.000000000              -0.000408096               0.999999997               0.000000000              -0.000425839               0.999999997               0.000000000              -0.000445321               0.999999997               0.000000000              -0.000466389               0.999999997              -0.000000000              -0.000488630               0.999999997              -0.000000000              -0.000511927               0.999999997               0.000000000              -0.000535958               0.999999997               0.000000000              -0.000560454               0.999999997               0.000000000              -0.000585234               0.999999997               0.000008889              -0.000000000               0.999999997               0.000022580              -0.000000000               0.999999997               0.000029464              -0.000000000               0.999999997               0.000033755              -0.000000000               0.999999997               0.000037213              -0.000000000               0.999999997               0.000040606              -0.000000000               0.999999997               0.000044322               0.000000000               0.999999997               0.000048461              -0.000000000               0.999999997               0.000053041               0.000000000               0.999999997               0.000058128               0.000000000               0.999999997               0.000063703               0.000000000               0.999999997               0.000069772               0.000000000               0.999999997               0.000076344               0.000000000               0.999999997               0.000083486               0.000000000               0.999999997               0.000091202               0.000000000               0.999999997               0.000099490               0.000000000               0.999999997               0.000108331               0.000000000               0.999999997               0.000008835               0.000033693               0.999999997               0.000021993               0.000030097               0.999999997               0.000028591               0.000029318               0.999999997               0.000032790               0.000030100               0.999999997               0.000036237               0.000031765               0.999999997               0.000039657               0.000034089               0.999999997               0.000043392               0.000036839               0.999999997               0.000047586               0.000039887               0.999999997               0.000052262               0.000043172               0.999999997               0.000057489               0.000046697               0.999999997               0.000063208               0.000050389               0.999999997               0.000069385               0.000054186               0.999999997               0.000076078               0.000058201               0.999999997               0.000083317               0.000062277               0.999999997               0.000091124               0.000066410               0.999999997               0.000099500               0.000070464               0.999999997               0.000108429               0.000074464               0.999999997               0.000008727               0.000067031               0.999999997               0.000020364               0.000059877               0.999999997               0.000026136               0.000058473               0.999999997               0.000029978               0.000060100               0.999999997               0.000033332               0.000063598               0.999999997               0.000036841               0.000068285               0.999999997               0.000040797               0.000073829               0.999999997               0.000045317               0.000080003               0.999999997               0.000050401               0.000086625               0.999999997               0.000056011               0.000093755               0.999999997               0.000062120               0.000101059               0.999999997               0.000068731               0.000108692               0.999999997               0.000075843               0.000116680               0.999999997               0.000083477               0.000124941               0.999999997               0.000091668               0.000133270               0.999999997               0.000100414               0.000141666               0.999999997               0.000109722               0.000150026               0.999999997               0.000008607               0.000099644               0.999999997               0.000017779               0.000088980               0.999999997               0.000022316               0.000087183               0.999999997               0.000025733               0.000089909               0.999999997               0.000029097               0.000095350               0.999999997               0.000032867               0.000102523               0.999999997               0.000037304               0.000110979               0.999999997               0.000042376               0.000120310               0.999999997               0.000048044               0.000130298               0.999999997               0.000054352               0.000140947               0.999999997               0.000061233               0.000152038               0.999999997               0.000068644               0.000163435               0.999999997               0.000076565               0.000175362               0.999999997               0.000084951               0.000187737               0.999999997               0.000093853               0.000200434               0.999999997               0.000103288               0.000213321               0.999999997               0.000113251               0.000226469               0.999999997               0.000008381               0.000131188               0.999999997               0.000014340               0.000117157               0.999999997               0.000017573               0.000115239               0.999999997               0.000020621               0.000119307               0.999999997               0.000024232               0.000126795               0.999999997               0.000028604               0.000136595               0.999999997               0.000033723               0.000148011               0.999999997               0.000039614               0.000160548               0.999999997               0.000046215               0.000173954               0.999999997               0.000053494               0.000188114               0.999999997               0.000061440               0.000202907               0.999999997               0.000070013               0.000218069               0.999999997               0.000079075               0.000233831               0.999999997               0.000088608               0.000250221               0.999999997               0.000098602               0.000267159               0.999999997               0.000109071               0.000284697               0.999999997               0.000120064               0.000302761               0.999999997               0.000008069               0.000161314               0.999999997               0.000010277               0.000144244               0.999999997               0.000012332               0.000142501               0.999999997               0.000015347               0.000148049               0.999999997               0.000019458               0.000157779               0.999999997               0.000024610               0.000170281               0.999999997               0.000030731               0.000184664               0.999999997               0.000037750               0.000200428               0.999999997               0.000045603               0.000217181               0.999999997               0.000054243               0.000234786               0.999999997               0.000063545               0.000253248               0.999999997               0.000073406               0.000272262               0.999999997               0.000083777               0.000291838               0.999999997               0.000094581               0.000312296               0.999999997               0.000105884               0.000333644               0.999999997               0.000117686               0.000355864               0.999999997               0.000129910               0.000378781               0.999999997               0.000007730               0.000189702               0.999999997               0.000005866               0.000170075               0.999999997               0.000007085               0.000168782               0.999999997               0.000010451               0.000176008               0.999999997               0.000015361               0.000187997               0.999999997               0.000021606               0.000203198               0.999999997               0.000028996               0.000220512               0.999999997               0.000037398               0.000239480               0.999999997               0.000046708               0.000259694               0.999999997               0.000056708               0.000280834               0.999999997               0.000067368               0.000303059               0.999999997               0.000078563               0.000325996               0.999999997               0.000090314               0.000349591               0.999999997               0.000102575               0.000374263               0.999999997               0.000115361               0.000400051               0.999999997               0.000128558               0.000426673               0.999999997               0.000141947               0.000453832               0.999999997               0.000007276               0.000216103               0.999999997               0.000001433               0.000194591               0.999999997               0.000002273               0.000193961               0.999999997               0.000006296               0.000202894               0.999999997               0.000012283               0.000217136               0.999999997               0.000019872               0.000235021               0.999999997               0.000028739               0.000255290               0.999999997               0.000038644               0.000277616               0.999999997               0.000049390               0.000301333               0.999999997               0.000060831               0.000326174               0.999999997               0.000072937               0.000352134               0.999999997               0.000085537               0.000379111               0.999999997               0.000098659               0.000406953               0.999999997               0.000112282               0.000435996               0.999999997               0.000126296               0.000466028               0.999999997               0.000140393               0.000496632               0.999999997               0.000154334               0.000527182               0.999999997               0.000006918               0.000240032               0.999999997              -0.000002778               0.000217818               0.999999997              -0.000001827               0.000217941               0.999999997               0.000003136               0.000228460               0.999999997               0.000010434               0.000244997               0.999999997               0.000019430               0.000265613               0.999999997               0.000029813               0.000289027               0.999999997               0.000041192               0.000314706               0.999999997               0.000053434               0.000342006               0.999999997               0.000066327               0.000370697               0.999999997               0.000079649               0.000400719               0.999999997               0.000093372               0.000431912               0.999999997               0.000107548               0.000464235               0.999999997               0.000122102               0.000497547               0.999999997               0.000136723               0.000531519               0.999999997               0.000151220               0.000565646               0.999999997               0.000165559               0.000599639               0.999999997               0.000006942               0.000262295               0.999999997              -0.000005596               0.000241949               0.999999997              -0.000006060               0.000239719               0.999999997              -0.000002007               0.000247463               0.999999997               0.000004332               0.000261304               0.999999997               0.000012291               0.000279250               0.999999997               0.000021472               0.000300151               0.999999997               0.000031683               0.000323358               0.999999997               0.000042741               0.000348390               0.999999997               0.000054285               0.000374896               0.999999997               0.000066124               0.000402681               0.999999997               0.000078061               0.000431607               0.999999997               0.000090169               0.000461563               0.999999997               0.000102597               0.000492380               0.999999997               0.000115289               0.000523997               0.999999997               0.000128063               0.000556086               0.999999997               0.000140971               0.000588458               0.999999997               0.000006657               0.000282364               0.999999997              -0.000007349               0.000264935               0.999999997              -0.000009205               0.000261691               0.999999997              -0.000006288               0.000267237               0.999999997              -0.000001012               0.000278694               0.999999997               0.000005752               0.000294223               0.999999997               0.000013676               0.000312742               0.999999997               0.000022693               0.000333624               0.999999997               0.000032526               0.000356391               0.999999997               0.000042688               0.000380757               0.999999997               0.000052974               0.000406422               0.999999997               0.000063239               0.000433189               0.999999997               0.000073545               0.000460826               0.999999997               0.000083909               0.000489354               0.999999997               0.000094361               0.000518637               0.999999997               0.000104947               0.000548555               0.999999997               0.000115668               0.000578954               0.999999997               0.000006122               0.000299880               0.999999997              -0.000008065               0.000286230               0.999999997              -0.000011009               0.000283023               0.999999997              -0.000009302               0.000287168               0.999999997              -0.000005163               0.000296741               0.999999997               0.000000279               0.000310225               0.999999997               0.000006908               0.000326637               0.999999997               0.000014496               0.000345455               0.999999997               0.000022918               0.000366252               0.999999997               0.000031648               0.000388658               0.999999997               0.000040375               0.000412451               0.999999997               0.000048995               0.000437321               0.999999997               0.000057472               0.000463057               0.999999997               0.000065926               0.000489450               0.999999997               0.000074174               0.000516484               0.999999997               0.000082241               0.000544238               0.999999997               0.000090158               0.000572622               0.999999997               0.000005313               0.000314601               0.999999997              -0.000007790               0.000305112               0.999999997              -0.000011313               0.000302756               0.999999997              -0.000010655               0.000306248               0.999999997              -0.000007747               0.000314555               0.999999997              -0.000003567               0.000326494               0.999999997               0.000001567               0.000341286               0.999999997               0.000007640               0.000358352               0.999999997               0.000014476               0.000377453               0.999999997               0.000021695               0.000398295               0.999999997               0.000028790               0.000420593               0.999999997               0.000035678               0.000443962               0.999999997               0.000042461               0.000468184               0.999999997               0.000048949               0.000493044               0.999999997               0.000055021               0.000518445               0.999999997               0.000060588               0.000544361               0.999999997               0.000065487               0.000570924               0.999999997               0.000004234               0.000326334               0.999999997              -0.000006648               0.000320785               0.999999997              -0.000010126               0.000319767               0.999999997              -0.000010200               0.000323294               0.999999997              -0.000008393               0.000330854               0.999999997              -0.000005454               0.000341777               0.999999997              -0.000001761               0.000355304               0.999999997               0.000002760               0.000371063               0.999999997               0.000007928               0.000388829               0.999999997               0.000013430               0.000408423               0.999999997               0.000018936               0.000429497               0.999999997               0.000024224               0.000451731               0.999999997               0.000029200               0.000474909               0.999999997               0.000033887               0.000498839               0.999999997               0.000038087               0.000523330               0.999999997               0.000041405               0.000548213               0.999999997               0.000043483               0.000573574               0.999999997               0.000002938               0.000334869               0.999999997              -0.000004850               0.000332592               0.999999997              -0.000007611               0.000332922               0.999999997              -0.000007959               0.000336773               0.999999997              -0.000007039               0.000344011               0.999999997              -0.000005250               0.000354270               0.999999997              -0.000002838               0.000367005               0.999999997               0.000000119               0.000381922               0.999999997               0.000003494               0.000398775               0.999999997               0.000007293               0.000417384               0.999999997               0.000011253               0.000437519               0.999999997               0.000014769               0.000458977               0.999999997               0.000017870               0.000481567               0.999999997               0.000020874               0.000505022               0.999999997               0.000023532               0.000529132               0.999999997               0.000025228               0.000553767               0.999999997               0.000025489               0.000578690               0.999999997               0.000001504               0.000340026               0.999999997              -0.000002564               0.000339907               0.999999997              -0.000004079               0.000341283               0.999999997              -0.000004377               0.000345508               0.999999997              -0.000004024               0.000352644               0.999999997              -0.000003209               0.000362513               0.999999997              -0.000001981               0.000374883               0.999999997              -0.000000520               0.000389367               0.999999997               0.000001072               0.000405641               0.999999997               0.000003068               0.000423607               0.999999997               0.000005133               0.000443238               0.999999997               0.000006816               0.000464370               0.999999997               0.000008352               0.000486721               0.999999997               0.000009791               0.000510024               0.999999997               0.000010972               0.000534046               0.999999997               0.000011663               0.000558618               0.999999997               0.000011561               0.000583422               0.999999997               0.000000000               0.000341766               0.999999997              -0.000000000               0.000342392               0.999999997               0.000000000               0.000344151               0.999999997               0.000000000               0.000348487               0.999999997               0.000000000               0.000355573               0.999999997               0.000000000               0.000365386               0.999999997              -0.000000000               0.000377700               0.999999997              -0.000000000               0.000392021               0.999999997               0.000000000               0.000408096               0.999999997               0.000000000               0.000425839               0.999999997              -0.000000000               0.000445321               0.999999997              -0.000000000               0.000466389               0.999999997              -0.000000000               0.000488630               0.999999997               0.000000000               0.000511927               0.999999997               0.000000000               0.000535958               0.999999997               0.000000000               0.000560454               0.999999997               0.000000000               0.000585234               0.999999997 </DataArray>
<DataArray type="Float64"                                    Name="defo"                                                      NumberOfComponents=" 3" format="ascii">
             -0.000008889               0.000000000               0.999999997              -0.000022580              -0.000000000               0.999999997              -0.000029464              -0.000000000               0.999999997              -0.000033755              -0.000000000               0.999999997              -0.000037213               0.000000000               0.999999997              -0.000040606               0.000000000               0.999999997              -0.000044322               0.000000000               0.999999997              -0.000048461               0.000000000               0.999999997              -0.000053041              -0.000000000               0.999999997              -0.000058128              -0.000000000               0.999999997              -0.000063703               0.000000000               0.999999997              -0.000069772              -0.000000000               0.999999997              -0.000076344              -0.000000000               0.999999997              -0.000083486               0.000000000               0.999999997              -0.000091202               0.000000000               0.999999997              -0.000099490               0.000000000               0.999999997              -0.000108331               0.000000000               0.999999997              -0.000008835               0.000033693               0.999999997              -0.000021993               0.000030097               0.999999997              -0.000028591               0.000029318               0.999999997              -0.000032790               0.000030100               0.999999997              -0.000036237               0.000031765               0.999999997              -0.000039657               0.000034089               0.999999997              -0.000043392               0.000036839               0.999999997              -0.000047586               0.000039887               0.999999997              -0.000052262               0.000043172               0.999999997              -0.000057489               0.000046697               0.999999997              -0.000063208               0.000050389               0.999999997              -0.000069385               0.000054186               0.999999997              -0.000076078               0.000058201               0.999999997              -0.000083317               0.000062277               0.999999997              -0.000091124               0.000066410               0.999999997              -0.000099500               0.000070464               0.999999997              -0.000108429               0.000074464               0.999999997              -0.000008727               0.000067031               0.999999997              -0.000020364               0.000059877               0.999999997              -0.000026136               0.000058473               0.999999997              -0.000029978               0.000060100               0.999999997              -0.000033332               0.000063598               0.999999997              -0.000036841               0.000068285               0.999999997              -0.000040797               0.000073829               0.999999997              -0.000045317               0.000080003               0.999999997              -0.000050401               0.000086625               0.999999997              -0.000056011               0.000093755               0.999999997              -0.000062120               0.000101059               0.999999997              -0.000068731               0.000108692               0.999999997              -0.000075843               0.000116680               0.999999997              -0.000083477               0.000124941               0.999999997              -0.000091668               0.000133270               0.999999997              -0.000100414               0.000141666               0.999999997              -0.000109722               0.000150026               0.999999997              -0.000008607               0.000099644               0.999999997              -0.000017779               0.000088980               0.999999997              -0.000022316               0.000087183               0.999999997              -0.000025733               0.000089909               0.999999997              -0.000029097               0.000095350               0.999999997              -0.000032867               0.000102523               0.999999997              -0.000037304               0.000110979               0.999999997              -0.000042376               0.000120310               0.999999997              -0.000048044               0.000130298               0.999999997              -0.000054352               0.000140947               0.999999997              -0.000061233               0.000152038               0.999999997              -0.000068644               0.000163435               0.999999997              -0.000076565               0.000175362               0.999999997              -0.000084951               0.000187737               0.999999997              -0.000093853               0.000200434               0.999999997              -0.000103288               0.000213321               0.999999997              -0.000113251               0.000226469               0.999999997              -0.000008381               0.000131188               0.999999997              -0.000014340               0.000117157               0.999999997              -0.000017573               0.000115239               0.999999997              -0.000020621               0.000119307               0.999999997              -0.000024232               0.000126795               0.999999997              -0.000028604               0.000136595               0.999999997              -0.000033723               0.000148011               0.999999997              -0.000039614               0.000160548               0.999999997              -0.000046215               0.000173954               0.999999997              -0.000053494               0.000188114               0.999999997              -0.000061440               0.000202907               0.999999997              -0.000070013               0.000218069               0.999999997              -0.000079075               0.000233831               0.999999997              -0.000088608               0.000250221               0.999999997              -0.000098602               0.000267159               0.999999997              -0.000109071               0.000284697               0.999999997              -0.000120064               0.000302761               0.999999997              -0.000008069               0.000161314               0.999999997              -0.000010277               0.000144244               0.999999997              -0.000012332               0.000142501               0.999999997              -0.000015347               0.000148049               0.999999997              -0.000019458               0.000157779               0.999999997              -0.000024610               0.000170281               0.999999997              -0.000030731               0.000184664               0.999999997              -0.000037750               0.000200428               0.999999997              -0.000045603               0.000217181               0.999999997              -0.000054243               0.000234786               0.999999997              -0.000063545               0.000253248               0.999999997              -0.000073406               0.000272262               0.999999997              -0.000083777               0.000291838               0.999999997              -0.000094581               0.000312296               0.999999997              -0.000105884               0.000333644               0.999999997              -0.000117686               0.000355864               0.999999997              -0.000129910               0.000378781               0.999999997              -0.000007730               0.000189702               0.999999997              -0.000005866               0.000170075               0.999999997              -0.000007085               0.000168782               0.999999997              -0.000010451               0.000176008               0.999999997              -0.000015361               0.000187997               0.999999997              -0.000021606               0.000203198               0.999999997              -0.000028996               0.000220512               0.999999997              -0.000037398               0.000239480               0.999999997              -0.000046708               0.000259694               0.999999997              -0.000056708               0.000280834               0.999999997              -0.000067368               0.000303059               0.999999997              -0.000078563               0.000325996               0.999999997              -0.000090314               0.000349591               0.999999997              -0.000102575               0.000374263               0.999999997              -0.000115361               0.000400051               0.999999997              -0.000128558               0.000426673               0.999999997              -0.000141947               0.000453832               0.999999997              -0.000007276               0.000216103               0.999999997              -0.000001433               0.000194591               0.999999997              -0.000002273               0.000193961               0.999999997              -0.000006296               0.000202894               0.999999997              -0.000012283               0.000217136               0.999999997              -0.000019872               0.000235021               0.999999997              -0.000028739               0.000255290               0.999999997              -0.000038644               0.000277616               0.999999997              -0.000049390               0.000301333               0.999999997              -0.000060831               0.000326174               0.999999997              -0.000072937               0.000352134               0.999999997              -0.000085537               0.000379111               0.999999997              -0.000098659               0.000406953               0.999999997              -0.000112282               0.000435996               0.999999997              -0.000126296               0.000466028               0.999999997              -0.000140393               0.000496632               0.999999997              -0.000154334               0.000527182               0.999999997              -0.000006918               0.000240032               0.999999997               0.000002778               0.000217818               0.999999997               0.000001827               0.000217941               0.999999997              -0.000003136               0.000228460               0.999999997              -0.000010434               0.000244997               0.999999997              -0.000019430               0.000265613               0.999999997              -0.000029813               0.000289027               0.999999997              -0.000041192               0.000314706               0.999999997              -0.000053434               0.000342006               0.999999997              -0.000066327               0.000370697               0.999999997              -0.000079649               0.000400719               0.999999997              -0.000093372               0.000431912               0.999999997              -0.000107548               0.000464235               0.999999997              -0.000122102               0.000497547               0.999999997              -0.000136723               0.000531519               0.999999997              -0.000151220               0.000565646               0.999999997              -0.000165559               0.000599639               0.999999997              -0.000006942               0.000262295               0.999999997               0.000005596               0.000241949               0.999999997               0.000006060               0.000239719               0.999999997               0.000002007               0.000247463               0.999999997              -0.000004332               0.000261304               0.999999997              -0.000012291               0.000279250               0.999999997              -0.000021472               0.000300151               0.999999997              -0.000031683               0.000323358               0.999999997              -0.000042741               0.000348390               0.999999997              -0.000054285               0.000374896               0.999999997              -0.000066124               0.000402681               0.999999997              -0.000078061               0.000431607               0.999999997              -0.000090169               0.000461563               0.999999997              -0.000102597               0.000492380               0.999999997              -0.000115289               0.000523997               0.999999997              -0.000128063               0.000556086               0.999999997              -0.000140971               0.000588458               0.999999997              -0.000006657               0.000282364               0.999999997               0.000007349               0.000264935               0.999999997               0.000009205               0.000261691               0.999999997               0.000006288               0.000267237               0.999999997               0.000001012               0.000278694               0.999999997              -0.000005752               0.000294223               0.999999997              -0.000013676               0.000312742               0.999999997              -0.000022693               0.000333624               0.999999997              -0.000032526               0.000356391               0.999999997              -0.000042688               0.000380757               0.999999997              -0.000052974               0.000406422               0.999999997              -0.000063239               0.000433189               0.999999997              -0.000073545               0.000460826               0.999999997              -0.000083909               0.000489354               0.999999997              -0.000094361               0.000518637               0.999999997              -0.000104947               0.000548555               0.999999997              -0.000115668               0.000578954               0.999999997              -0.000006122               0.000299880               0.999999997               0.000008065               0.000286230               0.999999997               0.000011009               0.000283023               0.999999997               0.000009302               0.000287168               0.999999997               0.000005163               0.000296741               0.999999997              -0.000000279               0.000310225               0.999999997              -0.000006908               0.000326637               0.999999997              -0.000014496               0.000345455               0.999999997              -0.000022918               0.000366252               0.999999997              -0.000031648               0.000388658               0.999999997              -0.000040375               0.000412451               0.999999997              -0.000048995               0.000437321               0.999999997              -0.000057472               0.000463057               0.999999997              -0.000065926               0.000489450               0.999999997              -0.000074174               0.000516484               0.999999997              -0.000082241               0.000544238               0.999999997              -0.000090158               0.000572622               0.999999997              -0.000005313               0.000314601               0.999999997               0.000007790               0.000305112               0.999999997               0.000011313               0.000302756               0.999999997               0.000010655               0.000306248               0.999999997               0.000007747               0.000314555               0.999999997               0.000003567               0.000326494               0.999999997              -0.000001567               0.000341286               0.999999997              -0.000007640               0.000358352               0.999999997              -0.000014476               0.000377453               0.999999997              -0.000021695               0.000398295               0.999999997              -0.000028790               0.000420593               0.999999997              -0.000035678               0.000443962               0.999999997              -0.000042461               0.000468184               0.999999997              -0.000048949               0.000493044               0.999999997              -0.000055021               0.000518445               0.999999997              -0.000060588               0.000544361               0.999999997              -0.000065487               0.000570924               0.999999997              -0.000004234               0.000326334               0.999999997               0.000006648               0.000320785               0.999999997               0.000010126               0.000319767               0.999999997               0.000010200               0.000323294               0.999999997               0.000008393               0.000330854               0.999999997               0.000005454               0.000341777               0.999999997               0.000001761               0.000355304               0.999999997              -0.000002760               0.000371063               0.999999997              -0.000007928               0.000388829               0.999999997              -0.000013430               0.000408423               0.999999997              -0.000018936               0.000429497               0.999999997              -0.000024224               0.000451731               0.999999997              -0.000029200               0.000474909               0.999999997              -0.000033887               0.000498839               0.999999997              -0.000038087               0.000523330               0.999999997              -0.000041405               0.000548213               0.999999997              -0.000043483               0.000573574               0.999999997              -0.000002938               0.000334869               0.999999997               0.000004850               0.000332592               0.999999997               0.000007611               0.000332922               0.999999997               0.000007959               0.000336773               0.999999997               0.000007039               0.000344011               0.999999997               0.000005250               0.000354270               0.999999997               0.000002838               0.000367005               0.999999997              -0.000000119               0.000381922               0.999999997              -0.000003494               0.000398775               0.999999997              -0.000007293               0.000417384               0.999999997              -0.000011253               0.000437519               0.999999997              -0.000014769               0.000458977               0.999999997              -0.000017870               0.000481567               0.999999997              -0.000020874               0.000505022               0.999999997              -0.000023532               0.000529132               0.999999997              -0.000025228               0.000553767               0.999999997              -0.000025489               0.000578690               0.999999997              -0.000001504               0.000340026               0.999999997               0.000002564               0.000339907               0.999999997               0.000004079               0.000341283               0.999999997               0.000004377               0.000345508               0.999999997               0.000004024               0.000352644               0.999999997               0.000003209               0.000362513               0.999999997               0.000001981               0.000374883               0.999999997               0.000000520               0.000389367               0.999999997              -0.000001072               0.000405641               0.999999997              -0.000003068               0.000423607               0.999999997              -0.000005133               0.000443238               0.999999997              -0.000006816               0.000464370               0.999999997              -0.000008352               0.000486721               0.999999997              -0.000009791               0.000510024               0.999999997              -0.000010972               0.000534046               0.999999997              -0.000011663               0.000558618               0.999999997              -0.000011561               0.000583422               0.999999997               0.000000000               0.000341766               0.999999997              -0.000000000               0.000342392               0.999999997               0.000000000               0.000344151               0.999999997               0.000000000               0.000348487               0.999999997               0.000000000               0.000355573               0.999999997               0.000000000               0.000365386               0.999999997              -0.000000000               0.000377700               0.999999997              -0.000000000               0.000392021               0.999999997               0.000000000               0.000408096               0.999999997               0.000000000               0.000425839               0.999999997              -0.000000000               0.000445321               0.999999997              -0.000000000               0.000466389               0.999999997              -0.000000000               0.000488630               0.999999997               0.000000000               0.000511927               0.999999997               0.000000000               0.000535958               0.999999997               0.000000000               0.000560454               0.999999997               0.000000000               0.000585234               0.999999997              -0.000008889               0.000000000               0.999999997              -0.000022580              -0.000000000               0.999999997              -0.000029464              -0.000000000               0.999999997              -0.000033755              -0.000000000               0.999999997              -0.000037213               0.000000000               0.999999997              -0.000040606               0.000000000               0.999999997              -0.000044322               0.000000000               0.999999997              -0.000048461               0.000000000               0.999999997              -0.000053041              -0.000000000               0.999999997              -0.000058128              -0.000000000               0.999999997              -0.000063703               0.000000000               0.999999997              -0.000069772              -0.000000000               0.999999997              -0.000076344              -0.000000000               0.999999997              -0.000083486               0.000000000               0.999999997              -0.000091202               0.000000000               0.999999997              -0.000099490               0.000000000               0.999999997              -0.000108331               0.000000000               0.999999997              -0.000008835              -0.000033693               0.999999997              -0.000021993              -0.000030097               0.999999997              -0.000028591              -0.000029318               0.999999997              -0.000032790              -0.000030100               0.999999997              -0.000036237              -0.000031765               0.999999997              -0.000039657              -0.000034089               0.999999997              -0.000043392              -0.000036839               0.999999997              -0.000047586              -0.000039887               0.999999997              -0.000052262              -0.000043172               0.999999997              -0.000057489              -0.000046697               0.999999997              -0.000063208              -0.000050389               0.999999997              -0.000069385              -0.000054186               0.999999997              -0.000076078              -0.000058201               0.999999997              -0.000083317              -0.000062277               0.999999997              -0.000091124              -0.000066410               0.999999997              -0.000099500              -0.000070464               0.999999997              -0.000108429              -0.000074464               0.999999997              -0.000008727              -0.000067031               0.999999997              -0.000020364              -0.000059877               0.999999997              -0.000026136              -0.000058473               0.999999997              -0.000029978              -0.000060100               0.999999997              -0.000033332              -0.000063598               0.999999997              -0.000036841              -0.000068285               0.999999997              -0.000040797              -0.000073829               0.999999997              -0.000045317              -0.000080003               0.999999997              -0.000050401              -0.000086625               0.999999997              -0.000056011              -0.000093755               0.999999997              -0.000062120              -0.000101059               0.999999997              -0.000068731              -0.000108692               0.999999997              -0.000075843              -0.000116680               0.999999997              -0.000083477              -0.000124941               0.999999997              -0.000091668              -0.000133270               0.999999997              -0.000100414              -0.000141666               0.999999997              -0.000109722              -0.000150026               0.999999997              -0.000008607              -0.000099644               0.999999997              -0.000017779              -0.000088980               0.999999997              -0.000022316              -0.000087183               0.999999997              -0.000025733              -0.000089909               0.999999997              -0.000029097              -0.000095350               0.999999997              -0.000032867              -0.000102523               0.999999997              -0.000037304              -0.000110979               0.999999997              -0.000042376              -0.000120310               0.999999997              -0.000048044              -0.000130298               0.999999997              -0.000054352              -0.000140947               0.999999997              -0.000061233              -0.000152038               0.999999997              -0.000068644              -0.000163435               0.999999997              -0.000076565              -0.000175362               0.999999997              -0.000084951              -0.000187737               0.999999997              -0.000093853              -0.000200434               0.999999997              -0.000103288              -0.000213321               0.999999997              -0.000113251              -0.000226469               0.999999997              -0.000008381              -0.000131188               0.999999997              -0.000014340              -0.000117157               0.999999997              -0.000017573              -0.000115239               0.999999997              -0.000020621              -0.000119307               0.999999997              -0.000024232              -0.000126795               0.999999997              -0.000028604              -0.000136595               0.999999997              -0.000033723              -0.000148011               0.999999997              -0.000039614              -0.000160548               0.999999997              -0.000046215              -0.000173954               0.999999997              -0.000053494              -0.000188114               0.999999997              -0.000061440              -0.000202907               0.999999997              -0.000070013              -0.000218069               0.999999997              -0.000079075              -0.000233831               0.999999997              -0.000088608              -0.000250221               0.999999997              -0.000098602              -0.000267159               0.999999997              -0.000109071              -0.000284697               0.999999997              -0.000120064              -0.000302761               0.999999997              -0.000008069              -0.000161314               0.999999997              -0.000010277              -0.000144244               0.999999997              -0.000012332              -0.000142501               0.999999997              -0.000015347              -0.000148049               0.999999997              -0.000019458              -0.000157779               0.999999997              -0.000024610              -0.000170281               0.999999997              -0.000030731              -0.000184664               0.999999997              -0.000037750              -0.000200428               0.999999997              -0.000045603              -0.000217181               0.999999997              -0.000054243              -0.000234786               0.999999997              -0.000063545              -0.000253248               0.999999997              -0.000073406              -0.000272262               0.999999997              -0.000083777              -0.000291838               0.999999997              -0.000094581              -0.000312296               0.999999997              -0.000105884              -0.000333644               0.999999997              -0.000117686              -0.000355864               0.999999997              -0.000129910              -0.000378781               0.999999997              -0.000007730              -0.000189702               0.999999997              -0.000005866              -0.000170075               0.999999997              -0.000007085              -0.000168782               0.999999997              -0.000010451              -0.000176008               0.999999997              -0.000015361              -0.000187997               0.999999997              -0.000021606              -0.000203198               0.999999997              -0.000028996              -0.000220512               0.999999997              -0.000037398              -0.000239480               0.999999997              -0.000046708              -0.000259694               0.999999997              -0.000056708              -0.000280834               0.999999997              -0.000067368              -0.000303059               0.999999997              -0.000078563              -0.000325996               0.999999997              -0.000090314              -0.000349591               0.999999997              -0.000102575              -0.000374263               0.999999997              -0.000115361              -0.000400051               0.999999997              -0.000128558              -0.000426673               0.999999997              -0.000141947              -0.000453832               0.999999997              -0.000007276              -0.000216103               0.999999997              -0.000001433              -0.000194591               0.999999997              -0.000002273              -0.000193961               0.999999997              -0.000006296              -0.000202894               0.999999997              -0.000012283              -0.000217136               0.999999997              -0.000019872              -0.000235021               0.999999997              -0.000028739              -0.000255290               0.999999997              -0.000038644              -0.000277616               0.999999997              -0.000049390              -0.000301333               0.999999997              -0.000060831              -0.000326174               0.999999997              -0.000072937              -0.000352134               0.999999997              -0.000085537              -0.000379111               0.999999997              -0.000098659              -0.000406953               0.999999997              -0.000112282              -0.000435996               0.999999997              -0.000126296              -0.000466028               0.999999997              -0.000140393              -0.000496632               0.999999997              -0.000154334              -0.000527182               0.999999997              -0.000006918              -0.000240032               0.999999997               0.000002778              -0.000217818               0.999999997               0.000001827              -0.000217941               0.999999997              -0.000003136              -0.000228460               0.999999997              -0.000010434              -0.000244997               0.999999997              -0.000019430              -0.000265613               0.999999997              -0.000029813              -0.000289027               0.999999997              -0.000041192              -0.000314706               0.999999997              -0.000053434              -0.000342006               0.999999997              -0.000066327              -0.000370697               0.999999997              -0.000079649              -0.000400719               0.999999997              -0.000093372              -0.000431912               0.999999997              -0.000107548              -0.000464235               0.999999997              -0.000122102              -0.000497547               0.999999997              -0.000136723              -0.000531519               0.999999997              -0.000151220              -0.000565646               0.999999997              -0.000165559              -0.000599639               0.999999997              -0.000006942              -0.000262295               0.999999997               0.000005596              -0.000241949               0.999999997               0.000006060              -0.000239719               0.999999997               0.000002007              -0.000247463               0.999999997              -0.000004332              -0.000261304               0.999999997              -0.000012291              -0.000279250               0.999999997              -0.000021472              -0.000300151               0.999999997              -0.000031683              -0.000323358               0.999999997              -0.000042741              -0.000348390               0.999999997              -0.000054285              -0.000374896               0.999999997              -0.000066124              -0.000402681               0.999999997              -0.000078061              -0.000431607               0.999999997              -0.000090169              -0.000461563               0.999999997              -0.000102597              -0.000492380               0.999999997              -0.000115289              -0.000523997               0.999999997              -0.000128063              -0.000556086               0.999999997              -0.000140971              -0.000588458               0.999999997              -0.000006657              -0.000282364               0.999999997               0.000007349              -0.000264935               0.999999997               0.000009205              -0.000261691               0.999999997               0.000006288              -0.000267237               0.999999997               0.000001012              -0.000278694               0.999999997              -0.000005752              -0.000294223               0.999999997              -0.000013676              -0.000312742               0.999999997              -0.000022693              -0.000333624               0.999999997              -0.000032526              -0.000356391               0.999999997              -0.000042688              -0.000380757               0.999999997              -0.000052974              -0.000406422               0.999999997              -0.000063239              -0.000433189               0.999999997              -0.000073545              -0.000460826               0.999999997              -0.000083909              -0.000489354               0.999999997              -0.000094361              -0.000518637               0.999999997              -0.000104947              -0.000548555               0.999999997              -0.000115668              -0.000578954               0.999999997              -0.000006122              -0.000299880               0.999999997               0.000008065              -0.000286230               0.999999997               0.000011009              -0.000283023               0.999999997               0.000009302              -0.000287168               0.999999997               0.000005163              -0.000296741               0.999999997              -0.000000279              -0.000310225               0.999999997              -0.000006908              -0.000326637               0.999999997              -0.000014496              -0.000345455               0.999999997              -0.000022918              -0.000366252               0.999999997              -0.000031648              -0.000388658               0.999999997              -0.000040375              -0.000412451               0.999999997              -0.000048995              -0.000437321               0.999999997              -0.000057472              -0.000463057               0.999999997              -0.000065926              -0.000489450               0.999999997              -0.000074174              -0.000516484               0.999999997              -0.000082241              -0.000544238               0.999999997              -0.000090158              -0.000572622               0.999999997              -0.000005313              -0.000314601               0.999999997               0.000007790              -0.000305112               0.999999997               0.000011313              -0.000302756               0.999999997               0.000010655              -0.000306248               0.999999997               0.000007747              -0.000314555               0.999999997               0.000003567              -0.000326494               0.999999997              -0.000001567              -0.000341286               0.999999997              -0.000007640              -0.000358352               0.999999997              -0.000014476              -0.000377453               0.999999997              -0.000021695              -0.000398295               0.999999997              -0.000028790              -0.000420593               0.999999997              -0.000035678              -0.000443962               0.999999997              -0.000042461              -0.000468184               0.999999997              -0.000048949              -0.000493044               0.999999997              -0.000055021              -0.000518445               0.999999997              -0.000060588              -0.000544361               0.999999997              -0.000065487              -0.000570924               0.999999997              -0.000004234              -0.000326334               0.999999997               0.000006648              -0.000320785               0.999999997               0.000010126              -0.000319767               0.999999997               0.000010200              -0.000323294               0.999999997               0.000008393              -0.000330854               0.999999997               0.000005454              -0.000341777               0.999999997               0.000001761              -0.000355304               0.999999997              -0.000002760              -0.000371063               0.999999997              -0.000007928              -0.000388829               0.999999997              -0.000013430              -0.000408423               0.999999997              -0.000018936              -0.000429497               0.999999997              -0.000024224              -0.000451731               0.999999997              -0.000029200              -0.000474909               0.999999997              -0.000033887              -0.000498839               0.999999997              -0.000038087              -0.000523330               0.999999997              -0.000041405              -0.000548213               0.999999997              -0.000043483              -0.000573574               0.999999997              -0.000002938              -0.000334869               0.999999997               0.000004850              -0.000332592               0.999999997               0.000007611              -0.000332922               0.999999997               0.000007959              -0.000336773               0.999999997               0.000007039              -0.000344011               0.999999997               0.000005250              -0.000354270               0.999999997               0.000002838              -0.000367005               0.999999997              -0.000000119              -0.000381922               0.999999997              -0.000003494              -0.000398775               0.999999997              -0.000007293              -0.000417384               0.999999997              -0.000011253              -0.000437519               0.999999997              -0.000014769              -0.000458977               0.999999997              -0.000017870              -0.000481567               0.999999997              -0.000020874              -0.000505022               0.999999997              -0.000023532              -0.000529132               0.999999997              -0.000025228              -0.000553767               0.999999997              -0.000025489              -0.000578690               0.999999997              -0.000001504              -0.000340026               0.999999997               0.000002564              -0.000339907               0.999999997               0.000004079              -0.000341283               0.999999997               0.000004377              -0.000345508               0.999999997               0.000004024              -0.000352644               0.999999997               0.000003209              -0.000362513               0.999999997               0.000001981              -0.000374883               0.999999997               0.000000520              -0.000389367               0.999999997              -0.000001072              -0.000405641               0.999999997              -0.000003068              -0.000423607               0.999999997              -0.000005133              -0.000443238               0.999999997              -0.000006816              -0.000464370               0.999999997              -0.000008352              -0.000486721               0.999999997              -0.000009791              -0.000510024               0.999999997              -0.000010972              -0.000534046               0.999999997              -0.000011663              -0.000558618               0.999999997              -0.000011561              -0.000583422               0.999999997              -0.000000000              -0.000341766               0.999999997               0.000000000              -0.000342392               0.999999997              -0.000000000              -0.000344151               0.999999997              -0.000000000              -0.000348487               0.999999997               0.000000000              -0.000355573               0.999999997               0.000000000              -0.000365386               0.999999997              -0.000000000              -0.000377700               0.999999997              -0.000000000              -0.000392021               0.999999997               0.000000000              -0.000408096               0.999999997               0.000000000              -0.000425839               0.999999997               0.000000000              -0.000445321               0.999999997               0.000000000              -0.000466389               0.999999997              -0.000000000              -0.000488630               0.999999997              -0.000000000              -0.000511927               0.999999997               0.000000000              -0.000535958               0.999999997               0.000000000              -0.000560454               0.999999997               0.000000000              -0.000585234               0.999999997               0.000008889              -0.000000000               0.999999997               0.000022580              -0.000000000               0.999999997               0.000029464              -0.000000000               0.999999997               0.000033755              -0.000000000               0.999999997               0.000037213              -0.000000000               0.999999997               0.000040606              -0.000000000               0.999999997               0.000044322               0.000000000               0.999999997               0.000048461              -0.000000000               0.999999997               0.000053041               0.000000000               0.999999997               0.000058128               0.000000000               0.999999997               0.000063703               0.000000000               0.999999997               0.000069772               0.000000000               0.999999997               0.000076344               0.000000000               0.999999997               0.000083486               0.000000000               0.999999997               0.000091202               0.000000000               0.999999997               0.000099490               0.000000000               0.999999997               0.000108331               0.000000000               0.999999997               0.000008835              -0.000033693               0.999999997               0.000021993              -0.000030097               0.999999997               0.000028591              -0.000029318               0.999999997               0.000032790              -0.000030100               0.999999997               0.000036237              -0.000031765               0.999999997               0.000039657              -0.000034089               0.999999997               0.000043392              -0.000036839               0.999999997               0.000047586              -0.000039887               0.999999997               0.000052262              -0.000043172               0.999999997               0.000057489              -0.000046697               0.999999997               0.000063208              -0.000050389               0.999999997               0.000069385              -0.000054186               0.999999997               0.000076078              -0.000058201               0.999999997               0.000083317              -0.000062277               0.999999997               0.000091124              -0.000066410               0.999999997               0.000099500              -0.000070464               0.999999997               0.000108429              -0.000074464               0.999999997               0.000008727              -0.000067031               0.999999997               0.000020364              -0.000059877               0.999999997               0.000026136              -0.000058473               0.999999997               0.000029978              -0.000060100               0.999999997               0.000033332              -0.000063598               0.999999997               0.000036841              -0.000068285               0.999999997               0.000040797              -0.000073829               0.999999997               0.000045317              -0.000080003               0.999999997               0.000050401              -0.000086625               0.999999997               0.000056011              -0.000093755               0.999999997               0.000062120              -0.000101059               0.999999997               0.000068731              -0.000108692               0.999999997               0.000075843              -0.000116680               0.999999997               0.000083477              -0.000124941               0.999999997               0.000091668              -0.000133270               0.999999997               0.000100414              -0.000141666               0.999999997               0.000109722              -0.000150026               0.999999997               0.000008607              -0.000099644               0.999999997               0.000017779              -0.000088980               0.999999997               0.000022316              -0.000087183               0.999999997               0.000025733              -0.000089909               0.999999997               0.000029097              -0.000095350               0.999999997               0.000032867              -0.000102523               0.999999997               0.000037304              -0.000110979               0.999999997               0.000042376              -0.000120310               0.999999997               0.000048044              -0.000130298               0.999999997               0.000054352              -0.000140947               0.999999997               0.000061233              -0.000152038               0.999999997               0.000068644              -0.000163435               0.999999997               0.000076565              -0.000175362               0.999999997               0.000084951              -0.000187737               0.999999997               0.000093853              -0.000200434               0.999999997               0.000103288              -0.000213321               0.999999997               0.000113251              -0.000226469               0.999999997               0.000008381              -0.000131188               0.999999997               0.000014340              -0.000117157               0.999999997               0.000017573              -0.000115239               0.999999997               0.000020621              -0.000119307               0.999999997               0.000024232              -0.000126795               0.999999997               0.000028604              -0.000136595               0.999999997               0.000033723              -0.000148011               0.999999997               0.000039614              -0.000160548               0.999999997               0.000046215              -0.000173954               0.999999997               0.000053494              -0.000188114               0.999999997               0.000061440              -0.000202907               0.999999997               0.000070013              -0.000218069               0.999999997               0.000079075              -0.000233831               0.999999997               0.000088608              -0.000250221               0.999999997               0.000098602              -0.000267159               0.999999997               0.000109071              -0.000284697               0.999999997               0.000120064              -0.000302761               0.999999997               0.000008069              -0.000161314               0.999999997               0.000010277              -0.000144244               0.999999997               0.000012332              -0.000142501               0.999999997               0.000015347              -0.000148049               0.999999997               0.000019458              -0.000157779               0.999999997               0.000024610              -0.000170281               0.999999997               0.000030731              -0.000184664               0.999999997               0.000037750              -0.000200428               0.999999997               0.000045603              -0.000217181               0.999999997               0.000054243              -0.000234786               0.999999997               0.000063545              -0.000253248               0.999999997               0.000073406              -0.000272262               0.999999997               0.000083777              -0.000291838               0.999999997               0.000094581              -0.000312296               0.999999997               0.000105884              -0.000333644               0.999999997               0.000117686              -0.000355864               0.999999997               0.000129910              -0.000378781               0.999999997               0.000007730              -0.000189702               0.999999997               0.000005866              -0.000170075               0.999999997               0.000007085              -0.000168782               0.999999997               0.000010451              -0.000176008               0.999999997               0.000015361              -0.000187997               0.999999997               0.000021606              -0.000203198               0.999999997               0.000028996              -0.000220512               0.999999997               0.000037398              -0.000239480               0.999999997               0.000046708              -0.000259694               0.999999997               0.000056708              -0.000280834               0.999999997               0.000067368              -0.000303059               0.999999997               0.000078563              -0.000325996               0.999999997               0.000090314              -0.000349591               0.999999997               0.000102575              -0.000374263               0.999999997               0.000115361              -0.000400051               0.999999997               0.000128558              -0.000426673               0.999999997               0.000141947              -0.000453832               0.999999997               0.000007276              -0.000216103               0.999999997               0.000001433              -0.000194591               0.999999997               0.000002273              -0.000193961               0.999999997               0.000006296              -0.000202894               0.999999997               0.000012283              -0.000217136               0.999999997               0.000019872              -0.000235021               0.999999997               0.000028739              -0.000255290               0.999999997               0.000038644              -0.000277616               0.999999997               0.000049390              -0.000301333               0.999999997               0.000060831              -0.000326174               0.999999997               0.000072937              -0.000352134               0.999999997               0.000085537              -0.000379111               0.999999997               0.000098659              -0.000406953               0.999999997               0.000112282              -0.000435996               0.999999997               0.000126296              -0.000466028               0.999999997               0.000140393              -0.000496632               0.999999997               0.000154334              -0.000527182               0.999999997               0.000006918              -0.000240032               0.999999997              -0.000002778              -0.000217818               0.999999997              -0.000001827              -0.000217941               0.999999997               0.000003136              -0.000228460               0.999999997               0.000010434              -0.000244997               0.999999997               0.000019430              -0.000265613               0.999999997               0.000029813              -0.000289027               0.999999997               0.000041192              -0.000314706               0.999999997               0.000053434              -0.000342006               0.999999997               0.000066327              -0.000370697               0.999999997               0.000079649              -0.000400719               0.999999997               0.000093372              -0.000431912               0.999999997               0.000107548              -0.000464235               0.999999997               0.000122102              -0.000497547               0.999999997               0.000136723              -0.000531519               0.999999997               0.000151220              -0.000565646               0.999999997               0.000165559              -0.000599639               0.999999997               0.000006942              -0.000262295               0.999999997              -0.000005596              -0.000241949               0.999999997              -0.000006060              -0.000239719               0.999999997              -0.000002007              -0.000247463               0.999999997               0.000004332              -0.000261304               0.999999997               0.000012291              -0.000279250               0.999999997               0.000021472              -0.000300151               0.999999997               0.000031683              -0.000323358               0.999999997               0.000042741              -0.000348390               0.999999997               0.000054285              -0.000374896               0.999999997               0.000066124              -0.000402681               0.999999997               0.000078061              -0.000431607               0.999999997               0.000090169              -0.000461563               0.999999997               0.000102597              -0.000492380               0.999999997               0.000115289              -0.000523997               0.999999997               0.000128063              -0.000556086               0.999999997               0.000140971              -0.000588458               0.999999997               0.000006657              -0.000282364               0.999999997              -0.000007349              -0.000264935               0.999999997              -0.000009205              -0.000261691               0.999999997              -0.000006288              -0.000267237               0.999999997              -0.000001012              -0.000278694               0.999999997               0.000005752              -0.000294223               0.999999997               0.000013676              -0.000312742               0.999999997               0.000022693              -0.000333624               0.999999997               0.000032526              -0.000356391               0.999999997               0.000042688              -0.000380757               0.999999997               0.000052974              -0.000406422               0.999999997               0.000063239              -0.000433189               0.999999997               0.000073545              -0.000460826               0.999999997               0.000083909              -0.000489354               0.999999997               0.000094361              -0.000518637               0.999999997               0.000104947              -0.000548555               0.999999997               0.000115668              -0.000578954               0.999999997               0.000006122              -0.000299880               0.999999997              -0.000008065              -0.000286230               0.999999997              -0.000011009              -0.000283023               0.999999997              -0.000009302              -0.000287168               0.999999997              -0.000005163              -0.000296741               0.999999997               0.000000279              -0.000310225               0.999999997               0.000006908              -0.000326637               0.999999997               0.000014496              -0.000345455               0.999999997               0.000022918              -0.000366252               0.999999997               0.000031648              -0.000388658               0.999999997               0.000040375              -0.000412451               0.999999997               0.000048995              -0.000437321               0.999999997               0.000057472              -0.000463057               0.999999997               0.000065926              -0.000489450               0.999999997               0.000074174              -0.000516484               0.999999997               0.000082241              -0.000544238               0.999999997               0.000090158              -0.000572622               0.999999997               0.000005313              -0.000314601               0.999999997              -0.000007790              -0.000305112               0.999999997              -0.000011313              -0.000302756               0.999999997              -0.000010655              -0.000306248               0.999999997              -0.000007747              -0.000314555               0.999999997              -0.000003567              -0.000326494               0.999999997               0.000001567              -0.000341286               0.999999997               0.000007640              -0.000358352               0.999999997               0.000014476              -0.000377453               0.999999997               0.000021695              -0.000398295               0.999999997               0.000028790              -0.000420593               0.999999997               0.000035678              -0.000443962               0.999999997               0.000042461              -0.000468184               0.999999997               0.000048949              -0.000493044               0.999999997               0.000055021              -0.000518445               0.999999997               0.000060588              -0.000544361               0.999999997               0.000065487              -0.000570924               0.999999997               0.000004234              -0.000326334               0.999999997              -0.000006648              -0.000320785               0.999999997              -0.000010126              -0.000319767               0.999999997              -0.000010200              -0.000323294               0.999999997              -0.000008393              -0.000330854               0.999999997              -0.000005454              -0.000341777               0.999999997              -0.000001761              -0.000355304               0.999999997               0.000002760              -0.000371063               0.999999997               0.000007928              -0.000388829               0.999999997               0.000013430              -0.000408423               0.999999997               0.000018936              -0.000429497               0.999999997               0.000024224              -0.000451731               0.999999997               0.000029200              -0.000474909               0.999999997               0.000033887              -0.000498839               0.999999997               0.000038087              -0.000523330               0.999999997               0.000041405              -0.000548213               0.999999997               0.000043483              -0.000573574               0.999999997               0.000002938              -0.000334869               0.999999997              -0.000004850              -0.000332592               0.999999997              -0.000007611              -0.000332922               0.999999997              -0.000007959              -0.000336773               0.999999997              -0.000007039              -0.000344011               0.999999997              -0.000005250              -0.000354270               0.999999997              -0.000002838              -0.000367005               0.999999997               0.000000119              -0.000381922               0.999999997               0.000003494              -0.000398775               0.999999997               0.000007293              -0.000417384               0.999999997               0.000011253              -0.000437519               0.999999997               0.000014769              -0.000458977               0.999999997               0.000017870              -0.000481567               0.999999997               0.000020874              -0.000505022               0.999999997               0.000023532              -0.000529132               0.999999997               0.000025228              -0.000553767               0.999999997               0.000025489              -0.000578690               0.999999997               0.000001504              -0.000340026               0.999999997              -0.000002564              -0.000339907               0.999999997              -0.000004079              -0.000341283               0.999999997              -0.000004377              -0.000345508               0.999999997              -0.000004024              -0.000352644               0.999999997              -0.000003209              -0.000362513               0.999999997              -0.000001981              -0.000374883               0.999999997              -0.000000520              -0.000389367               0.999999997               0.000001072              -0.000405641               0.999999997               0.000003068              -0.000423607               0.999999997               0.000005133              -0.000443238               0.999999997               0.000006816              -0.000464370               0.999999997               0.000008352              -0.000486721               0.999999997               0.000009791              -0.000510024               0.999999997               0.000010972              -0.000534046               0.999999997               0.000011663              -0.000558618               0.999999997               0.000011561              -0.000583422               0.999999997              -0.000000000              -0.000341766               0.999999997               0.000000000              -0.000342392               0.999999997              -0.000000000              -0.000344151               0.999999997              -0.000000000              -0.000348487               0.999999997               0.000000000              -0.000355573               0.999999997               0.000000000              -0.000365386               0.999999997              -0.000000000              -0.000377700               0.999999997              -0.000000000              -0.000392021               0.999999997               0.000000000              -0.000408096               0.999999997               0.000000000              -0.000425839               0.999999997               0.000000000              -0.000445321               0.999999997               0.000000000              -0.000466389               0.999999997              -0.000000000              -0.000488630               0.999999997              -0.000000000              -0.000511927               0.999999997               0.000000000              -0.000535958               0.999999997               0.000000000              -0.000560454               0.999999997               0.000000000              -0.000585234               0.999999997               0.000008889              -0.000000000               0.999999997               0.000022580              -0.000000000               0.999999997               0.000029464              -0.000000000               0.999999997               0.000033755              -0.000000000               0.999999997               0.000037213              -0.000000000               0.999999997               0.000040606              -0.000000000               0.999999997               0.000044322               0.000000000               0.999999997               0.000048461              -0.000000000               0.999999997               0.000053041               0.000000000               0.999999997               0.000058128               0.000000000               0.999999997               0.000063703               0.000000000               0.999999997               0.000069772               0.000000000               0.999999997               0.000076344               0.000000000               0.999999997               0.000083486               0.000000000               0.999999997               0.000091202               0.000000000               0.999999997               0.000099490               0.000000000               0.999999997               0.000108331               0.000000000               0.999999997               0.000008835               0.000033693               0.999999997               0.000021993               0.000030097               0.999999997               0.000028591               0.000029318               0.999999997               0.000032790               0.000030100               0.999999997               0.000036237               0.000031765               0.999999997               0.000039657               0.000034089               0.999999997               0.000043392               0.000036839               0.999999997               0.000047586               0.000039887               0.999999997               0.000052262               0.000043172               0.999999997               0.000057489               0.000046697               0.999999997               0.000063208               0.000050389               0.999999997               0.000069385               0.000054186               0.999999997               0.000076078               0.000058201               0.999999997               0.000083317               0.000062277               0.999999997               0.000091124               0.000066410               0.999999997               0.000099500               0.000070464               0.999999997               0.000108429               0.000074464               0.999999997               0.000008727               0.000067031               0.999999997               0.000020364               0.000059877               0.999999997               0.000026136               0.000058473               0.999999997               0.000029978               0.000060100               0.999999997               0.000033332               0.000063598               0.999999997               0.000036841               0.000068285               0.999999997               0.000040797               0.000073829               0.999999997               0.000045317               0.000080003               0.999999997               0.000050401               0.000086625               0.999999997               0.000056011               0.000093755               0.999999997               0.000062120               0.000101059               0.999999997               0.000068731               0.000108692               0.999999997               0.000075843               0.000116680               0.999999997               0.000083477               0.000124941               0.999999997               0.000091668               0.000133270               0.999999997               0.000100414               0.000141666               0.999999997               0.000109722               0.000150026               0.999999997               0.000008607               0.000099644               0.999999997               0.000017779               0.000088980               0.999999997               0.000022316               0.000087183               0.999999997               0.000025733               0.000089909               0.999999997               0.000029097               0.000095350               0.999999997               0.000032867               0.000102523               0.999999997               0.000037304               0.000110979               0.999999997               0.000042376               0.000120310               0.999999997               0.000048044               0.000130298               0.999999997               0.000054352               0.000140947               0.999999997               0.000061233               0.000152038               0.999999997               0.000068644               0.000163435               0.999999997               0.000076565               0.000175362               0.999999997               0.000084951               0.000187737               0.999999997               0.000093853               0.000200434               0.999999997               0.000103288               0.000213321               0.999999997               0.000113251               0.000226469               0.999999997               0.000008381               0.000131188               0.999999997               0.000014340               0.000117157               0.999999997               0.000017573               0.000115239               0.999999997               0.000020621               0.000119307               0.999999997               0.000024232               0.000126795               0.999999997               0.000028604               0.000136595               0.999999997               0.000033723               0.000148011               0.999999997               0.000039614               0.000160548               0.999999997               0.000046215               0.000173954               0.999999997               0.000053494               0.000188114               0.999999997               0.000061440               0.000202907               0.999999997               0.000070013               0.000218069               0.999999997               0.000079075               0.000233831               0.999999997               0.000088608               0.000250221               0.999999997               0.000098602               0.000267159               0.999999997               0.000109071               0.000284697               0.999999997               0.000120064               0.000302761               0.999999997               0.000008069               0.000161314               0.999999997               0.000010277               0.000144244               0.999999997               0.000012332               0.000142501               0.999999997               0.000015347               0.000148049               0.999999997               0.000019458               0.000157779               0.999999997               0.000024610               0.000170281               0.999999997               0.000030731               0.000184664               0.999999997               0.000037750               0.000200428               0.999999997               0.000045603               0.000217181               0.999999997               0.000054243               0.000234786               0.999999997               0.000063545               0.000253248               0.999999997               0.000073406               0.000272262               0.999999997               0.000083777               0.000291838               0.999999997               0.000094581               0.000312296               0.999999997               0.000105884               0.000333644               0.999999997               0.000117686               0.000355864               0.999999997               0.000129910               0.000378781               0.999999997               0.000007730               0.000189702               0.999999997               0.000005866               0.000170075               0.999999997               0.000007085               0.000168782               0.999999997               0.000010451               0.000176008               0.999999997               0.000015361               0.000187997               0.999999997               0.000021606               0.000203198               0.999999997               0.000028996               0.000220512               0.999999997               0.000037398               0.000239480               0.999999997               0.000046708               0.000259694               0.999999997               0.000056708               0.000280834               0.999999997               0.000067368               0.000303059               0.999999997               0.000078563               0.000325996               0.999999997               0.000090314               0.000349591               0.999999997               0.000102575               0.000374263               0.999999997               0.000115361               0.000400051               0.999999997               0.000128558               0.000426673               0.999999997               0.000141947               0.000453832               0.999999997               0.000007276               0.000216103               0.999999997               0.000001433               0.000194591               0.999999997               0.000002273               0.000193961               0.999999997               0.000006296               0.000202894               0.999999997               0.000012283               0.000217136               0.999999997               0.000019872               0.000235021               0.999999997               0.000028739               0.000255290               0.999999997               0.000038644               0.000277616               0.999999997               0.000049390               0.000301333               0.999999997               0.000060831               0.000326174               0.999999997               0.000072937               0.000352134               0.999999997               0.000085537               0.000379111               0.999999997               0.000098659               0.000406953               0.999999997               0.000112282               0.000435996               0.999999997               0.000126296               0.000466028               0.999999997               0.000140393               0.000496632               0.999999997               0.000154334               0.000527182               0.999999997               0.000006918               0.000240032               0.999999997              -0.000002778               0.000217818               0.999999997              -0.000001827               0.000217941               0.999999997               0.000003136               0.000228460               0.999999997               0.000010434               0.000244997               0.999999997               0.000019430               0.000265613               0.999999997               0.000029813               0.000289027               0.999999997               0.000041192               0.000314706               0.999999997               0.000053434               0.000342006               0.999999997               0.000066327               0.000370697               0.999999997               0.000079649               0.000400719               0.999999997               0.000093372               0.000431912               0.999999997               0.000107548               0.000464235               0.999999997               0.000122102               0.000497547               0.999999997               0.000136723               0.000531519               0.999999997               0.000151220               0.000565646               0.999999997               0.000165559               0.000599639               0.999999997               0.000006942               0.000262295               0.999999997              -0.000005596               0.000241949               0.999999997              -0.000006060               0.000239719               0.999999997              -0.000002007               0.000247463               0.999999997               0.000004332               0.000261304               0.999999997               0.000012291               0.000279250               0.999999997               0.000021472               0.000300151               0.999999997               0.000031683               0.000323358               0.999999997               0.000042741               0.000348390               0.999999997               0.000054285               0.000374896               0.999999997               0.000066124               0.000402681               0.999999997               0.000078061               0.000431607               0.999999997               0.000090169               0.000461563               0.999999997               0.000102597               0.000492380               0.999999997               0.000115289               0.000523997               0.999999997               0.000128063               0.000556086               0.999999997               0.000140971               0.000588458               0.999999997               0.000006657               0.000282364               0.999999997              -0.000007349               0.000264935               0.999999997              -0.000009205               0.000261691               0.999999997              -0.000006288               0.000267237               0.999999997              -0.000001012               0.000278694               0.999999997               0.000005752               0.000294223               0.999999997               0.000013676               0.000312742               0.999999997               0.000022693               0.000333624               0.999999997               0.000032526               0.000356391               0.999999997               0.000042688               0.000380757               0.999999997               0.000052974               0.000406422               0.999999997               0.000063239               0.000433189               0.999999997               0.000073545               0.000460826               0.999999997               0.000083909               0.000489354               0.999999997               0.000094361               0.000518637               0.999999997               0.000104947               0.000548555               0.999999997               0.000115668               0.000578954               0.999999997               0.000006122               0.000299880               0.999999997              -0.000008065               0.000286230               0.999999997              -0.000011009               0.000283023               0.999999997              -0.000009302               0.000287168               0.999999997              -0.000005163               0.000296741               0.999999997               0.000000279               0.000310225               0.999999997               0.000006908               0.000326637               0.999999997               0.000014496               0.000345455               0.999999997               0.000022918               0.000366252               0.999999997               0.000031648               0.000388658               0.999999997               0.000040375               0.000412451               0.999999997               0.000048995               0.000437321               0.999999997               0.000057472               0.000463057               0.999999997               0.000065926               0.000489450               0.999999997               0.000074174               0.000516484               0.999999997               0.000082241               0.000544238               0.999999997               0.000090158               0.000572622               0.999999997               0.000005313               0.000314601               0.999999997              -0.000007790               0.000305112               0.999999997              -0.000011313               0.000302756               0.999999997              -0.000010655               0.000306248               0.999999997              -0.000007747               0.000314555               0.999999997              -0.000003567               0.000326494               0.999999997               0.000001567               0.000341286               0.999999997               0.000007640               0.000358352               0.999999997               0.000014476               0.000377453               0.999999997               0.000021695               0.000398295               0.999999997               0.000028790               0.000420593               0.999999997               0.000035678               0.000443962               0.999999997               0.000042461               0.000468184               0.999999997               0.000048949               0.000493044               0.999999997               0.000055021               0.000518445               0.999999997               0.000060588               0.000544361               0.999999997               0.000065487               0.000570924               0.999999997               0.000004234               0.000326334               0.999999997              -0.000006648               0.000320785               0.999999997              -0.000010126               0.000319767               0.999999997              -0.000010200               0.000323294               0.999999997              -0.000008393               0.000330854               0.999999997              -0.000005454               0.000341777               0.999999997              -0.000001761               0.000355304               0.999999997               0.000002760               0.000371063               0.999999997               0.000007928               0.000388829               0.999999997               0.000013430               0.000408423               0.999999997               0.000018936               0.000429497               0.999999997               0.000024224               0.000451731               0.999999997               0.000029200               0.000474909               0.999999997               0.000033887               0.000498839               0.999999997               0.000038087               0.000523330               0.999999997               0.000041405               0.000548213               0.999999997               0.000043483               0.000573574               0.999999997               0.000002938               0.000334869               0.999999997              -0.000004850               0.000332592               0.999999997              -0.000007611               0.000332922               0.999999997              -0.000007959               0.000336773               0.999999997              -0.000007039               0.000344011               0.999999997              -0.000005250               0.000354270               0.999999997              -0.000002838               0.000367005               0.999999997               0.000000119               0.000381922               0.999999997               0.000003494               0.000398775               0.999999997               0.000007293               0.000417384               0.999999997               0.000011253               0.000437519               0.999999997               0.000014769               0.000458977               0.999999997               0.000017870               0.000481567               0.999999997               0.000020874               0.000505022               0.999999997               0.000023532               0.000529132               0.999999997               0.000025228               0.000553767               0.999999997               0.000025489               0.000578690               0.999999997               0.000001504               0.000340026               0.999999997              -0.000002564               0.000339907               0.999999997              -0.000004079               0.000341283               0.999999997              -0.000004377               0.000345508               0.999999997              -0.000004024               0.000352644               0.999999997              -0.000003209               0.000362513               0.999999997              -0.000001981               0.000374883               0.999999997              -0.000000520               0.000389367               0.999999997               0.000001072               0.000405641               0.999999997               0.000003068               0.000423607               0.999999997               0.000005133               0.000443238               0.999999997               0.000006816               0.000464370               0.999999997               0.000008352               0.000486721               0.999999997               0.000009791               0.000510024               0.999999997               0.000010972               0.000534046               0.999999997               0.000011663               0.000558618               0.999999997               0.000011561               0.000583422               0.999999997               0.000000000               0.000341766               0.999999997              -0.000000000               0.000342392               0.999999997               0.000000000               0.000344151               0.999999997               0.000000000               0.000348487               0.999999997               0.000000000               0.000355573               0.999999997               0.000000000               0.000365386               0.999999997              -0.000000000               0.000377700               0.999999997              -0.000000000               0.000392021               0.999999997               0.000000000               0.000408096               0.999999997               0.000000000               0.000425839               0.999999997              -0.000000000               0.000445321               0.999999997              -0.000000000               0.000466389               0.999999997              -0.000000000               0.000488630               0.999999997               0.000000000               0.000511927               0.999999997               0.000000000               0.000535958               0.999999997               0.000000000               0.000560454               0.999999997               0.000000000               0.000585234               0.999999997 </DataArray>
<DataArray type="Float64"                                    Name="stress"                                                      NumberOfComponents="10" format="ascii">
              0.000538050               0.006321000              -0.000000000              -0.000588355               0.002303097               0.001714742               0.000000000               0.000000000               0.000000000               0.000000000               0.000589759               0.005239125              -0.000000000              -0.000433730               0.001890934               0.001457204               0.000000000               0.000000000               0.000000000               0.000000000               0.000818747               0.004371564              -0.000000000              -0.000239415               0.001536978               0.001297564               0.000000000               0.000000000               0.000000000               0.000000000               0.000847725               0.003895165              -0.000000000              -0.000168998               0.001354708               0.001185710               0.000000000               0.000000000               0.000000000               0.000000000               0.000801605               0.003612019              -0.000000000              -0.000150900               0.001254294               0.001103394               0.000000000               0.000000000               0.000000000               0.000000000               0.000728071               0.003438985              -0.000000000              -0.000156846               0.001198599               0.001041753               0.000000000               0.000000000               0.000000000               0.000000000               0.000648197               0.003330169              -0.000000000              -0.000173197               0.001167778               0.000994581               0.000000000               0.000000000               0.000000000               0.000000000               0.000574242               0.003261674              -0.000000000              -0.000192368               0.001151336               0.000958968               0.000000000               0.000000000               0.000000000               0.000000000               0.000503789               0.003218940              -0.000000000              -0.000213446               0.001144118               0.000930672               0.000000000               0.000000000               0.000000000               0.000000000               0.000437801               0.003195421               0.000000000              -0.000235252               0.001143547               0.000908295               0.000000000               0.000000000               0.000000000               0.000000000               0.000378293               0.003184512               0.000000000              -0.000256204               0.001146895               0.000890691               0.000000000               0.000000000               0.000000000               0.000000000               0.000319825               0.003180337              -0.000000000              -0.000277607               0.001152637               0.000875030               0.000000000               0.000000000               0.000000000               0.000000000               0.000258733               0.003182613               0.000000000              -0.000300801               0.001161127               0.000860326               0.000000000               0.000000000               0.000000000               0.000000000               0.000194035               0.003185383               0.000000000              -0.000325409               0.001170253               0.000844844               0.000000000               0.000000000               0.000000000               0.000000000               0.000128307               0.003186787               0.000000000              -0.000350232               0.001178996               0.000828763               0.000000000               0.000000000               0.000000000               0.000000000               0.000062054               0.003183241               0.000000000              -0.000374634               0.001185948               0.000811314               0.000000000               0.000000000               0.000000000               0.000000000               0.000030414               0.003182716               0.000000000              -0.000386433               0.001189706               0.000803273               0.000000000               0.000000000               0.000000000               0.000000000               0.000573937               0.006217983              -0.000478715              -0.000562020               0.002259980               0.001697960               0.000000000               0.000000000               0.000000000               0.000000000               0.000602390               0.005168440              -0.000308329              -0.000420158               0.001862849               0.001442691               0.000000000               0.000000000               0.000000000               0.000000000               0.000804670               0.004334447              -0.000132374              -0.000240054               0.001524819               0.001284765               0.000000000               0.000000000               0.000000000               0.000000000               0.000821780               0.003874043              -0.000051235              -0.000176087               0.001350031               0.001173943               0.000000000               0.000000000               0.000000000               0.000000000               0.000773908               0.003603254              -0.000010985              -0.000160191               0.001254470               0.001094279               0.000000000               0.000000000               0.000000000               0.000000000               0.000701769               0.003435925               0.000010011              -0.000166327               0.001200739               0.001034412               0.000000000               0.000000000               0.000000000               0.000000000               0.000623701               0.003330412               0.000019976              -0.000182413               0.001170931               0.000988517               0.000000000               0.000000000               0.000000000               0.000000000               0.000550501               0.003264575               0.000023634              -0.000201634               0.001155392               0.000953758               0.000000000               0.000000000               0.000000000               0.000000000               0.000481436               0.003223859               0.000025137              -0.000222443               0.001148757               0.000926313               0.000000000               0.000000000               0.000000000               0.000000000               0.000417903               0.003201867               0.000024886              -0.000243519               0.001148451               0.000904932               0.000000000               0.000000000               0.000000000               0.000000000               0.000361152               0.003189793               0.000022887              -0.000263292               0.001151018               0.000887726               0.000000000               0.000000000               0.000000000               0.000000000               0.000305615               0.003185911               0.000022891              -0.000283632               0.001156504               0.000872871               0.000000000               0.000000000               0.000000000               0.000000000               0.000247375               0.003188218               0.000022554              -0.000305761               0.001164649               0.000858888               0.000000000               0.000000000               0.000000000               0.000000000               0.000186454               0.003193317               0.000019674              -0.000329244               0.001174176               0.000844933               0.000000000               0.000000000               0.000000000               0.000000000               0.000123671               0.003197378               0.000014776              -0.000353295               0.001183547               0.000830252               0.000000000               0.000000000               0.000000000               0.000000000               0.000060884               0.003199972               0.000008498              -0.000377164               0.001192368               0.000815204               0.000000000               0.000000000               0.000000000               0.000000000               0.000031563               0.003204426               0.000004868              -0.000388716               0.001197703               0.000808987               0.000000000               0.000000000               0.000000000               0.000000000               0.000671018               0.005917659              -0.000910297              -0.000488075               0.002135225               0.001647150               0.000000000               0.000000000               0.000000000               0.000000000               0.000634967               0.004959720              -0.000588047              -0.000381852               0.001780507               0.001398656               0.000000000               0.000000000               0.000000000               0.000000000               0.000766103               0.004222836              -0.000256886              -0.000240565               0.001487787               0.001247221               0.000000000               0.000000000               0.000000000               0.000000000               0.000754231               0.003813133              -0.000104905              -0.000193804               0.001335633               0.001141829               0.000000000               0.000000000               0.000000000               0.000000000               0.000698626               0.003571547              -0.000030382              -0.000184458               0.001251990               0.001067532               0.000000000               0.000000000               0.000000000               0.000000000               0.000625693               0.003419819               0.000006945              -0.000192842               0.001204209               0.001011367               0.000000000               0.000000000               0.000000000               0.000000000               0.000550659               0.003324347               0.000024441              -0.000209046               0.001177787               0.000968741               0.000000000               0.000000000               0.000000000               0.000000000               0.000481229               0.003264059               0.000030926              -0.000227546               0.001163857               0.000936311               0.000000000               0.000000000               0.000000000               0.000000000               0.000418631               0.003226899               0.000034623              -0.000246375               0.001157747               0.000911372               0.000000000               0.000000000               0.000000000               0.000000000               0.000363063               0.003206599               0.000033535              -0.000264676               0.001157081               0.000892405               0.000000000               0.000000000               0.000000000               0.000000000               0.000312584               0.003196327               0.000028938              -0.000282321               0.001159539               0.000877218               0.000000000               0.000000000               0.000000000               0.000000000               0.000263291               0.003192088               0.000028399              -0.000300276               0.001164111               0.000863835               0.000000000               0.000000000               0.000000000               0.000000000               0.000213683               0.003194122               0.000028520              -0.000319133               0.001171074               0.000851941               0.000000000               0.000000000               0.000000000               0.000000000               0.000161685               0.003201745               0.000024521              -0.000339585               0.001180433               0.000840847               0.000000000               0.000000000               0.000000000               0.000000000               0.000107403               0.003212452               0.000017395              -0.000361280               0.001191233               0.000829954               0.000000000               0.000000000               0.000000000               0.000000000               0.000053007               0.003226266               0.000009044              -0.000383405               0.001203213               0.000819808               0.000000000               0.000000000               0.000000000               0.000000000               0.000029362               0.003241219               0.000002989              -0.000394141               0.001211776               0.000817635               0.000000000               0.000000000               0.000000000               0.000000000               0.000804198               0.005452840              -0.001250550              -0.000380031               0.001944272               0.001564241               0.000000000               0.000000000               0.000000000               0.000000000               0.000675340               0.004636585              -0.000812411              -0.000326320               0.001654286               0.001327966               0.000000000               0.000000000               0.000000000               0.000000000               0.000705568               0.004047226              -0.000365402              -0.000241315               0.001429500               0.001188185               0.000000000               0.000000000               0.000000000               0.000000000               0.000654352               0.003713125              -0.000164918              -0.000218758               0.001310615               0.001091857               0.000000000               0.000000000               0.000000000               0.000000000               0.000588883               0.003509788              -0.000067967              -0.000217892               0.001242548               0.001024656               0.000000000               0.000000000               0.000000000               0.000000000               0.000518811               0.003382829              -0.000019482              -0.000228299               0.001203698               0.000975399               0.000000000               0.000000000               0.000000000               0.000000000               0.000450924               0.003301909               0.000004527              -0.000243642               0.001181839               0.000938198               0.000000000               0.000000000               0.000000000               0.000000000               0.000391842               0.003249957               0.000014353              -0.000259303               0.001169743               0.000910439               0.000000000               0.000000000               0.000000000               0.000000000               0.000337122               0.003216850               0.000019618              -0.000275685               0.001164167               0.000888483               0.000000000               0.000000000               0.000000000               0.000000000               0.000286066               0.003195783               0.000020431              -0.000292197               0.001162649               0.000870452               0.000000000               0.000000000               0.000000000               0.000000000               0.000242163               0.003187020               0.000014430              -0.000307566               0.001164851               0.000857285               0.000000000               0.000000000               0.000000000               0.000000000               0.000201728               0.003182358               0.000011723              -0.000322146               0.001168157               0.000846012               0.000000000               0.000000000               0.000000000               0.000000000               0.000164178               0.003183358               0.000013527              -0.000336352               0.001173226               0.000836874               0.000000000               0.000000000               0.000000000               0.000000000               0.000125506               0.003190757               0.000012679              -0.000351779               0.001180835               0.000829056               0.000000000               0.000000000               0.000000000               0.000000000               0.000083707               0.003205514               0.000008499              -0.000369298               0.001191593               0.000822295               0.000000000               0.000000000               0.000000000               0.000000000               0.000041361               0.003228748               0.000003699              -0.000388082               0.001205599               0.000817517               0.000000000               0.000000000               0.000000000               0.000000000               0.000025359               0.003252183              -0.000000932              -0.000397012               0.001216387               0.000819375               0.000000000               0.000000000               0.000000000               0.000000000               0.000939460               0.004872966              -0.001477306              -0.000256824               0.001709913               0.001453089               0.000000000               0.000000000               0.000000000               0.000000000               0.000706976               0.004239037              -0.000971722              -0.000264764               0.001501253               0.001236489               0.000000000               0.000000000               0.000000000               0.000000000               0.000628990               0.003831771              -0.000458119              -0.000243100               0.001358277               0.001115178               0.000000000               0.000000000               0.000000000               0.000000000               0.000542177               0.003583102              -0.000232957              -0.000244571               0.001275879               0.001031308               0.000000000               0.000000000               0.000000000               0.000000000               0.000467587               0.003426184              -0.000123098              -0.000252927               0.001226359               0.000973432               0.000000000               0.000000000               0.000000000               0.000000000               0.000405640               0.003327792              -0.000065810              -0.000263858               0.001197206               0.000933347               0.000000000               0.000000000               0.000000000               0.000000000               0.000349821               0.003261805              -0.000036472              -0.000276542               0.001179438               0.000902896               0.000000000               0.000000000               0.000000000               0.000000000               0.000300283               0.003218187              -0.000023619              -0.000289667               0.001169274               0.000879607               0.000000000               0.000000000               0.000000000               0.000000000               0.000255670               0.003188829              -0.000017944              -0.000302726               0.001163841               0.000861115               0.000000000               0.000000000               0.000000000               0.000000000               0.000212989               0.003168262              -0.000015253              -0.000316161               0.001161464               0.000845303               0.000000000               0.000000000               0.000000000               0.000000000               0.000174235               0.003158341              -0.000018985              -0.000329454               0.001162588               0.000833134               0.000000000               0.000000000               0.000000000               0.000000000               0.000142074               0.003156017              -0.000021614              -0.000341224               0.001165736               0.000824513               0.000000000               0.000000000               0.000000000               0.000000000               0.000114673               0.003157516              -0.000016465              -0.000351686               0.001169724               0.000818038               0.000000000               0.000000000               0.000000000               0.000000000               0.000087324               0.003166733              -0.000010659              -0.000363094               0.001176598               0.000813504               0.000000000               0.000000000               0.000000000               0.000000000               0.000059047               0.003186225              -0.000006173              -0.000376135               0.001187443               0.000811308               0.000000000               0.000000000               0.000000000               0.000000000               0.000029512               0.003215634              -0.000002950              -0.000390886               0.001202163               0.000811277               0.000000000               0.000000000               0.000000000               0.000000000               0.000019592               0.003241356              -0.000004941              -0.000397821               0.001213048               0.000815227               0.000000000               0.000000000               0.000000000               0.000000000               0.001053202               0.004231896              -0.001589287              -0.000134038               0.001455297               0.001321259               0.000000000               0.000000000               0.000000000               0.000000000               0.000723309               0.003804187              -0.001067297              -0.000204283               0.001336144               0.001131861               0.000000000               0.000000000               0.000000000               0.000000000               0.000543497               0.003595574              -0.000537725              -0.000245635               0.001280391               0.001034756               0.000000000               0.000000000               0.000000000               0.000000000               0.000438060               0.003439555              -0.000307664              -0.000265671               0.001235064               0.000969392               0.000000000               0.000000000               0.000000000               0.000000000               0.000365973               0.003331222              -0.000190822              -0.000279162               0.001203450               0.000924288               0.000000000               0.000000000               0.000000000               0.000000000               0.000311047               0.003257199              -0.000127356              -0.000290506               0.001182558               0.000892051               0.000000000               0.000000000               0.000000000               0.000000000               0.000264832               0.003203775              -0.000093241              -0.000301159               0.001168301               0.000867142               0.000000000               0.000000000               0.000000000               0.000000000               0.000224349               0.003168439              -0.000076509              -0.000311923               0.001160110               0.000848187               0.000000000               0.000000000               0.000000000               0.000000000               0.000187880               0.003145291              -0.000069012              -0.000322706               0.001155988               0.000833283               0.000000000               0.000000000               0.000000000               0.000000000               0.000154079               0.003130142              -0.000061264              -0.000333487               0.001154533               0.000821045               0.000000000               0.000000000               0.000000000               0.000000000               0.000126341               0.003126565              -0.000057562              -0.000343442               0.001156659               0.000813217               0.000000000               0.000000000               0.000000000               0.000000000               0.000102261               0.003130322              -0.000056869              -0.000352942               0.001161077               0.000808136               0.000000000               0.000000000               0.000000000               0.000000000               0.000081786               0.003137970              -0.000047617              -0.000361576               0.001166505               0.000804929               0.000000000               0.000000000               0.000000000               0.000000000               0.000061768               0.003153430              -0.000032573              -0.000371015               0.001174804               0.000803790               0.000000000               0.000000000               0.000000000               0.000000000               0.000039903               0.003176193              -0.000018946              -0.000382060               0.001186074               0.000804014               0.000000000               0.000000000               0.000000000               0.000000000               0.000019767               0.003200888              -0.000007943              -0.000392697               0.001197851               0.000805154               0.000000000               0.000000000               0.000000000               0.000000000               0.000014106               0.003218366              -0.000005441              -0.000397005               0.001205113               0.000808108               0.000000000               0.000000000               0.000000000               0.000000000               0.001123339               0.003581450              -0.001596077              -0.000026431               0.001202615               0.001176183               0.000000000               0.000000000               0.000000000               0.000000000               0.000722898               0.003367595              -0.001108131              -0.000149864               0.001172475               0.001022611               0.000000000               0.000000000               0.000000000               0.000000000               0.000463755               0.003356447              -0.000606528              -0.000245647               0.001200687               0.000955039               0.000000000               0.000000000               0.000000000               0.000000000               0.000353533               0.003288206              -0.000383162              -0.000278450               0.001188874               0.000910424               0.000000000               0.000000000               0.000000000               0.000000000               0.000289918               0.003222242              -0.000263657              -0.000294060               0.001172090               0.000878030               0.000000000               0.000000000               0.000000000               0.000000000               0.000244295               0.003171096              -0.000196051              -0.000304776               0.001158613               0.000853838               0.000000000               0.000000000               0.000000000               0.000000000               0.000208057               0.003133366              -0.000156134              -0.000313649               0.001148994               0.000835346               0.000000000               0.000000000               0.000000000               0.000000000               0.000177283               0.003112803              -0.000132188              -0.000322618               0.001145130               0.000822512               0.000000000               0.000000000               0.000000000               0.000000000               0.000151605               0.003102452              -0.000118648              -0.000330954               0.001144458               0.000813504               0.000000000               0.000000000               0.000000000               0.000000000               0.000127816               0.003098830              -0.000104259              -0.000339422               0.001146074               0.000806652               0.000000000               0.000000000               0.000000000               0.000000000               0.000107041               0.003101598              -0.000091622              -0.000347559               0.001149709               0.000802150               0.000000000               0.000000000               0.000000000               0.000000000               0.000087845               0.003112082              -0.000085148              -0.000356068               0.001156039               0.000799972               0.000000000               0.000000000               0.000000000               0.000000000               0.000067735               0.003128261              -0.000071202              -0.000365631               0.001164620               0.000798989               0.000000000               0.000000000               0.000000000               0.000000000               0.000047465               0.003147826              -0.000048816              -0.000375678               0.001174491               0.000798813               0.000000000               0.000000000               0.000000000               0.000000000               0.000027026               0.003164178              -0.000028121              -0.000385386               0.001183178               0.000797791               0.000000000               0.000000000               0.000000000               0.000000000               0.000011668               0.003171267              -0.000011694              -0.000392032               0.001187756               0.000795724               0.000000000               0.000000000               0.000000000               0.000000000               0.000003955               0.003168544              -0.000003473              -0.000394584               0.001187699               0.000793115               0.000000000               0.000000000               0.000000000               0.000000000               0.001142398               0.002957705              -0.001516721               0.000058684               0.000966330               0.001025014               0.000000000               0.000000000               0.000000000               0.000000000               0.000708224               0.002960494              -0.001107070              -0.000104479               0.001021647               0.000917168               0.000000000               0.000000000               0.000000000               0.000000000               0.000401711               0.003128083              -0.000667316              -0.000240368               0.001122806               0.000882438               0.000000000               0.000000000               0.000000000               0.000000000               0.000296702               0.003131760              -0.000454330              -0.000280206               0.001137312               0.000857105               0.000000000               0.000000000               0.000000000               0.000000000               0.000243967               0.003107454              -0.000333502              -0.000296943               0.001134789               0.000837845               0.000000000               0.000000000               0.000000000               0.000000000               0.000205557               0.003082845              -0.000260244              -0.000308271               0.001130362               0.000822091               0.000000000               0.000000000               0.000000000               0.000000000               0.000179045               0.003068327              -0.000212360              -0.000316398               0.001128232               0.000811833               0.000000000               0.000000000               0.000000000               0.000000000               0.000157910               0.003064066              -0.000178927              -0.000323791               0.001129275               0.000805484               0.000000000               0.000000000               0.000000000               0.000000000               0.000140253               0.003065088              -0.000157543              -0.000330540               0.001131866               0.000801326               0.000000000               0.000000000               0.000000000               0.000000000               0.000124162               0.003074079              -0.000138123              -0.000337698               0.001137249               0.000799550               0.000000000               0.000000000               0.000000000               0.000000000               0.000106902               0.003086954              -0.000117553              -0.000345780               0.001144234               0.000798454               0.000000000               0.000000000               0.000000000               0.000000000               0.000087635               0.003105455              -0.000100530              -0.000355318               0.001153581               0.000798263               0.000000000               0.000000000               0.000000000               0.000000000               0.000063004               0.003127432              -0.000079170              -0.000367301               0.001164901               0.000797599               0.000000000               0.000000000               0.000000000               0.000000000               0.000037123               0.003142532              -0.000050986              -0.000378894               0.001173798               0.000794904               0.000000000               0.000000000               0.000000000               0.000000000               0.000015966               0.003144109              -0.000025113              -0.000387026               0.001177035               0.000790009               0.000000000               0.000000000               0.000000000               0.000000000               0.000004162               0.003131870              -0.000007722              -0.000389922               0.001173920               0.000783998               0.000000000               0.000000000               0.000000000               0.000000000              -0.000004193               0.003116333               0.000000636              -0.000391113               0.001169139               0.000778025               0.000000000               0.000000000               0.000000000               0.000000000               0.001133810               0.002410388              -0.001379245               0.000123878               0.000762162               0.000886039               0.000000000               0.000000000               0.000000000               0.000000000               0.000702693               0.002601236              -0.001084133              -0.000061646               0.000887618               0.000825972               0.000000000               0.000000000               0.000000000               0.000000000               0.000375540               0.002920386              -0.000736196              -0.000224221               0.001048193               0.000823972               0.000000000               0.000000000               0.000000000               0.000000000               0.000277644               0.002995657              -0.000533551              -0.000270340               0.001088656               0.000818316               0.000000000               0.000000000               0.000000000               0.000000000               0.000232771               0.003017675              -0.000408065              -0.000289920               0.001102521               0.000812602               0.000000000               0.000000000               0.000000000               0.000000000               0.000198800               0.003021466              -0.000325387              -0.000303132               0.001108189               0.000805057               0.000000000               0.000000000               0.000000000               0.000000000               0.000174406               0.003027009              -0.000267509              -0.000312973               0.001113317               0.000800344               0.000000000               0.000000000               0.000000000               0.000000000               0.000157777               0.003034267              -0.000225268              -0.000320116               0.001118117               0.000798001               0.000000000               0.000000000               0.000000000               0.000000000               0.000146816               0.003046053              -0.000195410              -0.000325700               0.001123907               0.000798208               0.000000000               0.000000000               0.000000000               0.000000000               0.000139474               0.003068285              -0.000167439              -0.000331232               0.001133162               0.000801930               0.000000000               0.000000000               0.000000000               0.000000000               0.000127437               0.003093505              -0.000138202              -0.000338898               0.001144124               0.000805226               0.000000000               0.000000000               0.000000000               0.000000000               0.000104655               0.003117360              -0.000109786              -0.000350423               0.001155917               0.000805494               0.000000000               0.000000000               0.000000000               0.000000000               0.000073162               0.003137775              -0.000081514              -0.000364785               0.001167510               0.000802724               0.000000000               0.000000000               0.000000000               0.000000000               0.000041775               0.003144684              -0.000051272              -0.000377419               0.001174024               0.000796605               0.000000000               0.000000000               0.000000000               0.000000000               0.000015904               0.003132834              -0.000023445              -0.000385639               0.001172814               0.000787175               0.000000000               0.000000000               0.000000000               0.000000000              -0.000003806               0.003105925              -0.000003962              -0.000389667               0.001165187               0.000775520               0.000000000               0.000000000               0.000000000               0.000000000              -0.000013149               0.003088580               0.000003903              -0.000391002               0.001159850               0.000768848               0.000000000               0.000000000               0.000000000               0.000000000               0.001085516               0.001885825              -0.001210525               0.000171338               0.000571489               0.000742827               0.000000000               0.000000000               0.000000000               0.000000000               0.000709811               0.002184689              -0.001050634              -0.000006908               0.000730525               0.000723616               0.000000000               0.000000000               0.000000000               0.000000000               0.000393030               0.002613597              -0.000821044              -0.000179314               0.000930961               0.000751647               0.000000000               0.000000000               0.000000000               0.000000000               0.000298047               0.002781433              -0.000634326              -0.000235912               0.001005772               0.000769861               0.000000000               0.000000000               0.000000000               0.000000000               0.000255856               0.002863744              -0.000502541              -0.000262022               0.001041912               0.000779891               0.000000000               0.000000000               0.000000000               0.000000000               0.000222980               0.002906729              -0.000408706              -0.000279723               0.001062141               0.000782418               0.000000000               0.000000000               0.000000000               0.000000000               0.000196622               0.002938042              -0.000340856              -0.000293521               0.001077178               0.000783657               0.000000000               0.000000000               0.000000000               0.000000000               0.000181979               0.002967478              -0.000292221              -0.000302692               0.001090047               0.000787355               0.000000000               0.000000000               0.000000000               0.000000000               0.000174199               0.002997310              -0.000252503              -0.000309338               0.001102206               0.000792868               0.000000000               0.000000000               0.000000000               0.000000000               0.000165199               0.003029216              -0.000213559              -0.000316702               0.001115296               0.000798594               0.000000000               0.000000000               0.000000000               0.000000000               0.000150662               0.003059168              -0.000173443              -0.000325897               0.001128345               0.000802448               0.000000000               0.000000000               0.000000000               0.000000000               0.000126826               0.003083476              -0.000134092              -0.000337874               0.001140440               0.000802566               0.000000000               0.000000000               0.000000000               0.000000000               0.000092881               0.003097962              -0.000098600              -0.000352414               0.001150115               0.000797701               0.000000000               0.000000000               0.000000000               0.000000000               0.000054286               0.003105464              -0.000065820              -0.000367825               0.001157753               0.000789928               0.000000000               0.000000000               0.000000000               0.000000000               0.000016503               0.003100752              -0.000034858              -0.000381404               0.001160709               0.000779304               0.000000000               0.000000000               0.000000000               0.000000000              -0.000016071               0.003085329              -0.000011086              -0.000391692               0.001158997               0.000767305               0.000000000               0.000000000               0.000000000               0.000000000              -0.000033962               0.003072846               0.000000005              -0.000396841               0.001156552               0.000759711               0.000000000               0.000000000               0.000000000               0.000000000               0.000974533               0.001396492              -0.001015364               0.000190886               0.000401864               0.000592749               0.000000000               0.000000000               0.000000000               0.000000000               0.000713440               0.001768745              -0.000989021               0.000046445               0.000574093               0.000620539               0.000000000               0.000000000               0.000000000               0.000000000               0.000445298               0.002273411              -0.000885533              -0.000117190               0.000796859               0.000679669               0.000000000               0.000000000               0.000000000               0.000000000               0.000350997               0.002527658              -0.000732243              -0.000184334               0.000903988               0.000719655               0.000000000               0.000000000               0.000000000               0.000000000               0.000308661               0.002676009              -0.000602156              -0.000218753               0.000964912               0.000746158               0.000000000               0.000000000               0.000000000               0.000000000               0.000272051               0.002764820              -0.000501254              -0.000243583               0.001002792               0.000759209               0.000000000               0.000000000               0.000000000               0.000000000               0.000242249               0.002829376              -0.000427525              -0.000262828               0.001030725               0.000767897               0.000000000               0.000000000               0.000000000               0.000000000               0.000220692               0.002885064              -0.000372702              -0.000277873               0.001054303               0.000776430               0.000000000               0.000000000               0.000000000               0.000000000               0.000207837               0.002936797              -0.000323333              -0.000289160               0.001075309               0.000786149               0.000000000               0.000000000               0.000000000               0.000000000               0.000196362               0.002983791              -0.000273469              -0.000299338               0.001094366               0.000795029               0.000000000               0.000000000               0.000000000               0.000000000               0.000179496               0.003022239              -0.000224632              -0.000310468               0.001110892               0.000800424               0.000000000               0.000000000               0.000000000               0.000000000               0.000155698               0.003047835              -0.000178953              -0.000322592               0.001123465               0.000800874               0.000000000               0.000000000               0.000000000               0.000000000               0.000124458               0.003064288              -0.000137678              -0.000336364               0.001133540               0.000797177               0.000000000               0.000000000               0.000000000               0.000000000               0.000086505               0.003075414              -0.000098111              -0.000351987               0.001142457               0.000790470               0.000000000               0.000000000               0.000000000               0.000000000               0.000040159               0.003077378              -0.000059565              -0.000369612               0.001148986               0.000779375               0.000000000               0.000000000               0.000000000               0.000000000              -0.000010291               0.003073071              -0.000025752              -0.000387992               0.001153678               0.000765685               0.000000000               0.000000000               0.000000000               0.000000000              -0.000047668               0.003060152              -0.000005406              -0.000400394               0.001153505               0.000753111               0.000000000               0.000000000               0.000000000               0.000000000               0.000806522               0.000968025              -0.000800680               0.000181440               0.000262191               0.000443631               0.000000000               0.000000000               0.000000000               0.000000000               0.000691237               0.001372806              -0.000884563               0.000087611               0.000428393               0.000516004               0.000000000               0.000000000               0.000000000               0.000000000               0.000512123               0.001900944              -0.000892474              -0.000045573               0.000648832               0.000603260               0.000000000               0.000000000               0.000000000               0.000000000               0.000432092               0.002219571              -0.000785922              -0.000115412               0.000778320               0.000662908               0.000000000               0.000000000               0.000000000               0.000000000               0.000388466               0.002431265              -0.000670565              -0.000158234               0.000863158               0.000704924               0.000000000               0.000000000               0.000000000               0.000000000               0.000349682               0.002571401              -0.000572942              -0.000190294               0.000920557               0.000730262               0.000000000               0.000000000               0.000000000               0.000000000               0.000311672               0.002675921              -0.000498247              -0.000217613               0.000964502               0.000746890               0.000000000               0.000000000               0.000000000               0.000000000               0.000279169               0.002764757              -0.000439341              -0.000240906               0.001001879               0.000760972               0.000000000               0.000000000               0.000000000               0.000000000               0.000255947               0.002844365              -0.000386307              -0.000259565               0.001034634               0.000775069               0.000000000               0.000000000               0.000000000               0.000000000               0.000240886               0.002916592              -0.000331756              -0.000274241               0.001063601               0.000789360               0.000000000               0.000000000               0.000000000               0.000000000               0.000222046               0.002974030              -0.000278315              -0.000288486               0.001087496               0.000799009               0.000000000               0.000000000               0.000000000               0.000000000               0.000196070               0.003011514              -0.000229046              -0.000302912               0.001104799               0.000801886               0.000000000               0.000000000               0.000000000               0.000000000               0.000164040               0.003033135              -0.000185060              -0.000317626               0.001116910               0.000799284               0.000000000               0.000000000               0.000000000               0.000000000               0.000123925               0.003043319              -0.000140212              -0.000333942               0.001125743               0.000791801               0.000000000               0.000000000               0.000000000               0.000000000               0.000076166               0.003052624              -0.000092541              -0.000353015               0.001135203               0.000782188               0.000000000               0.000000000               0.000000000               0.000000000               0.000018403               0.003060857              -0.000044925              -0.000375705               0.001145511               0.000769805               0.000000000               0.000000000               0.000000000               0.000000000              -0.000029999               0.003052317              -0.000015138              -0.000392788               0.001148358               0.000755570               0.000000000               0.000000000               0.000000000               0.000000000               0.000597066               0.000621596              -0.000587044               0.000146198               0.000158463               0.000304662               0.000000000               0.000000000               0.000000000               0.000000000               0.000644228               0.001013271              -0.000742641               0.000114925               0.000299445               0.000414370               0.000000000               0.000000000               0.000000000               0.000000000               0.000583015               0.001520802              -0.000832759               0.000028529               0.000497419               0.000525948               0.000000000               0.000000000               0.000000000               0.000000000               0.000534751               0.001879369              -0.000774637              -0.000034390               0.000637913               0.000603523               0.000000000               0.000000000               0.000000000               0.000000000               0.000493767               0.002142458              -0.000684220              -0.000082645               0.000741694               0.000659048               0.000000000               0.000000000               0.000000000               0.000000000               0.000454557               0.002332872              -0.000598423              -0.000121150               0.000818000               0.000696849               0.000000000               0.000000000               0.000000000               0.000000000               0.000408672               0.002475688              -0.000528455              -0.000156209               0.000877291               0.000721082               0.000000000               0.000000000               0.000000000               0.000000000               0.000367417               0.002598406              -0.000472626              -0.000187019               0.000928466               0.000741447               0.000000000               0.000000000               0.000000000               0.000000000               0.000334818               0.002712924              -0.000421286              -0.000213558               0.000975485               0.000761927               0.000000000               0.000000000               0.000000000               0.000000000               0.000311669               0.002816193              -0.000367426              -0.000235148               0.001017104               0.000781956               0.000000000               0.000000000               0.000000000               0.000000000               0.000289845               0.002896407              -0.000312927              -0.000253359               0.001049912               0.000796554               0.000000000               0.000000000               0.000000000               0.000000000               0.000263040               0.002952162              -0.000264633              -0.000270380               0.001074171               0.000803791               0.000000000               0.000000000               0.000000000               0.000000000               0.000230650               0.002989476              -0.000220590              -0.000287190               0.001092212               0.000805022               0.000000000               0.000000000               0.000000000               0.000000000               0.000192419               0.003013173              -0.000175036              -0.000304489               0.001105877               0.000801388               0.000000000               0.000000000               0.000000000               0.000000000               0.000148368               0.003030154              -0.000125024              -0.000323131               0.001117751               0.000794621               0.000000000               0.000000000               0.000000000               0.000000000               0.000093182               0.003046912              -0.000066962              -0.000345920               0.001130934               0.000785014               0.000000000               0.000000000               0.000000000               0.000000000               0.000044422               0.003045903              -0.000029901              -0.000364079               0.001136650               0.000772572               0.000000000               0.000000000               0.000000000               0.000000000               0.000373729               0.000360802              -0.000394797               0.000095047               0.000088583               0.000183630               0.000000000               0.000000000               0.000000000               0.000000000               0.000578525               0.000708623              -0.000573583               0.000128367               0.000193416               0.000321783               0.000000000               0.000000000               0.000000000               0.000000000               0.000647716               0.001167645              -0.000702539               0.000096936               0.000356899               0.000453835               0.000000000               0.000000000               0.000000000               0.000000000               0.000644466               0.001538878              -0.000683291               0.000049314               0.000496516               0.000545830               0.000000000               0.000000000               0.000000000               0.000000000               0.000613750               0.001835172              -0.000620896               0.000000759               0.000611465               0.000612224               0.000000000               0.000000000               0.000000000               0.000000000               0.000573435               0.002063578              -0.000553154              -0.000042910               0.000702156               0.000659246               0.000000000               0.000000000               0.000000000               0.000000000               0.000527072               0.002243094              -0.000495520              -0.000082735               0.000775269               0.000692534               0.000000000               0.000000000               0.000000000               0.000000000               0.000479293               0.002401176              -0.000448911              -0.000120412               0.000840521               0.000720109               0.000000000               0.000000000               0.000000000               0.000000000               0.000435852               0.002547715              -0.000404458              -0.000155020               0.000900903               0.000745883               0.000000000               0.000000000               0.000000000               0.000000000               0.000403244               0.002678160              -0.000358128              -0.000183553               0.000953896               0.000770342               0.000000000               0.000000000               0.000000000               0.000000000               0.000378930               0.002784140              -0.000309253              -0.000205918               0.000996677               0.000790758               0.000000000               0.000000000               0.000000000               0.000000000               0.000350322               0.002867101              -0.000262196              -0.000227016               0.001031363               0.000804347               0.000000000               0.000000000               0.000000000               0.000000000               0.000316266               0.002931089              -0.000221683              -0.000247786               0.001059615               0.000811829               0.000000000               0.000000000               0.000000000               0.000000000               0.000285320               0.002979215              -0.000183656              -0.000265406               0.001081531               0.000816124               0.000000000               0.000000000               0.000000000               0.000000000               0.000254401               0.003012399              -0.000136892              -0.000281149               0.001097839               0.000816690               0.000000000               0.000000000               0.000000000               0.000000000               0.000215557               0.003038612              -0.000074842              -0.000298992               0.001112525               0.000813533               0.000000000               0.000000000               0.000000000               0.000000000               0.000180472               0.003044625              -0.000036176              -0.000312900               0.001119165               0.000806265               0.000000000               0.000000000               0.000000000               0.000000000               0.000177677               0.000186500              -0.000233678               0.000043316               0.000047727               0.000091043               0.000000000               0.000000000               0.000000000               0.000000000               0.000512993               0.000477995              -0.000388261               0.000132622               0.000115123               0.000247744               0.000000000               0.000000000               0.000000000               0.000000000               0.000698345               0.000876221              -0.000510029               0.000152350               0.000241287               0.000393637               0.000000000               0.000000000               0.000000000               0.000000000               0.000740003               0.001241130              -0.000511435               0.000122359               0.000372920               0.000495278               0.000000000               0.000000000               0.000000000               0.000000000               0.000725715               0.001553627              -0.000473762               0.000077939               0.000491891               0.000569830               0.000000000               0.000000000               0.000000000               0.000000000               0.000689473               0.001811522              -0.000428901               0.000032112               0.000593131               0.000625242               0.000000000               0.000000000               0.000000000               0.000000000               0.000645955               0.002026885              -0.000389722              -0.000011128               0.000679331               0.000668203               0.000000000               0.000000000               0.000000000               0.000000000               0.000593345               0.002212776              -0.000354999              -0.000054093               0.000755615               0.000701523               0.000000000               0.000000000               0.000000000               0.000000000               0.000538024               0.002378087              -0.000323553              -0.000095502               0.000824522               0.000729020               0.000000000               0.000000000               0.000000000               0.000000000               0.000494362               0.002529219              -0.000292752              -0.000130766               0.000886653               0.000755887               0.000000000               0.000000000               0.000000000               0.000000000               0.000460239               0.002663744              -0.000253130              -0.000160378               0.000941365               0.000780987               0.000000000               0.000000000               0.000000000               0.000000000               0.000428570               0.002779745              -0.000211447              -0.000186754               0.000988824               0.000802070               0.000000000               0.000000000               0.000000000               0.000000000               0.000400919               0.002874291              -0.000182062              -0.000208941               0.001027734               0.000818793               0.000000000               0.000000000               0.000000000               0.000000000               0.000377178               0.002946231              -0.000157385              -0.000226836               0.001057679               0.000830843               0.000000000               0.000000000               0.000000000               0.000000000               0.000359161               0.003001836              -0.000120380              -0.000240544               0.001080783               0.000840240               0.000000000               0.000000000               0.000000000               0.000000000               0.000347597               0.003041143              -0.000065692              -0.000249793               0.001096968               0.000847175               0.000000000               0.000000000               0.000000000               0.000000000               0.000341154               0.003053824              -0.000033156              -0.000253795               0.001102529               0.000848735               0.000000000               0.000000000               0.000000000               0.000000000               0.000045655               0.000090584              -0.000105859               0.000005797               0.000028262               0.000034059               0.000000000               0.000000000               0.000000000               0.000000000               0.000468955               0.000337384              -0.000195271               0.000133684               0.000067899               0.000201583               0.000000000               0.000000000               0.000000000               0.000000000               0.000732264               0.000685663              -0.000268509               0.000188889               0.000165589               0.000354478               0.000000000               0.000000000               0.000000000               0.000000000               0.000805774               0.001036654              -0.000273644               0.000172582               0.000288021               0.000460603               0.000000000               0.000000000               0.000000000               0.000000000               0.000808677               0.001354424              -0.000256191               0.000133950               0.000406820               0.000540770               0.000000000               0.000000000               0.000000000               0.000000000               0.000781116               0.001636328              -0.000235788               0.000088377               0.000515978               0.000604355               0.000000000               0.000000000               0.000000000               0.000000000               0.000736426               0.001876190              -0.000217078               0.000041636               0.000611512               0.000653148               0.000000000               0.000000000               0.000000000               0.000000000               0.000679766               0.002074122              -0.000196983              -0.000004353               0.000692818               0.000688465               0.000000000               0.000000000               0.000000000               0.000000000               0.000619770               0.002248545              -0.000181310              -0.000048654               0.000765726               0.000717071               0.000000000               0.000000000               0.000000000               0.000000000               0.000563262               0.002416482              -0.000166756              -0.000090837               0.000835765               0.000744928               0.000000000               0.000000000               0.000000000               0.000000000               0.000517619               0.002577473              -0.000143016              -0.000128077               0.000901841               0.000773765               0.000000000               0.000000000               0.000000000               0.000000000               0.000488184               0.002719030              -0.000119730              -0.000156809               0.000958604               0.000801795               0.000000000               0.000000000               0.000000000               0.000000000               0.000468959               0.002834374              -0.000105120              -0.000178437               0.001004261               0.000825824               0.000000000               0.000000000               0.000000000               0.000000000               0.000452386               0.002923417              -0.000091898              -0.000195782               0.001039723               0.000843941               0.000000000               0.000000000               0.000000000               0.000000000               0.000443401               0.002991057              -0.000071711              -0.000207606               0.001066211               0.000858605               0.000000000               0.000000000               0.000000000               0.000000000               0.000451675               0.003037739              -0.000041169              -0.000210339               0.001082682               0.000872344               0.000000000               0.000000000               0.000000000               0.000000000               0.000467868               0.003056700              -0.000023500              -0.000206636               0.001087769               0.000881132               0.000000000               0.000000000               0.000000000               0.000000000              -0.000000909               0.000060346              -0.000000000              -0.000007884               0.000022743               0.000014859               0.000000000               0.000000000               0.000000000               0.000000000               0.000453856               0.000290416               0.000000000               0.000133893               0.000052173               0.000186066               0.000000000               0.000000000               0.000000000               0.000000000               0.000744162               0.000618017               0.000000000               0.000201807               0.000138735               0.000340541               0.000000000               0.000000000               0.000000000               0.000000000               0.000830231               0.000961801              -0.000000000               0.000191110               0.000256894               0.000448004               0.000000000               0.000000000               0.000000000               0.000000000               0.000841455               0.001283696               0.000000000               0.000155082               0.000376200               0.000531282               0.000000000               0.000000000               0.000000000               0.000000000               0.000818715               0.001576967              -0.000000000               0.000109896               0.000489018               0.000598914               0.000000000               0.000000000               0.000000000               0.000000000               0.000770566               0.001822035              -0.000000000               0.000061207               0.000586936               0.000648144               0.000000000               0.000000000               0.000000000               0.000000000               0.000711478               0.002021412               0.000000000               0.000014127               0.000669088               0.000683216               0.000000000               0.000000000               0.000000000               0.000000000               0.000652324               0.002199992              -0.000000000              -0.000030377               0.000743449               0.000713072               0.000000000               0.000000000               0.000000000               0.000000000               0.000590197               0.002374974              -0.000000000              -0.000075548               0.000816833               0.000741285               0.000000000               0.000000000               0.000000000               0.000000000               0.000541300               0.002547582              -0.000000000              -0.000115460               0.000887672               0.000772212               0.000000000               0.000000000               0.000000000               0.000000000               0.000513790               0.002696843               0.000000000              -0.000144434               0.000947083               0.000802649               0.000000000               0.000000000               0.000000000               0.000000000               0.000496039               0.002818592               0.000000000              -0.000166309               0.000994958               0.000828649               0.000000000               0.000000000               0.000000000               0.000000000               0.000483372               0.002915472               0.000000000              -0.000183169               0.001032871               0.000849702               0.000000000               0.000000000               0.000000000               0.000000000               0.000479163               0.002984610              -0.000000000              -0.000193389               0.001059323               0.000865934               0.000000000               0.000000000               0.000000000               0.000000000               0.000493409               0.003033002               0.000000000              -0.000194096               0.001075689               0.000881593               0.000000000               0.000000000               0.000000000               0.000000000               0.000515482               0.003055493              -0.000000000              -0.000188630               0.001081364               0.000892734               0.000000000               0.000000000               0.000000000               0.000000000               0.000000000               0.000000000               0.000000000               0.000000000               0.000000000               0.000000000               0.000000000               0.000000000               0.000000000               0.000000000               0.000000000               0.000000000               0.000000000               0.000000000               0.000000000               0.000000000               0.000000000               0.000000000               0.000000000               0.000000000               0.000000000               0.000000000               0.000000000               0.000000000               0.000000000               0.000000000               0.000000000               0.000000000               0.000000000               0.000000000               0.000000000               0.000000000               0.000000000               0.000000000               0.000000000               0.000000000               0.000000000               0.000000000               0.000000000               0.000000000               0.000000000               0.000000000               0.000000000               0.000000000               0.000000000               0.000000000               0.000000000               0.000000000               0.000000000               0.000000000               0.000000000               0.000000000               0.000000000               0.000000000               0.000000000               0.000000000               0.000000000               0.000000000               0.000000000               0.000000000               0.000000000               0.000000000               0.000000000               0.000000000               0.000000000               0.000000000               0.000000000               0.000000000               0.000000000               0.000000000               0.000000000               0.000000000               0.000000000               0.000000000               0.000000000               0.000000000               0.000000000               0.000000000               0.000000000               0.000000000               0.000000000               0.000000000               0.000000000               0.000000000               0.000000000               0.000000000               0.000000000               0.000000000               0.000000000               0.000000000               0.000000000               0.000000000               0.000000000               0.000000000               0.000000000               0.000000000               0.000000000               0.000000000               0.000000000               0.000000000               0.000000000               0.000000000               0.000000000               0.000000000               0.000000000               0.000000000               0.000000000               0.000000000               0.000000000               0.000000000               0.000000000               0.000000000               0.000000000               0.000000000               0.000000000               0.000000000               0.000000000               0.000000000               0.000000000               0.000000000               0.000000000               0.000000000               0.000000000               0.000000000               0.000000000               0.000000000               0.000000000               0.000000000               0.000000000               0.000000000               0.000000000               0.000000000               0.000000000               0.000000000               0.000000000               0.000000000               0.000000000               0.000000000               0.000000000               0.000000000               0.000000000               0.000000000               0.000000000               0.000000000               0.000000000               0.000000000               0.000000000               0.000000000               0.000000000               0.000000000               0.000000000               0.000000000               0.000000000               0.000000000               0.000000000               0.000000000               0.000000000               0.000000000               0.000000000               0.000000000               0.000000000               0.000000000               0.000000000               0.000000000               0.000000000               0.000000000               0.000000000               0.000000000               0.000000000               0.000000000               0.000573937               0.006217983               0.000478715              -0.000562020               0.002259980               0.001697960               0.000000000               0.000000000               0.000000000               0.000000000               0.000602390               0.005168440               0.000308329              -0.000420158               0.001862849               0.001442691               0.000000000               0.000000000               0.000000000               0.000000000               0.000804670               0.004334447               0.000132374              -0.000240054               0.001524819               0.001284765               0.000000000               0.000000000               0.000000000               0.000000000               0.000821780               0.003874043               0.000051235              -0.000176087               0.001350031               0.001173943               0.000000000               0.000000000               0.000000000               0.000000000               0.000773908               0.003603254               0.000010985              -0.000160191               0.001254470               0.001094279               0.000000000               0.000000000               0.000000000               0.000000000               0.000701769               0.003435925              -0.000010011              -0.000166327               0.001200739               0.001034412               0.000000000               0.000000000               0.000000000               0.000000000               0.000623701               0.003330412              -0.000019976              -0.000182413               0.001170931               0.000988517               0.000000000               0.000000000               0.000000000               0.000000000               0.000550501               0.003264575              -0.000023634              -0.000201634               0.001155392               0.000953758               0.000000000               0.000000000               0.000000000               0.000000000               0.000481436               0.003223859              -0.000025137              -0.000222443               0.001148757               0.000926313               0.000000000               0.000000000               0.000000000               0.000000000               0.000417903               0.003201867              -0.000024886              -0.000243519               0.001148451               0.000904932               0.000000000               0.000000000               0.000000000               0.000000000               0.000361152               0.003189793              -0.000022887              -0.000263292               0.001151018               0.000887726               0.000000000               0.000000000               0.000000000               0.000000000               0.000305615               0.003185911              -0.000022891              -0.000283632               0.001156504               0.000872871               0.000000000               0.000000000               0.000000000               0.000000000               0.000247375               0.003188218              -0.000022554              -0.000305761               0.001164649               0.000858888               0.000000000               0.000000000               0.000000000               0.000000000               0.000186454               0.003193317              -0.000019674              -0.000329244               0.001174176               0.000844933               0.000000000               0.000000000               0.000000000               0.000000000               0.000123671               0.003197378              -0.000014776              -0.000353295               0.001183547               0.000830252               0.000000000               0.000000000               0.000000000               0.000000000               0.000060884               0.003199972              -0.000008498              -0.000377164               0.001192368               0.000815204               0.000000000               0.000000000               0.000000000               0.000000000               0.000031563               0.003204426              -0.000004868              -0.000388716               0.001197703               0.000808987               0.000000000               0.000000000               0.000000000               0.000000000               0.000671018               0.005917659               0.000910297              -0.000488075               0.002135225               0.001647150               0.000000000               0.000000000               0.000000000               0.000000000               0.000634967               0.004959720               0.000588047              -0.000381852               0.001780507               0.001398656               0.000000000               0.000000000               0.000000000               0.000000000               0.000766103               0.004222836               0.000256886              -0.000240565               0.001487787               0.001247221               0.000000000               0.000000000               0.000000000               0.000000000               0.000754231               0.003813133               0.000104905              -0.000193804               0.001335633               0.001141829               0.000000000               0.000000000               0.000000000               0.000000000               0.000698626               0.003571547               0.000030382              -0.000184458               0.001251990               0.001067532               0.000000000               0.000000000               0.000000000               0.000000000               0.000625693               0.003419819              -0.000006945              -0.000192842               0.001204209               0.001011367               0.000000000               0.000000000               0.000000000               0.000000000               0.000550659               0.003324347              -0.000024441              -0.000209046               0.001177787               0.000968741               0.000000000               0.000000000               0.000000000               0.000000000               0.000481229               0.003264059              -0.000030926              -0.000227546               0.001163857               0.000936311               0.000000000               0.000000000               0.000000000               0.000000000               0.000418631               0.003226899              -0.000034623              -0.000246375               0.001157747               0.000911372               0.000000000               0.000000000               0.000000000               0.000000000               0.000363063               0.003206599              -0.000033535              -0.000264676               0.001157081               0.000892405               0.000000000               0.000000000               0.000000000               0.000000000               0.000312584               0.003196327              -0.000028938              -0.000282321               0.001159539               0.000877218               0.000000000               0.000000000               0.000000000               0.000000000               0.000263291               0.003192088              -0.000028399              -0.000300276               0.001164111               0.000863835               0.000000000               0.000000000               0.000000000               0.000000000               0.000213683               0.003194122              -0.000028520              -0.000319133               0.001171074               0.000851941               0.000000000               0.000000000               0.000000000               0.000000000               0.000161685               0.003201745              -0.000024521              -0.000339585               0.001180433               0.000840847               0.000000000               0.000000000               0.000000000               0.000000000               0.000107403               0.003212452              -0.000017395              -0.000361280               0.001191233               0.000829954               0.000000000               0.000000000               0.000000000               0.000000000               0.000053007               0.003226266              -0.000009044              -0.000383405               0.001203213               0.000819808               0.000000000               0.000000000               0.000000000               0.000000000               0.000029362               0.003241219              -0.000002989              -0.000394141               0.001211776               0.000817635               0.000000000               0.000000000               0.000000000               0.000000000               0.000804198               0.005452840               0.001250550              -0.000380031               0.001944272               0.001564241               0.000000000               0.000000000               0.000000000               0.000000000               0.000675340               0.004636585               0.000812411              -0.000326320               0.001654286               0.001327966               0.000000000               0.000000000               0.000000000               0.000000000               0.000705568               0.004047226               0.000365402              -0.000241315               0.001429500               0.001188185               0.000000000               0.000000000               0.000000000               0.000000000               0.000654352               0.003713125               0.000164918              -0.000218758               0.001310615               0.001091857               0.000000000               0.000000000               0.000000000               0.000000000               0.000588883               0.003509788               0.000067967              -0.000217892               0.001242548               0.001024656               0.000000000               0.000000000               0.000000000               0.000000000               0.000518811               0.003382829               0.000019482              -0.000228299               0.001203698               0.000975399               0.000000000               0.000000000               0.000000000               0.000000000               0.000450924               0.003301909              -0.000004527              -0.000243642               0.001181839               0.000938198               0.000000000               0.000000000               0.000000000               0.000000000               0.000391842               0.003249957              -0.000014353              -0.000259303               0.001169743               0.000910439               0.000000000               0.000000000               0.000000000               0.000000000               0.000337122               0.003216850              -0.000019618              -0.000275685               0.001164167               0.000888483               0.000000000               0.000000000               0.000000000               0.000000000               0.000286066               0.003195783              -0.000020431              -0.000292197               0.001162649               0.000870452               0.000000000               0.000000000               0.000000000               0.000000000               0.000242163               0.003187020              -0.000014430              -0.000307566               0.001164851               0.000857285               0.000000000               0.000000000               0.000000000               0.000000000               0.000201728               0.003182358              -0.000011723              -0.000322146               0.001168157               0.000846012               0.000000000               0.000000000               0.000000000               0.000000000               0.000164178               0.003183358              -0.000013527              -0.000336352               0.001173226               0.000836874               0.000000000               0.000000000               0.000000000               0.000000000               0.000125506               0.003190757              -0.000012679              -0.000351779               0.001180835               0.000829056               0.000000000               0.000000000               0.000000000               0.000000000               0.000083707               0.003205514              -0.000008499              -0.000369298               0.001191593               0.000822295               0.000000000               0.000000000               0.000000000               0.000000000               0.000041361               0.003228748              -0.000003699              -0.000388082               0.001205599               0.000817517               0.000000000               0.000000000               0.000000000               0.000000000               0.000025359               0.003252183               0.000000932              -0.000397012               0.001216387               0.000819375               0.000000000               0.000000000               0.000000000               0.000000000               0.000939460               0.004872966               0.001477306              -0.000256824               0.001709913               0.001453089               0.000000000               0.000000000               0.000000000               0.000000000               0.000706976               0.004239037               0.000971722              -0.000264764               0.001501253               0.001236489               0.000000000               0.000000000               0.000000000               0.000000000               0.000628990               0.003831771               0.000458119              -0.000243100               0.001358277               0.001115178               0.000000000               0.000000000               0.000000000               0.000000000               0.000542177               0.003583102               0.000232957              -0.000244571               0.001275879               0.001031308               0.000000000               0.000000000               0.000000000               0.000000000               0.000467587               0.003426184               0.000123098              -0.000252927               0.001226359               0.000973432               0.000000000               0.000000000               0.000000000               0.000000000               0.000405640               0.003327792               0.000065810              -0.000263858               0.001197206               0.000933347               0.000000000               0.000000000               0.000000000               0.000000000               0.000349821               0.003261805               0.000036472              -0.000276542               0.001179438               0.000902896               0.000000000               0.000000000               0.000000000               0.000000000               0.000300283               0.003218187               0.000023619              -0.000289667               0.001169274               0.000879607               0.000000000               0.000000000               0.000000000               0.000000000               0.000255670               0.003188829               0.000017944              -0.000302726               0.001163841               0.000861115               0.000000000               0.000000000               0.000000000               0.000000000               0.000212989               0.003168262               0.000015253              -0.000316161               0.001161464               0.000845303               0.000000000               0.000000000               0.000000000               0.000000000               0.000174235               0.003158341               0.000018985              -0.000329454               0.001162588               0.000833134               0.000000000               0.000000000               0.000000000               0.000000000               0.000142074               0.003156017               0.000021614              -0.000341224               0.001165736               0.000824513               0.000000000               0.000000000               0.000000000               0.000000000               0.000114673               0.003157516               0.000016465              -0.000351686               0.001169724               0.000818038               0.000000000               0.000000000               0.000000000               0.000000000               0.000087324               0.003166733               0.000010659              -0.000363094               0.001176598               0.000813504               0.000000000               0.000000000               0.000000000               0.000000000               0.000059047               0.003186225               0.000006173              -0.000376135               0.001187443               0.000811308               0.000000000               0.000000000               0.000000000               0.000000000               0.000029512               0.003215634               0.000002950              -0.000390886               0.001202163               0.000811277               0.000000000               0.000000000               0.000000000               0.000000000               0.000019592               0.003241356               0.000004941              -0.000397821               0.001213048               0.000815227               0.000000000               0.000000000               0.000000000               0.000000000               0.001053202               0.004231896               0.001589287              -0.000134038               0.001455297               0.001321259               0.000000000               0.000000000               0.000000000               0.000000000               0.000723309               0.003804187               0.001067297              -0.000204283               0.001336144               0.001131861               0.000000000               0.000000000               0.000000000               0.000000000               0.000543497               0.003595574               0.000537725              -0.000245635               0.001280391               0.001034756               0.000000000               0.000000000               0.000000000               0.000000000               0.000438060               0.003439555               0.000307664              -0.000265671               0.001235064               0.000969392               0.000000000               0.000000000               0.000000000               0.000000000               0.000365973               0.003331222               0.000190822              -0.000279162               0.001203450               0.000924288               0.000000000               0.000000000               0.000000000               0.000000000               0.000311047               0.003257199               0.000127356              -0.000290506               0.001182558               0.000892051               0.000000000               0.000000000               0.000000000               0.000000000               0.000264832               0.003203775               0.000093241              -0.000301159               0.001168301               0.000867142               0.000000000               0.000000000               0.000000000               0.000000000               0.000224349               0.003168439               0.000076509              -0.000311923               0.001160110               0.000848187               0.000000000               0.000000000               0.000000000               0.000000000               0.000187880               0.003145291               0.000069012              -0.000322706               0.001155988               0.000833283               0.000000000               0.000000000               0.000000000               0.000000000               0.000154079               0.003130142               0.000061264              -0.000333487               0.001154533               0.000821045               0.000000000               0.000000000               0.000000000               0.000000000               0.000126341               0.003126565               0.000057562              -0.000343442               0.001156659               0.000813217               0.000000000               0.000000000               0.000000000               0.000000000               0.000102261               0.003130322               0.000056869              -0.000352942               0.001161077               0.000808136               0.000000000               0.000000000               0.000000000               0.000000000               0.000081786               0.003137970               0.000047617              -0.000361576               0.001166505               0.000804929               0.000000000               0.000000000               0.000000000               0.000000000               0.000061768               0.003153430               0.000032573              -0.000371015               0.001174804               0.000803790               0.000000000               0.000000000               0.000000000               0.000000000               0.000039903               0.003176193               0.000018946              -0.000382060               0.001186074               0.000804014               0.000000000               0.000000000               0.000000000               0.000000000               0.000019767               0.003200888               0.000007943              -0.000392697               0.001197851               0.000805154               0.000000000               0.000000000               0.000000000               0.000000000               0.000014106               0.003218366               0.000005441              -0.000397005               0.001205113               0.000808108               0.000000000               0.000000000               0.000000000               0.000000000               0.001123339               0.003581450               0.001596077              -0.000026431               0.001202615               0.001176183               0.000000000               0.000000000               0.000000000               0.000000000               0.000722898               0.003367595               0.001108131              -0.000149864               0.001172475               0.001022611               0.000000000               0.000000000               0.000000000               0.000000000               0.000463755               0.003356447               0.000606528              -0.000245647               0.001200687               0.000955039               0.000000000               0.000000000               0.000000000               0.000000000               0.000353533               0.003288206               0.000383162              -0.000278450               0.001188874               0.000910424               0.000000000               0.000000000               0.000000000               0.000000000               0.000289918               0.003222242               0.000263657              -0.000294060               0.001172090               0.000878030               0.000000000               0.000000000               0.000000000               0.000000000               0.000244295               0.003171096               0.000196051              -0.000304776               0.001158613               0.000853838               0.000000000               0.000000000               0.000000000               0.000000000               0.000208057               0.003133366               0.000156134              -0.000313649               0.001148994               0.000835346               0.000000000               0.000000000               0.000000000               0.000000000               0.000177283               0.003112803               0.000132188              -0.000322618               0.001145130               0.000822512               0.000000000               0.000000000               0.000000000               0.000000000               0.000151605               0.003102452               0.000118648              -0.000330954               0.001144458               0.000813504               0.000000000               0.000000000               0.000000000               0.000000000               0.000127816               0.003098830               0.000104259              -0.000339422               0.001146074               0.000806652               0.000000000               0.000000000               0.000000000               0.000000000               0.000107041               0.003101598               0.000091622              -0.000347559               0.001149709               0.000802150               0.000000000               0.000000000               0.000000000               0.000000000               0.000087845               0.003112082               0.000085148              -0.000356068               0.001156039               0.000799972               0.000000000               0.000000000               0.000000000               0.000000000               0.000067735               0.003128261               0.000071202              -0.000365631               0.001164620               0.000798989               0.000000000               0.000000000               0.000000000               0.000000000               0.000047465               0.003147826               0.000048816              -0.000375678               0.001174491               0.000798813               0.000000000               0.000000000               0.000000000               0.000000000               0.000027026               0.003164178               0.000028121              -0.000385386               0.001183178               0.000797791               0.000000000               0.000000000               0.000000000               0.000000000               0.000011668               0.003171267               0.000011694              -0.000392032               0.001187756               0.000795724               0.000000000               0.000000000               0.000000000               0.000000000               0.000003955               0.003168544               0.000003473              -0.000394584               0.001187699               0.000793115               0.000000000               0.000000000               0.000000000               0.000000000               0.001142398               0.002957705               0.001516721               0.000058684               0.000966330               0.001025014               0.000000000               0.000000000               0.000000000               0.000000000               0.000708224               0.002960494               0.001107070              -0.000104479               0.001021647               0.000917168               0.000000000               0.000000000               0.000000000               0.000000000               0.000401711               0.003128083               0.000667316              -0.000240368               0.001122806               0.000882438               0.000000000               0.000000000               0.000000000               0.000000000               0.000296702               0.003131760               0.000454330              -0.000280206               0.001137312               0.000857105               0.000000000               0.000000000               0.000000000               0.000000000               0.000243967               0.003107454               0.000333502              -0.000296943               0.001134789               0.000837845               0.000000000               0.000000000               0.000000000               0.000000000               0.000205557               0.003082845               0.000260244              -0.000308271               0.001130362               0.000822091               0.000000000               0.000000000               0.000000000               0.000000000               0.000179045               0.003068327               0.000212360              -0.000316398               0.001128232               0.000811833               0.000000000               0.000000000               0.000000000               0.000000000               0.000157910               0.003064066               0.000178927              -0.000323791               0.001129275               0.000805484               0.000000000               0.000000000               0.000000000               0.000000000               0.000140253               0.003065088               0.000157543              -0.000330540               0.001131866               0.000801326               0.000000000               0.000000000               0.000000000               0.000000000               0.000124162               0.003074079               0.000138123              -0.000337698               0.001137249               0.000799550               0.000000000               0.000000000               0.000000000               0.000000000               0.000106902               0.003086954               0.000117553              -0.000345780               0.001144234               0.000798454               0.000000000               0.000000000               0.000000000               0.000000000               0.000087635               0.003105455               0.000100530              -0.000355318               0.001153581               0.000798263               0.000000000               0.000000000               0.000000000               0.000000000               0.000063004               0.003127432               0.000079170              -0.000367301               0.001164901               0.000797599               0.000000000               0.000000000               0.000000000               0.000000000               0.000037123               0.003142532               0.000050986              -0.000378894               0.001173798               0.000794904               0.000000000               0.000000000               0.000000000               0.000000000               0.000015966               0.003144109               0.000025113              -0.000387026               0.001177035               0.000790009               0.000000000               0.000000000               0.000000000               0.000000000               0.000004162               0.003131870               0.000007722              -0.000389922               0.001173920               0.000783998               0.000000000               0.000000000               0.000000000               0.000000000              -0.000004193               0.003116333              -0.000000636              -0.000391113               0.001169139               0.000778025               0.000000000               0.000000000               0.000000000               0.000000000               0.001133810               0.002410388               0.001379245               0.000123878               0.000762162               0.000886039               0.000000000               0.000000000               0.000000000               0.000000000               0.000702693               0.002601236               0.001084133              -0.000061646               0.000887618               0.000825972               0.000000000               0.000000000               0.000000000               0.000000000               0.000375540               0.002920386               0.000736196              -0.000224221               0.001048193               0.000823972               0.000000000               0.000000000               0.000000000               0.000000000               0.000277644               0.002995657               0.000533551              -0.000270340               0.001088656               0.000818316               0.000000000               0.000000000               0.000000000               0.000000000               0.000232771               0.003017675               0.000408065              -0.000289920               0.001102521               0.000812602               0.000000000               0.000000000               0.000000000               0.000000000               0.000198800               0.003021466               0.000325387              -0.000303132               0.001108189               0.000805057               0.000000000               0.000000000               0.000000000               0.000000000               0.000174406               0.003027009               0.000267509              -0.000312973               0.001113317               0.000800344               0.000000000               0.000000000               0.000000000               0.000000000               0.000157777               0.003034267               0.000225268              -0.000320116               0.001118117               0.000798001               0.000000000               0.000000000               0.000000000               0.000000000               0.000146816               0.003046053               0.000195410              -0.000325700               0.001123907               0.000798208               0.000000000               0.000000000               0.000000000               0.000000000               0.000139474               0.003068285               0.000167439              -0.000331232               0.001133162               0.000801930               0.000000000               0.000000000               0.000000000               0.000000000               0.000127437               0.003093505               0.000138202              -0.000338898               0.001144124               0.000805226               0.000000000               0.000000000               0.000000000               0.000000000               0.000104655               0.003117360               0.000109786              -0.000350423               0.001155917               0.000805494               0.000000000               0.000000000               0.000000000               0.000000000               0.000073162               0.003137775               0.000081514              -0.000364785               0.001167510               0.000802724               0.000000000               0.000000000               0.000000000               0.000000000               0.000041775               0.003144684               0.000051272              -0.000377419               0.001174024               0.000796605               0.000000000               0.000000000               0.000000000               0.000000000               0.000015904               0.003132834               0.000023445              -0.000385639               0.001172814               0.000787175               0.000000000               0.000000000               0.000000000               0.000000000              -0.000003806               0.003105925               0.000003962              -0.000389667               0.001165187               0.000775520               0.000000000               0.000000000               0.000000000               0.000000000              -0.000013149               0.003088580              -0.000003903              -0.000391002               0.001159850               0.000768848               0.000000000               0.000000000               0.000000000               0.000000000               0.001085516               0.001885825               0.001210525               0.000171338               0.000571489               0.000742827               0.000000000               0.000000000               0.000000000               0.000000000               0.000709811               0.002184689               0.001050634              -0.000006908               0.000730525               0.000723616               0.000000000               0.000000000               0.000000000               0.000000000               0.000393030               0.002613597               0.000821044              -0.000179314               0.000930961               0.000751647               0.000000000               0.000000000               0.000000000               0.000000000               0.000298047               0.002781433               0.000634326              -0.000235912               0.001005772               0.000769861               0.000000000               0.000000000               0.000000000               0.000000000               0.000255856               0.002863744               0.000502541              -0.000262022               0.001041912               0.000779891               0.000000000               0.000000000               0.000000000               0.000000000               0.000222980               0.002906729               0.000408706              -0.000279723               0.001062141               0.000782418               0.000000000               0.000000000               0.000000000               0.000000000               0.000196622               0.002938042               0.000340856              -0.000293521               0.001077178               0.000783657               0.000000000               0.000000000               0.000000000               0.000000000               0.000181979               0.002967478               0.000292221              -0.000302692               0.001090047               0.000787355               0.000000000               0.000000000               0.000000000               0.000000000               0.000174199               0.002997310               0.000252503              -0.000309338               0.001102206               0.000792868               0.000000000               0.000000000               0.000000000               0.000000000               0.000165199               0.003029216               0.000213559              -0.000316702               0.001115296               0.000798594               0.000000000               0.000000000               0.000000000               0.000000000               0.000150662               0.003059168               0.000173443              -0.000325897               0.001128345               0.000802448               0.000000000               0.000000000               0.000000000               0.000000000               0.000126826               0.003083476               0.000134092              -0.000337874               0.001140440               0.000802566               0.000000000               0.000000000               0.000000000               0.000000000               0.000092881               0.003097962               0.000098600              -0.000352414               0.001150115               0.000797701               0.000000000               0.000000000               0.000000000               0.000000000               0.000054286               0.003105464               0.000065820              -0.000367825               0.001157753               0.000789928               0.000000000               0.000000000               0.000000000               0.000000000               0.000016503               0.003100752               0.000034858              -0.000381404               0.001160709               0.000779304               0.000000000               0.000000000               0.000000000               0.000000000              -0.000016071               0.003085329               0.000011086              -0.000391692               0.001158997               0.000767305               0.000000000               0.000000000               0.000000000               0.000000000              -0.000033962               0.003072846              -0.000000005              -0.000396841               0.001156552               0.000759711               0.000000000               0.000000000               0.000000000               0.000000000               0.000974533               0.001396492               0.001015364               0.000190886               0.000401864               0.000592749               0.000000000               0.000000000               0.000000000               0.000000000               0.000713440               0.001768745               0.000989021               0.000046445               0.000574093               0.000620539               0.000000000               0.000000000               0.000000000               0.000000000               0.000445298               0.002273411               0.000885533              -0.000117190               0.000796859               0.000679669               0.000000000               0.000000000               0.000000000               0.000000000               0.000350997               0.002527658               0.000732243              -0.000184334               0.000903988               0.000719655               0.000000000               0.000000000               0.000000000               0.000000000               0.000308661               0.002676009               0.000602156              -0.000218753               0.000964912               0.000746158               0.000000000               0.000000000               0.000000000               0.000000000               0.000272051               0.002764820               0.000501254              -0.000243583               0.001002792               0.000759209               0.000000000               0.000000000               0.000000000               0.000000000               0.000242249               0.002829376               0.000427525              -0.000262828               0.001030725               0.000767897               0.000000000               0.000000000               0.000000000               0.000000000               0.000220692               0.002885064               0.000372702              -0.000277873               0.001054303               0.000776430               0.000000000               0.000000000               0.000000000               0.000000000               0.000207837               0.002936797               0.000323333              -0.000289160               0.001075309               0.000786149               0.000000000               0.000000000               0.000000000               0.000000000               0.000196362               0.002983791               0.000273469              -0.000299338               0.001094366               0.000795029               0.000000000               0.000000000               0.000000000               0.000000000               0.000179496               0.003022239               0.000224632              -0.000310468               0.001110892               0.000800424               0.000000000               0.000000000               0.000000000               0.000000000               0.000155698               0.003047835               0.000178953              -0.000322592               0.001123465               0.000800874               0.000000000               0.000000000               0.000000000               0.000000000               0.000124458               0.003064288               0.000137678              -0.000336364               0.001133540               0.000797177               0.000000000               0.000000000               0.000000000               0.000000000               0.000086505               0.003075414               0.000098111              -0.000351987               0.001142457               0.000790470               0.000000000               0.000000000               0.000000000               0.000000000               0.000040159               0.003077378               0.000059565              -0.000369612               0.001148986               0.000779375               0.000000000               0.000000000               0.000000000               0.000000000              -0.000010291               0.003073071               0.000025752              -0.000387992               0.001153678               0.000765685               0.000000000               0.000000000               0.000000000               0.000000000              -0.000047668               0.003060152               0.000005406              -0.000400394               0.001153505               0.000753111               0.000000000               0.000000000               0.000000000               0.000000000               0.000806522               0.000968025               0.000800680               0.000181440               0.000262191               0.000443631               0.000000000               0.000000000               0.000000000               0.000000000               0.000691237               0.001372806               0.000884563               0.000087611               0.000428393               0.000516004               0.000000000               0.000000000               0.000000000               0.000000000               0.000512123               0.001900944               0.000892474              -0.000045573               0.000648832               0.000603260               0.000000000               0.000000000               0.000000000               0.000000000               0.000432092               0.002219571               0.000785922              -0.000115412               0.000778320               0.000662908               0.000000000               0.000000000               0.000000000               0.000000000               0.000388466               0.002431265               0.000670565              -0.000158234               0.000863158               0.000704924               0.000000000               0.000000000               0.000000000               0.000000000               0.000349682               0.002571401               0.000572942              -0.000190294               0.000920557               0.000730262               0.000000000               0.000000000               0.000000000               0.000000000               0.000311672               0.002675921               0.000498247              -0.000217613               0.000964502               0.000746890               0.000000000               0.000000000               0.000000000               0.000000000               0.000279169               0.002764757               0.000439341              -0.000240906               0.001001879               0.000760972               0.000000000               0.000000000               0.000000000               0.000000000               0.000255947               0.002844365               0.000386307              -0.000259565               0.001034634               0.000775069               0.000000000               0.000000000               0.000000000               0.000000000               0.000240886               0.002916592               0.000331756              -0.000274241               0.001063601               0.000789360               0.000000000               0.000000000               0.000000000               0.000000000               0.000222046               0.002974030               0.000278315              -0.000288486               0.001087496               0.000799009               0.000000000               0.000000000               0.000000000               0.000000000               0.000196070               0.003011514               0.000229046              -0.000302912               0.001104799               0.000801886               0.000000000               0.000000000               0.000000000               0.000000000               0.000164040               0.003033135               0.000185060              -0.000317626               0.001116910               0.000799284               0.000000000               0.000000000               0.000000000               0.000000000               0.000123925               0.003043319               0.000140212              -0.000333942               0.001125743               0.000791801               0.000000000               0.000000000               0.000000000               0.000000000               0.000076166               0.003052624               0.000092541              -0.000353015               0.001135203               0.000782188               0.000000000               0.000000000               0.000000000               0.000000000               0.000018403               0.003060857               0.000044925              -0.000375705               0.001145511               0.000769805               0.000000000               0.000000000               0.000000000               0.000000000              -0.000029999               0.003052317               0.000015138              -0.000392788               0.001148358               0.000755570               0.000000000               0.000000000               0.000000000               0.000000000               0.000597066               0.000621596               0.000587044               0.000146198               0.000158463               0.000304662               0.000000000               0.000000000               0.000000000               0.000000000               0.000644228               0.001013271               0.000742641               0.000114925               0.000299445               0.000414370               0.000000000               0.000000000               0.000000000               0.000000000               0.000583015               0.001520802               0.000832759               0.000028529               0.000497419               0.000525948               0.000000000               0.000000000               0.000000000               0.000000000               0.000534751               0.001879369               0.000774637              -0.000034390               0.000637913               0.000603523               0.000000000               0.000000000               0.000000000               0.000000000               0.000493767               0.002142458               0.000684220              -0.000082645               0.000741694               0.000659048               0.000000000               0.000000000               0.000000000               0.000000000               0.000454557               0.002332872               0.000598423              -0.000121150               0.000818000               0.000696849               0.000000000               0.000000000               0.000000000               0.000000000               0.000408672               0.002475688               0.000528455              -0.000156209               0.000877291               0.000721082               0.000000000               0.000000000               0.000000000               0.000000000               0.000367417               0.002598406               0.000472626              -0.000187019               0.000928466               0.000741447               0.000000000               0.000000000               0.000000000               0.000000000               0.000334818               0.002712924               0.000421286              -0.000213558               0.000975485               0.000761927               0.000000000               0.000000000               0.000000000               0.000000000               0.000311669               0.002816193               0.000367426              -0.000235148               0.001017104               0.000781956               0.000000000               0.000000000               0.000000000               0.000000000               0.000289845               0.002896407               0.000312927              -0.000253359               0.001049912               0.000796554               0.000000000               0.000000000               0.000000000               0.000000000               0.000263040               0.002952162               0.000264633              -0.000270380               0.001074171               0.000803791               0.000000000               0.000000000               0.000000000               0.000000000               0.000230650               0.002989476               0.000220590              -0.000287190               0.001092212               0.000805022               0.000000000               0.000000000               0.000000000               0.000000000               0.000192419               0.003013173               0.000175036              -0.000304489               0.001105877               0.000801388               0.000000000               0.000000000               0.000000000               0.000000000               0.000148368               0.003030154               0.000125024              -0.000323131               0.001117751               0.000794621               0.000000000               0.000000000               0.000000000               0.000000000               0.000093182               0.003046912               0.000066962              -0.000345920               0.001130934               0.000785014               0.000000000               0.000000000               0.000000000               0.000000000               0.000044422               0.003045903               0.000029901              -0.000364079               0.001136650               0.000772572               0.000000000               0.000000000               0.000000000               0.000000000               0.000373729               0.000360802               0.000394797               0.000095047               0.000088583               0.000183630               0.000000000               0.000000000               0.000000000               0.000000000               0.000578525               0.000708623               0.000573583               0.000128367               0.000193416               0.000321783               0.000000000               0.000000000               0.000000000               0.000000000               0.000647716               0.001167645               0.000702539               0.000096936               0.000356899               0.000453835               0.000000000               0.000000000               0.000000000               0.000000000               0.000644466               0.001538878               0.000683291               0.000049314               0.000496516               0.000545830               0.000000000               0.000000000               0.000000000               0.000000000               0.000613750               0.001835172               0.000620896               0.000000759               0.000611465               0.000612224               0.000000000               0.000000000               0.000000000               0.000000000               0.000573435               0.002063578               0.000553154              -0.000042910               0.000702156               0.000659246               0.000000000               0.000000000               0.000000000               0.000000000               0.000527072               0.002243094               0.000495520              -0.000082735               0.000775269               0.000692534               0.000000000               0.000000000               0.000000000               0.000000000               0.000479293               0.002401176               0.000448911              -0.000120412               0.000840521               0.000720109               0.000000000               0.000000000               0.000000000               0.000000000               0.000435852               0.002547715               0.000404458              -0.000155020               0.000900903               0.000745883               0.000000000               0.000000000               0.000000000               0.000000000               0.000403244               0.002678160               0.000358128              -0.000183553               0.000953896               0.000770342               0.000000000               0.000000000               0.000000000               0.000000000               0.000378930               0.002784140               0.000309253              -0.000205918               0.000996677               0.000790758               0.000000000               0.000000000               0.000000000               0.000000000               0.000350322               0.002867101               0.000262196              -0.000227016               0.001031363               0.000804347               0.000000000               0.000000000               0.000000000               0.000000000               0.000316266               0.002931089               0.000221683              -0.000247786               0.001059615               0.000811829               0.000000000               0.000000000               0.000000000               0.000000000               0.000285320               0.002979215               0.000183656              -0.000265406               0.001081531               0.000816124               0.000000000               0.000000000               0.000000000               0.000000000               0.000254401               0.003012399               0.000136892              -0.000281149               0.001097839               0.000816690               0.000000000               0.000000000               0.000000000               0.000000000               0.000215557               0.003038612               0.000074842              -0.000298992               0.001112525               0.000813533               0.000000000               0.000000000               0.000000000               0.000000000               0.000180472               0.003044625               0.000036176              -0.000312900               0.001119165               0.000806265               0.000000000               0.000000000               0.000000000               0.000000000               0.000177677               0.000186500               0.000233678               0.000043316               0.000047727               0.000091043               0.000000000               0.000000000               0.000000000               0.000000000               0.000512993               0.000477995               0.000388261               0.000132622               0.000115123               0.000247744               0.000000000               0.000000000               0.000000000               0.000000000               0.000698345               0.000876221               0.000510029               0.000152350               0.000241287               0.000393637               0.000000000               0.000000000               0.000000000               0.000000000               0.000740003               0.001241130               0.000511435               0.000122359               0.000372920               0.000495278               0.000000000               0.000000000               0.000000000               0.000000000               0.000725715               0.001553627               0.000473762               0.000077939               0.000491891               0.000569830               0.000000000               0.000000000               0.000000000               0.000000000               0.000689473               0.001811522               0.000428901               0.000032112               0.000593131               0.000625242               0.000000000               0.000000000               0.000000000               0.000000000               0.000645955               0.002026885               0.000389722              -0.000011128               0.000679331               0.000668203               0.000000000               0.000000000               0.000000000               0.000000000               0.000593345               0.002212776               0.000354999              -0.000054093               0.000755615               0.000701523               0.000000000               0.000000000               0.000000000               0.000000000               0.000538024               0.002378087               0.000323553              -0.000095502               0.000824522               0.000729020               0.000000000               0.000000000               0.000000000               0.000000000               0.000494362               0.002529219               0.000292752              -0.000130766               0.000886653               0.000755887               0.000000000               0.000000000               0.000000000               0.000000000               0.000460239               0.002663744               0.000253130              -0.000160378               0.000941365               0.000780987               0.000000000               0.000000000               0.000000000               0.000000000               0.000428570               0.002779745               0.000211447              -0.000186754               0.000988824               0.000802070               0.000000000               0.000000000               0.000000000               0.000000000               0.000400919               0.002874291               0.000182062              -0.000208941               0.001027734               0.000818793               0.000000000               0.000000000               0.000000000               0.000000000               0.000377178               0.002946231               0.000157385              -0.000226836               0.001057679               0.000830843               0.000000000               0.000000000               0.000000000               0.000000000               0.000359161               0.003001836               0.000120380              -0.000240544               0.001080783               0.000840240               0.000000000               0.000000000               0.000000000               0.000000000               0.000347597               0.003041143               0.000065692              -0.000249793               0.001096968               0.000847175               0.000000000               0.000000000               0.000000000               0.000000000               0.000341154               0.003053824               0.000033156              -0.000253795               0.001102529               0.000848735               0.000000000               0.000000000               0.000000000               0.000000000               0.000045655               0.000090584               0.000105859               0.000005797               0.000028262               0.000034059               0.000000000               0.000000000               0.000000000               0.000000000               0.000468955               0.000337384               0.000195271               0.000133684               0.000067899               0.000201583               0.000000000               0.000000000               0.000000000               0.000000000               0.000732264               0.000685663               0.000268509               0.000188889               0.000165589               0.000354478               0.000000000               0.000000000               0.000000000               0.000000000               0.000805774               0.001036654               0.000273644               0.000172582               0.000288021               0.000460603               0.000000000               0.000000000               0.000000000               0.000000000               0.000808677               0.001354424               0.000256191               0.000133950               0.000406820               0.000540770               0.000000000               0.000000000               0.000000000               0.000000000               0.000781116               0.001636328               0.000235788               0.000088377               0.000515978               0.000604355               0.000000000               0.000000000               0.000000000               0.000000000               0.000736426               0.001876190               0.000217078               0.000041636               0.000611512               0.000653148               0.000000000               0.000000000               0.000000000               0.000000000               0.000679766               0.002074122               0.000196983              -0.000004353               0.000692818               0.000688465               0.000000000               0.000000000               0.000000000               0.000000000               0.000619770               0.002248545               0.000181310              -0.000048654               0.000765726               0.000717071               0.000000000               0.000000000               0.000000000               0.000000000               0.000563262               0.002416482               0.000166756              -0.000090837               0.000835765               0.000744928               0.000000000               0.000000000               0.000000000               0.000000000               0.000517619               0.002577473               0.000143016              -0.000128077               0.000901841               0.000773765               0.000000000               0.000000000               0.000000000               0.000000000               0.000488184               0.002719030               0.000119730              -0.000156809               0.000958604               0.000801795               0.000000000               0.000000000               0.000000000               0.000000000               0.000468959               0.002834374               0.000105120              -0.000178437               0.001004261               0.000825824               0.000000000               0.000000000               0.000000000               0.000000000               0.000452386               0.002923417               0.000091898              -0.000195782               0.001039723               0.000843941               0.000000000               0.000000000               0.000000000               0.000000000               0.000443401               0.002991057               0.000071711              -0.000207606               0.001066211               0.000858605               0.000000000               0.000000000               0.000000000               0.000000000               0.000451675               0.003037739               0.000041169              -0.000210339               0.001082682               0.000872344               0.000000000               0.000000000               0.000000000               0.000000000               0.000467868               0.003056700               0.000023500              -0.000206636               0.001087769               0.000881132               0.000000000               0.000000000               0.000000000               0.000000000              -0.000000909               0.000060346              -0.000000000              -0.000007884               0.000022743               0.000014859               0.000000000               0.000000000               0.000000000               0.000000000               0.000453856               0.000290416               0.000000000               0.000133893               0.000052173               0.000186066               0.000000000               0.000000000               0.000000000               0.000000000               0.000744162               0.000618017               0.000000000               0.000201807               0.000138735               0.000340541               0.000000000               0.000000000               0.000000000               0.000000000               0.000830231               0.000961801              -0.000000000               0.000191110               0.000256894               0.000448004               0.000000000               0.000000000               0.000000000               0.000000000               0.000841455               0.001283696              -0.000000000               0.000155082               0.000376200               0.000531282               0.000000000               0.000000000               0.000000000               0.000000000               0.000818715               0.001576967               0.000000000               0.000109896               0.000489018               0.000598914               0.000000000               0.000000000               0.000000000               0.000000000               0.000770566               0.001822035               0.000000000               0.000061207               0.000586936               0.000648144               0.000000000               0.000000000               0.000000000               0.000000000               0.000711478               0.002021412              -0.000000000               0.000014127               0.000669088               0.000683216               0.000000000               0.000000000               0.000000000               0.000000000               0.000652324               0.002199992               0.000000000              -0.000030377               0.000743449               0.000713072               0.000000000               0.000000000               0.000000000               0.000000000               0.000590197               0.002374974               0.000000000              -0.000075548               0.000816833               0.000741285               0.000000000               0.000000000               0.000000000               0.000000000               0.000541300               0.002547582               0.000000000              -0.000115460               0.000887672               0.000772212               0.000000000               0.000000000               0.000000000               0.000000000               0.000513790               0.002696843              -0.000000000              -0.000144434               0.000947083               0.000802649               0.000000000               0.000000000               0.000000000               0.000000000               0.000496039               0.002818592               0.000000000              -0.000166309               0.000994958               0.000828649               0.000000000               0.000000000               0.000000000               0.000000000               0.000483372               0.002915472              -0.000000000              -0.000183169               0.001032871               0.000849702               0.000000000               0.000000000               0.000000000               0.000000000               0.000479163               0.002984610              -0.000000000              -0.000193389               0.001059323               0.000865934               0.000000000               0.000000000               0.000000000               0.000000000               0.000493409               0.003033002               0.000000000              -0.000194096               0.001075689               0.000881593               0.000000000               0.000000000               0.000000000               0.000000000               0.000515482               0.003055493              -0.000000000              -0.000188630               0.001081364               0.000892734               0.000000000               0.000000000               0.000000000               0.000000000               0.000538050               0.006321000              -0.000000000              -0.000588355               0.002303097               0.001714742               0.000000000               0.000000000               0.000000000               0.000000000               0.000589759               0.005239125              -0.000000000              -0.000433730               0.001890934               0.001457204               0.000000000               0.000000000               0.000000000               0.000000000               0.000818747               0.004371564               0.000000000              -0.000239415               0.001536978               0.001297564               0.000000000               0.000000000               0.000000000               0.000000000               0.000847725               0.003895165               0.000000000              -0.000168998               0.001354708               0.001185710               0.000000000               0.000000000               0.000000000               0.000000000               0.000801605               0.003612019              -0.000000000              -0.000150900               0.001254294               0.001103394               0.000000000               0.000000000               0.000000000               0.000000000               0.000728071               0.003438985              -0.000000000              -0.000156846               0.001198599               0.001041753               0.000000000               0.000000000               0.000000000               0.000000000               0.000648197               0.003330169               0.000000000              -0.000173197               0.001167778               0.000994581               0.000000000               0.000000000               0.000000000               0.000000000               0.000574242               0.003261674              -0.000000000              -0.000192368               0.001151336               0.000958968               0.000000000               0.000000000               0.000000000               0.000000000               0.000503789               0.003218940              -0.000000000              -0.000213446               0.001144118               0.000930672               0.000000000               0.000000000               0.000000000               0.000000000               0.000437801               0.003195421              -0.000000000              -0.000235252               0.001143547               0.000908295               0.000000000               0.000000000               0.000000000               0.000000000               0.000378293               0.003184512               0.000000000              -0.000256204               0.001146895               0.000890691               0.000000000               0.000000000               0.000000000               0.000000000               0.000319825               0.003180337              -0.000000000              -0.000277607               0.001152637               0.000875030               0.000000000               0.000000000               0.000000000               0.000000000               0.000258733               0.003182613              -0.000000000              -0.000300801               0.001161127               0.000860326               0.000000000               0.000000000               0.000000000               0.000000000               0.000194035               0.003185383              -0.000000000              -0.000325409               0.001170253               0.000844844               0.000000000               0.000000000               0.000000000               0.000000000               0.000128307               0.003186787              -0.000000000              -0.000350232               0.001178996               0.000828763               0.000000000               0.000000000               0.000000000               0.000000000               0.000062054               0.003183241              -0.000000000              -0.000374634               0.001185948               0.000811314               0.000000000               0.000000000               0.000000000               0.000000000               0.000030414               0.003182716              -0.000000000              -0.000386433               0.001189706               0.000803273               0.000000000               0.000000000               0.000000000               0.000000000               0.000573937               0.006217983              -0.000478715              -0.000562020               0.002259980               0.001697960               0.000000000               0.000000000               0.000000000               0.000000000               0.000602390               0.005168440              -0.000308329              -0.000420158               0.001862849               0.001442691               0.000000000               0.000000000               0.000000000               0.000000000               0.000804670               0.004334447              -0.000132374              -0.000240054               0.001524819               0.001284765               0.000000000               0.000000000               0.000000000               0.000000000               0.000821780               0.003874043              -0.000051235              -0.000176087               0.001350031               0.001173943               0.000000000               0.000000000               0.000000000               0.000000000               0.000773908               0.003603254              -0.000010985              -0.000160191               0.001254470               0.001094279               0.000000000               0.000000000               0.000000000               0.000000000               0.000701769               0.003435925               0.000010011              -0.000166327               0.001200739               0.001034412               0.000000000               0.000000000               0.000000000               0.000000000               0.000623701               0.003330412               0.000019976              -0.000182413               0.001170931               0.000988517               0.000000000               0.000000000               0.000000000               0.000000000               0.000550501               0.003264575               0.000023634              -0.000201634               0.001155392               0.000953758               0.000000000               0.000000000               0.000000000               0.000000000               0.000481436               0.003223859               0.000025137              -0.000222443               0.001148757               0.000926313               0.000000000               0.000000000               0.000000000               0.000000000               0.000417903               0.003201867               0.000024886              -0.000243519               0.001148451               0.000904932               0.000000000               0.000000000               0.000000000               0.000000000               0.000361152               0.003189793               0.000022887              -0.000263292               0.001151018               0.000887726               0.000000000               0.000000000               0.000000000               0.000000000               0.000305615               0.003185911               0.000022891              -0.000283632               0.001156504               0.000872871               0.000000000               0.000000000               0.000000000               0.000000000               0.000247375               0.003188218               0.000022554              -0.000305761               0.001164649               0.000858888               0.000000000               0.000000000               0.000000000               0.000000000               0.000186454               0.003193317               0.000019674              -0.000329244               0.001174176               0.000844933               0.000000000               0.000000000               0.000000000               0.000000000               0.000123671               0.003197378               0.000014776              -0.000353295               0.001183547               0.000830252               0.000000000               0.000000000               0.000000000               0.000000000               0.000060884               0.003199972               0.000008498              -0.000377164               0.001192368               0.000815204               0.000000000               0.000000000               0.000000000               0.000000000               0.000031563               0.003204426               0.000004868              -0.000388716               0.001197703               0.000808987               0.000000000               0.000000000               0.000000000               0.000000000               0.000671018               0.005917659              -0.000910297              -0.000488075               0.002135225               0.001647150               0.000000000               0.000000000               0.000000000               0.000000000               0.000634967               0.004959720              -0.000588047              -0.000381852               0.001780507               0.001398656               0.000000000               0.000000000               0.000000000               0.000000000               0.000766103               0.004222836              -0.000256886              -0.000240565               0.001487787               0.001247221               0.000000000               0.000000000               0.000000000               0.000000000               0.000754231               0.003813133              -0.000104905              -0.000193804               0.001335633               0.001141829               0.000000000               0.000000000               0.000000000               0.000000000               0.000698626               0.003571547              -0.000030382              -0.000184458               0.001251990               0.001067532               0.000000000               0.000000000               0.000000000               0.000000000               0.000625693               0.003419819               0.000006945              -0.000192842               0.001204209               0.001011367               0.000000000               0.000000000               0.000000000               0.000000000               0.000550659               0.003324347               0.000024441              -0.000209046               0.001177787               0.000968741               0.000000000               0.000000000               0.000000000               0.000000000               0.000481229               0.003264059               0.000030926              -0.000227546               0.001163857               0.000936311               0.000000000               0.000000000               0.000000000               0.000000000               0.000418631               0.003226899               0.000034623              -0.000246375               0.001157747               0.000911372               0.000000000               0.000000000               0.000000000               0.000000000               0.000363063               0.003206599               0.000033535              -0.000264676               0.001157081               0.000892405               0.000000000               0.000000000               0.000000000               0.000000000               0.000312584               0.003196327               0.000028938              -0.000282321               0.001159539               0.000877218               0.000000000               0.000000000               0.000000000               0.000000000               0.000263291               0.003192088               0.000028399              -0.000300276               0.001164111               0.000863835               0.000000000               0.000000000               0.000000000               0.000000000               0.000213683               0.003194122               0.000028520              -0.000319133               0.001171074               0.000851941               0.000000000               0.000000000               0.000000000               0.000000000               0.000161685               0.003201745               0.000024521              -0.000339585               0.001180433               0.000840847               0.000000000               0.000000000               0.000000000               0.000000000               0.000107403               0.003212452               0.000017395              -0.000361280               0.001191233               0.000829954               0.000000000               0.000000000               0.000000000               0.000000000               0.000053007               0.003226266               0.000009044              -0.000383405               0.001203213               0.000819808               0.000000000               0.000000000               0.000000000               0.000000000               0.000029362               0.003241219               0.000002989              -0.000394141               0.001211776               0.000817635               0.000000000               0.000000000               0.000000000               0.000000000               0.000804198               0.005452840              -0.001250550              -0.000380031               0.001944272               0.001564241               0.000000000               0.000000000               0.000000000               0.000000000               0.000675340               0.004636585              -0.000812411              -0.000326320               0.001654286               0.001327966               0.000000000               0.000000000               0.000000000               0.000000000               0.000705568               0.004047226              -0.000365402              -0.000241315               0.001429500               0.001188185               0.000000000               0.000000000               0.000000000               0.000000000               0.000654352               0.003713125              -0.000164918              -0.000218758               0.001310615               0.001091857               0.000000000               0.000000000               0.000000000               0.000000000               0.000588883               0.003509788              -0.000067967              -0.000217892               0.001242548               0.001024656               0.000000000               0.000000000               0.000000000               0.000000000               0.000518811               0.003382829              -0.000019482              -0.000228299               0.001203698               0.000975399               0.000000000               0.000000000               0.000000000               0.000000000               0.000450924               0.003301909               0.000004527              -0.000243642               0.001181839               0.000938198               0.000000000               0.000000000               0.000000000               0.000000000               0.000391842               0.003249957               0.000014353              -0.000259303               0.001169743               0.000910439               0.000000000               0.000000000               0.000000000               0.000000000               0.000337122               0.003216850               0.000019618              -0.000275685               0.001164167               0.000888483               0.000000000               0.000000000               0.000000000               0.000000000               0.000286066               0.003195783               0.000020431              -0.000292197               0.001162649               0.000870452               0.000000000               0.000000000               0.000000000               0.000000000               0.000242163               0.003187020               0.000014430              -0.000307566               0.001164851               0.000857285               0.000000000               0.000000000               0.000000000               0.000000000               0.000201728               0.003182358               0.000011723              -0.000322146               0.001168157               0.000846012               0.000000000               0.000000000               0.000000000               0.000000000               0.000164178               0.003183358               0.000013527              -0.000336352               0.001173226               0.000836874               0.000000000               0.000000000               0.000000000               0.000000000               0.000125506               0.003190757               0.000012679              -0.000351779               0.001180835               0.000829056               0.000000000               0.000000000               0.000000000               0.000000000               0.000083707               0.003205514               0.000008499              -0.000369298               0.001191593               0.000822295               0.000000000               0.000000000               0.000000000               0.000000000               0.000041361               0.003228748               0.000003699              -0.000388082               0.001205599               0.000817517               0.000000000               0.000000000               0.000000000               0.000000000               0.000025359               0.003252183              -0.000000932              -0.000397012               0.001216387               0.000819375               0.000000000               0.000000000               0.000000000               0.000000000               0.000939460               0.004872966              -0.001477306              -0.000256824               0.001709913               0.001453089               0.000000000               0.000000000               0.000000000               0.000000000               0.000706976               0.004239037              -0.000971722              -0.000264764               0.001501253               0.001236489               0.000000000               0.000000000               0.000000000               0.000000000               0.000628990               0.003831771              -0.000458119              -0.000243100               0.001358277               0.001115178               0.000000000               0.000000000               0.000000000               0.000000000               0.000542177               0.003583102              -0.000232957              -0.000244571               0.001275879               0.001031308               0.000000000               0.000000000               0.000000000               0.000000000               0.000467587               0.003426184              -0.000123098              -0.000252927               0.001226359               0.000973432               0.000000000               0.000000000               0.000000000               0.000000000               0.000405640               0.003327792              -0.000065810              -0.000263858               0.001197206               0.000933347               0.000000000               0.000000000               0.000000000               0.000000000               0.000349821               0.003261805              -0.000036472              -0.000276542               0.001179438               0.000902896               0.000000000               0.000000000               0.000000000               0.000000000               0.000300283               0.003218187              -0.000023619              -0.000289667               0.001169274               0.000879607               0.000000000               0.000000000               0.000000000               0.000000000               0.000255670               0.003188829              -0.000017944              -0.000302726               0.001163841               0.000861115               0.000000000               0.000000000               0.000000000               0.000000000               0.000212989               0.003168262              -0.000015253              -0.000316161               0.001161464               0.000845303               0.000000000               0.000000000               0.000000000               0.000000000               0.000174235               0.003158341              -0.000018985              -0.000329454               0.001162588               0.000833134               0.000000000               0.000000000               0.000000000               0.000000000               0.000142074               0.003156017              -0.000021614              -0.000341224               0.001165736               0.000824513               0.000000000               0.000000000               0.000000000               0.000000000               0.000114673               0.003157516              -0.000016465              -0.000351686               0.001169724               0.000818038               0.000000000               0.000000000               0.000000000               0.000000000               0.000087324               0.003166733              -0.000010659              -0.000363094               0.001176598               0.000813504               0.000000000               0.000000000               0.000000000               0.000000000               0.000059047               0.003186225              -0.000006173              -0.000376135               0.001187443               0.000811308               0.000000000               0.000000000               0.000000000               0.000000000               0.000029512               0.003215634              -0.000002950              -0.000390886               0.001202163               0.000811277               0.000000000               0.000000000               0.000000000               0.000000000               0.000019592               0.003241356              -0.000004941              -0.000397821               0.001213048               0.000815227               0.000000000               0.000000000               0.000000000               0.000000000               0.001053202               0.004231896              -0.001589287              -0.000134038               0.001455297               0.001321259               0.000000000               0.000000000               0.000000000               0.000000000               0.000723309               0.003804187              -0.001067297              -0.000204283               0.001336144               0.001131861               0.000000000               0.000000000               0.000000000               0.000000000               0.000543497               0.003595574              -0.000537725              -0.000245635               0.001280391               0.001034756               0.000000000               0.000000000               0.000000000               0.000000000               0.000438060               0.003439555              -0.000307664              -0.000265671               0.001235064               0.000969392               0.000000000               0.000000000               0.000000000               0.000000000               0.000365973               0.003331222              -0.000190822              -0.000279162               0.001203450               0.000924288               0.000000000               0.000000000               0.000000000               0.000000000               0.000311047               0.003257199              -0.000127356              -0.000290506               0.001182558               0.000892051               0.000000000               0.000000000               0.000000000               0.000000000               0.000264832               0.003203775              -0.000093241              -0.000301159               0.001168301               0.000867142               0.000000000               0.000000000               0.000000000               0.000000000               0.000224349               0.003168439              -0.000076509              -0.000311923               0.001160110               0.000848187               0.000000000               0.000000000               0.000000000               0.000000000               0.000187880               0.003145291              -0.000069012              -0.000322706               0.001155988               0.000833283               0.000000000               0.000000000               0.000000000               0.000000000               0.000154079               0.003130142              -0.000061264              -0.000333487               0.001154533               0.000821045               0.000000000               0.000000000               0.000000000               0.000000000               0.000126341               0.003126565              -0.000057562              -0.000343442               0.001156659               0.000813217               0.000000000               0.000000000               0.000000000               0.000000000               0.000102261               0.003130322              -0.000056869              -0.000352942               0.001161077               0.000808136               0.000000000               0.000000000               0.000000000               0.000000000               0.000081786               0.003137970              -0.000047617              -0.000361576               0.001166505               0.000804929               0.000000000               0.000000000               0.000000000               0.000000000               0.000061768               0.003153430              -0.000032573              -0.000371015               0.001174804               0.000803790               0.000000000               0.000000000               0.000000000               0.000000000               0.000039903               0.003176193              -0.000018946              -0.000382060               0.001186074               0.000804014               0.000000000               0.000000000               0.000000000               0.000000000               0.000019767               0.003200888              -0.000007943              -0.000392697               0.001197851               0.000805154               0.000000000               0.000000000               0.000000000               0.000000000               0.000014106               0.003218366              -0.000005441              -0.000397005               0.001205113               0.000808108               0.000000000               0.000000000               0.000000000               0.000000000               0.001123339               0.003581450              -0.001596077              -0.000026431               0.001202615               0.001176183               0.000000000               0.000000000               0.000000000               0.000000000               0.000722898               0.003367595              -0.001108131              -0.000149864               0.001172475               0.001022611               0.000000000               0.000000000               0.000000000               0.000000000               0.000463755               0.003356447              -0.000606528              -0.000245647               0.001200687               0.000955039               0.000000000               0.000000000               0.000000000               0.000000000               0.000353533               0.003288206              -0.000383162              -0.000278450               0.001188874               0.000910424               0.000000000               0.000000000               0.000000000               0.000000000               0.000289918               0.003222242              -0.000263657              -0.000294060               0.001172090               0.000878030               0.000000000               0.000000000               0.000000000               0.000000000               0.000244295               0.003171096              -0.000196051              -0.000304776               0.001158613               0.000853838               0.000000000               0.000000000               0.000000000               0.000000000               0.000208057               0.003133366              -0.000156134              -0.000313649               0.001148994               0.000835346               0.000000000               0.000000000               0.000000000               0.000000000               0.000177283               0.003112803              -0.000132188              -0.000322618               0.001145130               0.000822512               0.000000000               0.000000000               0.000000000               0.000000000               0.000151605               0.003102452              -0.000118648              -0.000330954               0.001144458               0.000813504               0.000000000               0.000000000               0.000000000               0.000000000               0.000127816               0.003098830              -0.000104259              -0.000339422               0.001146074               0.000806652               0.000000000               0.000000000               0.000000000               0.000000000               0.000107041               0.003101598              -0.000091622              -0.000347559               0.001149709               0.000802150               0.000000000               0.000000000               0.000000000               0.000000000               0.000087845               0.003112082              -0.000085148              -0.000356068               0.001156039               0.000799972               0.000000000               0.000000000               0.000000000               0.000000000               0.000067735               0.003128261              -0.000071202              -0.000365631               0.001164620               0.000798989               0.000000000               0.000000000               0.000000000               0.000000000               0.000047465               0.003147826              -0.000048816              -0.000375678               0.001174491               0.000798813               0.000000000               0.000000000               0.000000000               0.000000000               0.000027026               0.003164178              -0.000028121              -0.000385386               0.001183178               0.000797791               0.000000000               0.000000000               0.000000000               0.000000000               0.000011668               0.003171267              -0.000011694              -0.000392032               0.001187756               0.000795724               0.000000000               0.000000000               0.000000000               0.000000000               0.000003955               0.003168544              -0.000003473              -0.000394584               0.001187699               0.000793115               0.000000000               0.000000000               0.000000000               0.000000000               0.001142398               0.002957705              -0.001516721               0.000058684               0.000966330               0.001025014               0.000000000               0.000000000               0.000000000               0.000000000               0.000708224               0.002960494              -0.001107070              -0.000104479               0.001021647               0.000917168               0.000000000               0.000000000               0.000000000               0.000000000               0.000401711               0.003128083              -0.000667316              -0.000240368               0.001122806               0.000882438               0.000000000               0.000000000               0.000000000               0.000000000               0.000296702               0.003131760              -0.000454330              -0.000280206               0.001137312               0.000857105               0.000000000               0.000000000               0.000000000               0.000000000               0.000243967               0.003107454              -0.000333502              -0.000296943               0.001134789               0.000837845               0.000000000               0.000000000               0.000000000               0.000000000               0.000205557               0.003082845              -0.000260244              -0.000308271               0.001130362               0.000822091               0.000000000               0.000000000               0.000000000               0.000000000               0.000179045               0.003068327              -0.000212360              -0.000316398               0.001128232               0.000811833               0.000000000               0.000000000               0.000000000               0.000000000               0.000157910               0.003064066              -0.000178927              -0.000323791               0.001129275               0.000805484               0.000000000               0.000000000               0.000000000               0.000000000               0.000140253               0.003065088              -0.000157543              -0.000330540               0.001131866               0.000801326               0.000000000               0.000000000               0.000000000               0.000000000               0.000124162               0.003074079              -0.000138123              -0.000337698               0.001137249               0.000799550               0.000000000               0.000000000               0.000000000               0.000000000               0.000106902               0.003086954              -0.000117553              -0.000345780               0.001144234               0.000798454               0.000000000               0.000000000               0.000000000               0.000000000               0.000087635               0.003105455              -0.000100530              -0.000355318               0.001153581               0.000798263               0.000000000               0.000000000               0.000000000               0.000000000               0.000063004               0.003127432              -0.000079170              -0.000367301               0.001164901               0.000797599               0.000000000               0.000000000               0.000000000               0.000000000               0.000037123               0.003142532              -0.000050986              -0.000378894               0.001173798               0.000794904               0.000000000               0.000000000               0.000000000               0.000000000               0.000015966               0.003144109              -0.000025113              -0.000387026               0.001177035               0.000790009               0.000000000               0.000000000               0.000000000               0.000000000               0.000004162               0.003131870              -0.000007722              -0.000389922               0.001173920               0.000783998               0.000000000               0.000000000               0.000000000               0.000000000              -0.000004193               0.003116333               0.000000636              -0.000391113               0.001169139               0.000778025               0.000000000               0.000000000               0.000000000               0.000000000               0.001133810               0.002410388              -0.001379245               0.000123878               0.000762162               0.000886039               0.000000000               0.000000000               0.000000000               0.000000000               0.000702693               0.002601236              -0.001084133              -0.000061646               0.000887618               0.000825972               0.000000000               0.000000000               0.000000000               0.000000000               0.000375540               0.002920386              -0.000736196              -0.000224221               0.001048193               0.000823972               0.000000000               0.000000000               0.000000000               0.000000000               0.000277644               0.002995657              -0.000533551              -0.000270340               0.001088656               0.000818316               0.000000000               0.000000000               0.000000000               0.000000000               0.000232771               0.003017675              -0.000408065              -0.000289920               0.001102521               0.000812602               0.000000000               0.000000000               0.000000000               0.000000000               0.000198800               0.003021466              -0.000325387              -0.000303132               0.001108189               0.000805057               0.000000000               0.000000000               0.000000000               0.000000000               0.000174406               0.003027009              -0.000267509              -0.000312973               0.001113317               0.000800344               0.000000000               0.000000000               0.000000000               0.000000000               0.000157777               0.003034267              -0.000225268              -0.000320116               0.001118117               0.000798001               0.000000000               0.000000000               0.000000000               0.000000000               0.000146816               0.003046053              -0.000195410              -0.000325700               0.001123907               0.000798208               0.000000000               0.000000000               0.000000000               0.000000000               0.000139474               0.003068285              -0.000167439              -0.000331232               0.001133162               0.000801930               0.000000000               0.000000000               0.000000000               0.000000000               0.000127437               0.003093505              -0.000138202              -0.000338898               0.001144124               0.000805226               0.000000000               0.000000000               0.000000000               0.000000000               0.000104655               0.003117360              -0.000109786              -0.000350423               0.001155917               0.000805494               0.000000000               0.000000000               0.000000000               0.000000000               0.000073162               0.003137775              -0.000081514              -0.000364785               0.001167510               0.000802724               0.000000000               0.000000000               0.000000000               0.000000000               0.000041775               0.003144684              -0.000051272              -0.000377419               0.001174024               0.000796605               0.000000000               0.000000000               0.000000000               0.000000000               0.000015904               0.003132834              -0.000023445              -0.000385639               0.001172814               0.000787175               0.000000000               0.000000000               0.000000000               0.000000000              -0.000003806               0.003105925              -0.000003962              -0.000389667               0.001165187               0.000775520               0.000000000               0.000000000               0.000000000               0.000000000              -0.000013149               0.003088580               0.000003903              -0.000391002               0.001159850               0.000768848               0.000000000               0.000000000               0.000000000               0.000000000               0.001085516               0.001885825              -0.001210525               0.000171338               0.000571489               0.000742827               0.000000000               0.000000000               0.000000000               0.000000000               0.000709811               0.002184689              -0.001050634              -0.000006908               0.000730525               0.000723616               0.000000000               0.000000000               0.000000000               0.000000000               0.000393030               0.002613597              -0.000821044              -0.000179314               0.000930961               0.000751647               0.000000000               0.000000000               0.000000000               0.000000000               0.000298047               0.002781433              -0.000634326              -0.000235912               0.001005772               0.000769861               0.000000000               0.000000000               0.000000000               0.000000000               0.000255856               0.002863744              -0.000502541              -0.000262022               0.001041912               0.000779891               0.000000000               0.000000000               0.000000000               0.000000000               0.000222980               0.002906729              -0.000408706              -0.000279723               0.001062141               0.000782418               0.000000000               0.000000000               0.000000000               0.000000000               0.000196622               0.002938042              -0.000340856              -0.000293521               0.001077178               0.000783657               0.000000000               0.000000000               0.000000000               0.000000000               0.000181979               0.002967478              -0.000292221              -0.000302692               0.001090047               0.000787355               0.000000000               0.000000000               0.000000000               0.000000000               0.000174199               0.002997310              -0.000252503              -0.000309338               0.001102206               0.000792868               0.000000000               0.000000000               0.000000000               0.000000000               0.000165199               0.003029216              -0.000213559              -0.000316702               0.001115296               0.000798594               0.000000000               0.000000000               0.000000000               0.000000000               0.000150662               0.003059168              -0.000173443              -0.000325897               0.001128345               0.000802448               0.000000000               0.000000000               0.000000000               0.000000000               0.000126826               0.003083476              -0.000134092              -0.000337874               0.001140440               0.000802566               0.000000000               0.000000000               0.000000000               0.000000000               0.000092881               0.003097962              -0.000098600              -0.000352414               0.001150115               0.000797701               0.000000000               0.000000000               0.000000000               0.000000000               0.000054286               0.003105464              -0.000065820              -0.000367825               0.001157753               0.000789928               0.000000000               0.000000000               0.000000000               0.000000000               0.000016503               0.003100752              -0.000034858              -0.000381404               0.001160709               0.000779304               0.000000000               0.000000000               0.000000000               0.000000000              -0.000016071               0.003085329              -0.000011086              -0.000391692               0.001158997               0.000767305               0.000000000               0.000000000               0.000000000               0.000000000              -0.000033962               0.003072846               0.000000005              -0.000396841               0.001156552               0.000759711               0.000000000               0.000000000               0.000000000               0.000000000               0.000974533               0.001396492              -0.001015364               0.000190886               0.000401864               0.000592749               0.000000000               0.000000000               0.000000000               0.000000000               0.000713440               0.001768745              -0.000989021               0.000046445               0.000574093               0.000620539               0.000000000               0.000000000               0.000000000               0.000000000               0.000445298               0.002273411              -0.000885533              -0.000117190               0.000796859               0.000679669               0.000000000               0.000000000               0.000000000               0.000000000               0.000350997               0.002527658              -0.000732243              -0.000184334               0.000903988               0.000719655               0.000000000               0.000000000               0.000000000               0.000000000               0.000308661               0.002676009              -0.000602156              -0.000218753               0.000964912               0.000746158               0.000000000               0.000000000               0.000000000               0.000000000               0.000272051               0.002764820              -0.000501254              -0.000243583               0.001002792               0.000759209               0.000000000               0.000000000               0.000000000               0.000000000               0.000242249               0.002829376              -0.000427525              -0.000262828               0.001030725               0.000767897               0.000000000               0.000000000               0.000000000               0.000000000               0.000220692               0.002885064              -0.000372702              -0.000277873               0.001054303               0.000776430               0.000000000               0.000000000               0.000000000               0.000000000               0.000207837               0.002936797              -0.000323333              -0.000289160               0.001075309               0.000786149               0.000000000               0.000000000               0.000000000               0.000000000               0.000196362               0.002983791              -0.000273469              -0.000299338               0.001094366               0.000795029               0.000000000               0.000000000               0.000000000               0.000000000               0.000179496               0.003022239              -0.000224632              -0.000310468               0.001110892               0.000800424               0.000000000               0.000000000               0.000000000               0.000000000               0.000155698               0.003047835              -0.000178953              -0.000322592               0.001123465               0.000800874               0.000000000               0.000000000               0.000000000               0.000000000               0.000124458               0.003064288              -0.000137678              -0.000336364               0.001133540               0.000797177               0.000000000               0.000000000               0.000000000               0.000000000               0.000086505               0.003075414              -0.000098111              -0.000351987               0.001142457               0.000790470               0.000000000               0.000000000               0.000000000               0.000000000               0.000040159               0.003077378              -0.000059565              -0.000369612               0.001148986               0.000779375               0.000000000               0.000000000               0.000000000               0.000000000              -0.000010291               0.003073071              -0.000025752              -0.000387992               0.001153678               0.000765685               0.000000000               0.000000000               0.000000000               0.000000000              -0.000047668               0.003060152              -0.000005406              -0.000400394               0.001153505               0.000753111               0.000000000               0.000000000               0.000000000               0.000000000               0.000806522               0.000968025              -0.000800680               0.000181440               0.000262191               0.000443631               0.000000000               0.000000000               0.000000000               0.000000000               0.000691237               0.001372806              -0.000884563               0.000087611               0.000428393               0.000516004               0.000000000               0.000000000               0.000000000               0.000000000               0.000512123               0.001900944              -0.000892474              -0.000045573               0.000648832               0.000603260               0.000000000               0.000000000               0.000000000               0.000000000               0.000432092               0.002219571              -0.000785922              -0.000115412               0.000778320               0.000662908               0.000000000               0.000000000               0.000000000               0.000000000               0.000388466               0.002431265              -0.000670565              -0.000158234               0.000863158               0.000704924               0.000000000               0.000000000               0.000000000               0.000000000               0.000349682               0.002571401              -0.000572942              -0.000190294               0.000920557               0.000730262               0.000000000               0.000000000               0.000000000               0.000000000               0.000311672               0.002675921              -0.000498247              -0.000217613               0.000964502               0.000746890               0.000000000               0.000000000               0.000000000               0.000000000               0.000279169               0.002764757              -0.000439341              -0.000240906               0.001001879               0.000760972               0.000000000               0.000000000               0.000000000               0.000000000               0.000255947               0.002844365              -0.000386307              -0.000259565               0.001034634               0.000775069               0.000000000               0.000000000               0.000000000               0.000000000               0.000240886               0.002916592              -0.000331756              -0.000274241               0.001063601               0.000789360               0.000000000               0.000000000               0.000000000               0.000000000               0.000222046               0.002974030              -0.000278315              -0.000288486               0.001087496               0.000799009               0.000000000               0.000000000               0.000000000               0.000000000               0.000196070               0.003011514              -0.000229046              -0.000302912               0.001104799               0.000801886               0.000000000               0.000000000               0.000000000               0.000000000               0.000164040               0.003033135              -0.000185060              -0.000317626               0.001116910               0.000799284               0.000000000               0.000000000               0.000000000               0.000000000               0.000123925               0.003043319              -0.000140212              -0.000333942               0.001125743               0.000791801               0.000000000               0.000000000               0.000000000               0.000000000               0.000076166               0.003052624              -0.000092541              -0.000353015               0.001135203               0.000782188               0.000000000               0.000000000               0.000000000               0.000000000               0.000018403               0.003060857              -0.000044925              -0.000375705               0.001145511               0.000769805               0.000000000               0.000000000               0.000000000               0.000000000              -0.000029999               0.003052317              -0.000015138              -0.000392788               0.001148358               0.000755570               0.000000000               0.000000000               0.000000000               0.000000000               0.000597066               0.000621596              -0.000587044               0.000146198               0.000158463               0.000304662               0.000000000               0.000000000               0.000000000               0.000000000               0.000644228               0.001013271              -0.000742641               0.000114925               0.000299445               0.000414370               0.000000000               0.000000000               0.000000000               0.000000000               0.000583015               0.001520802              -0.000832759               0.000028529               0.000497419               0.000525948               0.000000000               0.000000000               0.000000000               0.000000000               0.000534751               0.001879369              -0.000774637              -0.000034390               0.000637913               0.000603523               0.000000000               0.000000000               0.000000000               0.000000000               0.000493767               0.002142458              -0.000684220              -0.000082645               0.000741694               0.000659048               0.000000000               0.000000000               0.000000000               0.000000000               0.000454557               0.002332872              -0.000598423              -0.000121150               0.000818000               0.000696849               0.000000000               0.000000000               0.000000000               0.000000000               0.000408672               0.002475688              -0.000528455              -0.000156209               0.000877291               0.000721082               0.000000000               0.000000000               0.000000000               0.000000000               0.000367417               0.002598406              -0.000472626              -0.000187019               0.000928466               0.000741447               0.000000000               0.000000000               0.000000000               0.000000000               0.000334818               0.002712924              -0.000421286              -0.000213558               0.000975485               0.000761927               0.000000000               0.000000000               0.000000000               0.000000000               0.000311669               0.002816193              -0.000367426              -0.000235148               0.001017104               0.000781956               0.000000000               0.000000000               0.000000000               0.000000000               0.000289845               0.002896407              -0.000312927              -0.000253359               0.001049912               0.000796554               0.000000000               0.000000000               0.000000000               0.000000000               0.000263040               0.002952162              -0.000264633              -0.000270380               0.001074171               0.000803791               0.000000000               0.000000000               0.000000000               0.000000000               0.000230650               0.002989476              -0.000220590              -0.000287190               0.001092212               0.000805022               0.000000000               0.000000000               0.000000000               0.000000000               0.000192419               0.003013173              -0.000175036              -0.000304489               0.001105877               0.000801388               0.000000000               0.000000000               0.000000000               0.000000000               0.000148368               0.003030154              -0.000125024              -0.000323131               0.001117751               0.000794621               0.000000000               0.000000000               0.000000000               0.000000000               0.000093182               0.003046912              -0.000066962              -0.000345920               0.001130934               0.000785014               0.000000000               0.000000000               0.000000000               0.000000000               0.000044422               0.003045903              -0.000029901              -0.000364079               0.001136650               0.000772572               0.000000000               0.000000000               0.000000000               0.000000000               0.000373729               0.000360802              -0.000394797               0.000095047               0.000088583               0.000183630               0.000000000               0.000000000               0.000000000               0.000000000               0.000578525               0.000708623              -0.000573583               0.000128367               0.000193416               0.000321783               0.000000000               0.000000000               0.000000000               0.000000000               0.000647716               0.001167645              -0.000702539               0.000096936               0.000356899               0.000453835               0.000000000               0.000000000               0.000000000               0.000000000               0.000644466               0.001538878              -0.000683291               0.000049314               0.000496516               0.000545830               0.000000000               0.000000000               0.000000000               0.000000000               0.000613750               0.001835172              -0.000620896               0.000000759               0.000611465               0.000612224               0.000000000               0.000000000               0.000000000               0.000000000               0.000573435               0.002063578              -0.000553154              -0.000042910               0.000702156               0.000659246               0.000000000               0.000000000               0.000000000               0.000000000               0.000527072               0.002243094              -0.000495520              -0.000082735               0.000775269               0.000692534               0.000000000               0.000000000               0.000000000               0.000000000               0.000479293               0.002401176              -0.000448911              -0.000120412               0.000840521               0.000720109               0.000000000               0.000000000               0.000000000               0.000000000               0.000435852               0.002547715              -0.000404458              -0.000155020               0.000900903               0.000745883               0.000000000               0.000000000               0.000000000               0.000000000               0.000403244               0.002678160              -0.000358128              -0.000183553               0.000953896               0.000770342               0.000000000               0.000000000               0.000000000               0.000000000               0.000378930               0.002784140              -0.000309253              -0.000205918               0.000996677               0.000790758               0.000000000               0.000000000               0.000000000               0.000000000               0.000350322               0.002867101              -0.000262196              -0.000227016               0.001031363               0.000804347               0.000000000               0.000000000               0.000000000               0.000000000               0.000316266               0.002931089              -0.000221683              -0.000247786               0.001059615               0.000811829               0.000000000               0.000000000               0.000000000               0.000000000               0.000285320               0.002979215              -0.000183656              -0.000265406               0.001081531               0.000816124               0.000000000               0.000000000               0.000000000               0.000000000               0.000254401               0.003012399              -0.000136892              -0.000281149               0.001097839               0.000816690               0.000000000               0.000000000               0.000000000               0.000000000               0.000215557               0.003038612              -0.000074842              -0.000298992               0.001112525               0.000813533               0.000000000               0.000000000               0.000000000               0.000000000               0.000180472               0.003044625              -0.000036176              -0.000312900               0.001119165               0.000806265               0.000000000               0.000000000               0.000000000               0.000000000               0.000177677               0.000186500              -0.000233678               0.000043316               0.000047727               0.000091043               0.000000000               0.000000000               0.000000000               0.000000000               0.000512993               0.000477995              -0.000388261               0.000132622               0.000115123               0.000247744               0.000000000               0.000000000               0.000000000               0.000000000               0.000698345               0.000876221              -0.000510029               0.000152350               0.000241287               0.000393637               0.000000000               0.000000000               0.000000000               0.000000000               0.000740003               0.001241130              -0.000511435               0.000122359               0.000372920               0.000495278               0.000000000               0.000000000               0.000000000               0.000000000               0.000725715               0.001553627              -0.000473762               0.000077939               0.000491891               0.000569830               0.000000000               0.000000000               0.000000000               0.000000000               0.000689473               0.001811522              -0.000428901               0.000032112               0.000593131               0.000625242               0.000000000               0.000000000               0.000000000               0.000000000               0.000645955               0.002026885              -0.000389722              -0.000011128               0.000679331               0.000668203               0.000000000               0.000000000               0.000000000               0.000000000               0.000593345               0.002212776              -0.000354999              -0.000054093               0.000755615               0.000701523               0.000000000               0.000000000               0.000000000               0.000000000               0.000538024               0.002378087              -0.000323553              -0.000095502               0.000824522               0.000729020               0.000000000               0.000000000               0.000000000               0.000000000               0.000494362               0.002529219              -0.000292752              -0.000130766               0.000886653               0.000755887               0.000000000               0.000000000               0.000000000               0.000000000               0.000460239               0.002663744              -0.000253130              -0.000160378               0.000941365               0.000780987               0.000000000               0.000000000               0.000000000               0.000000000               0.000428570               0.002779745              -0.000211447              -0.000186754               0.000988824               0.000802070               0.000000000               0.000000000               0.000000000               0.000000000               0.000400919               0.002874291              -0.000182062              -0.000208941               0.001027734               0.000818793               0.000000000               0.000000000               0.000000000               0.000000000               0.000377178               0.002946231              -0.000157385              -0.000226836               0.001057679               0.000830843               0.000000000               0.000000000               0.000000000               0.000000000               0.000359161               0.003001836              -0.000120380              -0.000240544               0.001080783               0.000840240               0.000000000               0.000000000               0.000000000               0.000000000               0.000347597               0.003041143              -0.000065692              -0.000249793               0.001096968               0.000847175               0.000000000               0.000000000               0.000000000               0.000000000               0.000341154               0.003053824              -0.000033156              -0.000253795               0.001102529               0.000848735               0.000000000               0.000000000               0.000000000               0.000000000               0.000045655               0.000090584              -0.000105859               0.000005797               0.000028262               0.000034059               0.000000000               0.000000000               0.000000000               0.000000000               0.000468955               0.000337384              -0.000195271               0.000133684               0.000067899               0.000201583               0.000000000               0.000000000               0.000000000               0.000000000               0.000732264               0.000685663              -0.000268509               0.000188889               0.000165589               0.000354478               0.000000000               0.000000000               0.000000000               0.000000000               0.000805774               0.001036654              -0.000273644               0.000172582               0.000288021               0.000460603               0.000000000               0.000000000               0.000000000               0.000000000               0.000808677               0.001354424              -0.000256191               0.000133950               0.000406820               0.000540770               0.000000000               0.000000000               0.000000000               0.000000000               0.000781116               0.001636328              -0.000235788               0.000088377               0.000515978               0.000604355               0.000000000               0.000000000               0.000000000               0.000000000               0.000736426               0.001876190              -0.000217078               0.000041636               0.000611512               0.000653148               0.000000000               0.000000000               0.000000000               0.000000000               0.000679766               0.002074122              -0.000196983              -0.000004353               0.000692818               0.000688465               0.000000000               0.000000000               0.000000000               0.000000000               0.000619770               0.002248545              -0.000181310              -0.000048654               0.000765726               0.000717071               0.000000000               0.000000000               0.000000000               0.000000000               0.000563262               0.002416482              -0.000166756              -0.000090837               0.000835765               0.000744928               0.000000000               0.000000000               0.000000000               0.000000000               0.000517619               0.002577473              -0.000143016              -0.000128077               0.000901841               0.000773765               0.000000000               0.000000000               0.000000000               0.000000000               0.000488184               0.002719030              -0.000119730              -0.000156809               0.000958604               0.000801795               0.000000000               0.000000000               0.000000000               0.000000000               0.000468959               0.002834374              -0.000105120              -0.000178437               0.001004261               0.000825824               0.000000000               0.000000000               0.000000000               0.000000000               0.000452386               0.002923417              -0.000091898              -0.000195782               0.001039723               0.000843941               0.000000000               0.000000000               0.000000000               0.000000000               0.000443401               0.002991057              -0.000071711              -0.000207606               0.001066211               0.000858605               0.000000000               0.000000000               0.000000000               0.000000000               0.000451675               0.003037739              -0.000041169              -0.000210339               0.001082682               0.000872344               0.000000000               0.000000000               0.000000000               0.000000000               0.000467868               0.003056700              -0.000023500              -0.000206636               0.001087769               0.000881132               0.000000000               0.000000000               0.000000000               0.000000000               0.000000000               0.000000000               0.000000000               0.000000000               0.000000000               0.000000000               0.000000000               0.000000000               0.000000000               0.000000000               0.000000000               0.000000000               0.000000000               0.000000000               0.000000000               0.000000000               0.000000000               0.000000000               0.000000000               0.000000000               0.000000000               0.000000000               0.000000000               0.000000000               0.000000000               0.000000000               0.000000000               0.000000000               0.000000000               0.000000000               0.000000000               0.000000000               0.000000000               0.000000000               0.000000000               0.000000000               0.000000000               0.000000000               0.000000000               0.000000000               0.000000000               0.000000000               0.000000000               0.000000000               0.000000000               0.000000000               0.000000000               0.000000000               0.000000000               0.000000000               0.000000000               0.000000000               0.000000000               0.000000000               0.000000000               0.000000000               0.000000000               0.000000000               0.000000000               0.000000000               0.000000000               0.000000000               0.000000000               0.000000000               0.000000000               0.000000000               0.000000000               0.000000000               0.000000000               0.000000000               0.000000000               0.000000000               0.000000000               0.000000000               0.000000000               0.000000000               0.000000000               0.000000000               0.000000000               0.000000000               0.000000000               0.000000000               0.000000000               0.000000000               0.000000000               0.000000000               0.000000000               0.000000000               0.000000000               0.000000000               0.000000000               0.000000000               0.000000000               0.000000000               0.000000000               0.000000000               0.000000000               0.000000000               0.000000000               0.000000000               0.000000000               0.000000000               0.000000000               0.000000000               0.000000000               0.000000000               0.000000000               0.000000000               0.000000000               0.000000000               0.000000000               0.000000000               0.000000000               0.000000000               0.000000000               0.000000000               0.000000000               0.000000000               0.000000000               0.000000000               0.000000000               0.000000000               0.000000000               0.000000000               0.000000000               0.000000000               0.000000000               0.000000000               0.000000000               0.000000000               0.000000000               0.000000000               0.000000000               0.000000000               0.000000000               0.000000000               0.000000000               0.000000000               0.000000000               0.000000000               0.000000000               0.000000000               0.000000000               0.000000000               0.000000000               0.000000000               0.000000000               0.000000000               0.000000000               0.000000000               0.000000000               0.000000000               0.000000000               0.000000000               0.000000000               0.000000000               0.000000000               0.000000000               0.000000000               0.000000000               0.000000000               0.000000000               0.000000000               0.000000000               0.000000000               0.000000000               0.000000000               0.000000000               0.000000000               0.000000000               0.000000000               0.000000000               0.000000000               0.000000000               0.000000000               0.000000000               0.000000000               0.000000000               0.000000000               0.000000000               0.000000000               0.000000000               0.000000000               0.000000000               0.000000000               0.000000000               0.000000000               0.000000000               0.000000000               0.000000000               0.000000000               0.000000000               0.000000000               0.000000000               0.000000000               0.000000000               0.000000000               0.000000000               0.000000000               0.000000000               0.000000000               0.000000000               0.000000000               0.000000000               0.000000000               0.000000000               0.000000000               0.000000000               0.000000000               0.000000000               0.000000000               0.000000000               0.000000000               0.000000000               0.000000000               0.000000000               0.000000000               0.000000000               0.000000000               0.000000000               0.000000000               0.000000000               0.000000000               0.000000000               0.000000000               0.000000000               0.000000000               0.000000000               0.000000000               0.000000000               0.000000000               0.000000000               0.000000000               0.000000000               0.000000000               0.000000000               0.000000000               0.000000000               0.000000000               0.000000000               0.000000000               0.000000000               0.000000000               0.000000000               0.000000000               0.000000000               0.000000000               0.000000000               0.000000000               0.000000000               0.000000000               0.000000000               0.000000000               0.000000000               0.000000000               0.000000000               0.000000000               0.000000000               0.000000000               0.000000000               0.000000000               0.000000000               0.000000000               0.000000000               0.000000000               0.000000000               0.000000000               0.000000000               0.000000000               0.000000000               0.000000000               0.000000000               0.000000000               0.000000000               0.000000000               0.000000000               0.000000000               0.000000000               0.000000000               0.000000000               0.000000000               0.000000000               0.000000000               0.000000000               0.000000000               0.000000000               0.000000000               0.000000000               0.000000000               0.000000000               0.000000000               0.000000000               0.000000000               0.000000000               0.000000000               0.000000000               0.000000000               0.000000000               0.000000000               0.000000000               0.000000000               0.000000000               0.000000000               0.000000000               0.000000000               0.000000000               0.000000000               0.000000000               0.000000000               0.000000000               0.000000000               0.000000000               0.000000000               0.000000000               0.000000000               0.000000000               0.000000000               0.000000000               0.000000000               0.000000000               0.000000000               0.000000000               0.000000000               0.000000000               0.000000000               0.000000000               0.000000000               0.000000000               0.000000000               0.000000000               0.000000000               0.000000000               0.000000000               0.000000000               0.000000000               0.000000000               0.000000000               0.000000000               0.000000000               0.000000000               0.000573937               0.006217983               0.000478715              -0.000562020               0.002259980               0.001697960               0.000000000               0.000000000               0.000000000               0.000000000               0.000602390               0.005168440               0.000308329              -0.000420158               0.001862849               0.001442691               0.000000000               0.000000000               0.000000000               0.000000000               0.000804670               0.004334447               0.000132374              -0.000240054               0.001524819               0.001284765               0.000000000               0.000000000               0.000000000               0.000000000               0.000821780               0.003874043               0.000051235              -0.000176087               0.001350031               0.001173943               0.000000000               0.000000000               0.000000000               0.000000000               0.000773908               0.003603254               0.000010985              -0.000160191               0.001254470               0.001094279               0.000000000               0.000000000               0.000000000               0.000000000               0.000701769               0.003435925              -0.000010011              -0.000166327               0.001200739               0.001034412               0.000000000               0.000000000               0.000000000               0.000000000               0.000623701               0.003330412              -0.000019976              -0.000182413               0.001170931               0.000988517               0.000000000               0.000000000               0.000000000               0.000000000               0.000550501               0.003264575              -0.000023634              -0.000201634               0.001155392               0.000953758               0.000000000               0.000000000               0.000000000               0.000000000               0.000481436               0.003223859              -0.000025137              -0.000222443               0.001148757               0.000926313               0.000000000               0.000000000               0.000000000               0.000000000               0.000417903               0.003201867              -0.000024886              -0.000243519               0.001148451               0.000904932               0.000000000               0.000000000               0.000000000               0.000000000               0.000361152               0.003189793              -0.000022887              -0.000263292               0.001151018               0.000887726               0.000000000               0.000000000               0.000000000               0.000000000               0.000305615               0.003185911              -0.000022891              -0.000283632               0.001156504               0.000872871               0.000000000               0.000000000               0.000000000               0.000000000               0.000247375               0.003188218              -0.000022554              -0.000305761               0.001164649               0.000858888               0.000000000               0.000000000               0.000000000               0.000000000               0.000186454               0.003193317              -0.000019674              -0.000329244               0.001174176               0.000844933               0.000000000               0.000000000               0.000000000               0.000000000               0.000123671               0.003197378              -0.000014776              -0.000353295               0.001183547               0.000830252               0.000000000               0.000000000               0.000000000               0.000000000               0.000060884               0.003199972              -0.000008498              -0.000377164               0.001192368               0.000815204               0.000000000               0.000000000               0.000000000               0.000000000               0.000031563               0.003204426              -0.000004868              -0.000388716               0.001197703               0.000808987               0.000000000               0.000000000               0.000000000               0.000000000               0.000671018               0.005917659               0.000910297              -0.000488075               0.002135225               0.001647150               0.000000000               0.000000000               0.000000000               0.000000000               0.000634967               0.004959720               0.000588047              -0.000381852               0.001780507               0.001398656               0.000000000               0.000000000               0.000000000               0.000000000               0.000766103               0.004222836               0.000256886              -0.000240565               0.001487787               0.001247221               0.000000000               0.000000000               0.000000000               0.000000000               0.000754231               0.003813133               0.000104905              -0.000193804               0.001335633               0.001141829               0.000000000               0.000000000               0.000000000               0.000000000               0.000698626               0.003571547               0.000030382              -0.000184458               0.001251990               0.001067532               0.000000000               0.000000000               0.000000000               0.000000000               0.000625693               0.003419819              -0.000006945              -0.000192842               0.001204209               0.001011367               0.000000000               0.000000000               0.000000000               0.000000000               0.000550659               0.003324347              -0.000024441              -0.000209046               0.001177787               0.000968741               0.000000000               0.000000000               0.000000000               0.000000000               0.000481229               0.003264059              -0.000030926              -0.000227546               0.001163857               0.000936311               0.000000000               0.000000000               0.000000000               0.000000000               0.000418631               0.003226899              -0.000034623              -0.000246375               0.001157747               0.000911372               0.000000000               0.000000000               0.000000000               0.000000000               0.000363063               0.003206599              -0.000033535              -0.000264676               0.001157081               0.000892405               0.000000000               0.000000000               0.000000000               0.000000000               0.000312584               0.003196327              -0.000028938              -0.000282321               0.001159539               0.000877218               0.000000000               0.000000000               0.000000000               0.000000000               0.000263291               0.003192088              -0.000028399              -0.000300276               0.001164111               0.000863835               0.000000000               0.000000000               0.000000000               0.000000000               0.000213683               0.003194122              -0.000028520              -0.000319133               0.001171074               0.000851941               0.000000000               0.000000000               0.000000000               0.000000000               0.000161685               0.003201745              -0.000024521              -0.000339585               0.001180433               0.000840847               0.000000000               0.000000000               0.000000000               0.000000000               0.000107403               0.003212452              -0.000017395              -0.000361280               0.001191233               0.000829954               0.000000000               0.000000000               0.000000000               0.000000000               0.000053007               0.003226266              -0.000009044              -0.000383405               0.001203213               0.000819808               0.000000000               0.000000000               0.000000000               0.000000000               0.000029362               0.003241219              -0.000002989              -0.000394141               0.001211776               0.000817635               0.000000000               0.000000000               0.000000000               0.000000000               0.000804198               0.005452840               0.001250550              -0.000380031               0.001944272               0.001564241               0.000000000               0.000000000               0.000000000               0.000000000               0.000675340               0.004636585               0.000812411              -0.000326320               0.001654286               0.001327966               0.000000000               0.000000000               0.000000000               0.000000000               0.000705568               0.004047226               0.000365402              -0.000241315               0.001429500               0.001188185               0.000000000               0.000000000               0.000000000               0.000000000               0.000654352               0.003713125               0.000164918              -0.000218758               0.001310615               0.001091857               0.000000000               0.000000000               0.000000000               0.000000000               0.000588883               0.003509788               0.000067967              -0.000217892               0.001242548               0.001024656               0.000000000               0.000000000               0.000000000               0.000000000               0.000518811               0.003382829               0.000019482              -0.000228299               0.001203698               0.000975399               0.000000000               0.000000000               0.000000000               0.000000000               0.000450924               0.003301909              -0.000004527              -0.000243642               0.001181839               0.000938198               0.000000000               0.000000000               0.000000000               0.000000000               0.000391842               0.003249957              -0.000014353              -0.000259303               0.001169743               0.000910439               0.000000000               0.000000000               0.000000000               0.000000000               0.000337122               0.003216850              -0.000019618              -0.000275685               0.001164167               0.000888483               0.000000000               0.000000000               0.000000000               0.000000000               0.000286066               0.003195783              -0.000020431              -0.000292197               0.001162649               0.000870452               0.000000000               0.000000000               0.000000000               0.000000000               0.000242163               0.003187020              -0.000014430              -0.000307566               0.001164851               0.000857285               0.000000000               0.000000000               0.000000000               0.000000000               0.000201728               0.003182358              -0.000011723              -0.000322146               0.001168157               0.000846012               0.000000000               0.000000000               0.000000000               0.000000000               0.000164178               0.003183358              -0.000013527              -0.000336352               0.001173226               0.000836874               0.000000000               0.000000000               0.000000000               0.000000000               0.000125506               0.003190757              -0.000012679              -0.000351779               0.001180835               0.000829056               0.000000000               0.000000000               0.000000000               0.000000000               0.000083707               0.003205514              -0.000008499              -0.000369298               0.001191593               0.000822295               0.000000000               0.000000000               0.000000000               0.000000000               0.000041361               0.003228748              -0.000003699              -0.000388082               0.001205599               0.000817517               0.000000000               0.000000000               0.000000000               0.000000000               0.000025359               0.003252183               0.000000932              -0.000397012               0.001216387               0.000819375               0.000000000               0.000000000               0.000000000               0.000000000               0.000939460               0.004872966               0.001477306              -0.000256824               0.001709913               0.001453089               0.000000000               0.000000000               0.000000000               0.000000000               0.000706976               0.004239037               0.000971722              -0.000264764               0.001501253               0.001236489               0.000000000               0.000000000               0.000000000               0.000000000               0.000628990               0.003831771               0.000458119              -0.000243100               0.001358277               0.001115178               0.000000000               0.000000000               0.000000000               0.000000000               0.000542177               0.003583102               0.000232957              -0.000244571               0.001275879               0.001031308               0.000000000               0.000000000               0.000000000               0.000000000               0.000467587               0.003426184               0.000123098              -0.000252927               0.001226359               0.000973432               0.000000000               0.000000000               0.000000000               0.000000000               0.000405640               0.003327792               0.000065810              -0.000263858               0.001197206               0.000933347               0.000000000               0.000000000               0.000000000               0.000000000               0.000349821               0.003261805               0.000036472              -0.000276542               0.001179438               0.000902896               0.000000000               0.000000000               0.000000000               0.000000000               0.000300283               0.003218187               0.000023619              -0.000289667               0.001169274               0.000879607               0.000000000               0.000000000               0.000000000               0.000000000               0.000255670               0.003188829               0.000017944              -0.000302726               0.001163841               0.000861115               0.000000000               0.000000000               0.000000000               0.000000000               0.000212989               0.003168262               0.000015253              -0.000316161               0.001161464               0.000845303               0.000000000               0.000000000               0.000000000               0.000000000               0.000174235               0.003158341               0.000018985              -0.000329454               0.001162588               0.000833134               0.000000000               0.000000000               0.000000000               0.000000000               0.000142074               0.003156017               0.000021614              -0.000341224               0.001165736               0.000824513               0.000000000               0.000000000               0.000000000               0.000000000               0.000114673               0.003157516               0.000016465              -0.000351686               0.001169724               0.000818038               0.000000000               0.000000000               0.000000000               0.000000000               0.000087324               0.003166733               0.000010659              -0.000363094               0.001176598               0.000813504               0.000000000               0.000000000               0.000000000               0.000000000               0.000059047               0.003186225               0.000006173              -0.000376135               0.001187443               0.000811308               0.000000000               0.000000000               0.000000000               0.000000000               0.000029512               0.003215634               0.000002950              -0.000390886               0.001202163               0.000811277               0.000000000               0.000000000               0.000000000               0.000000000               0.000019592               0.003241356               0.000004941              -0.000397821               0.001213048               0.000815227               0.000000000               0.000000000               0.000000000               0.000000000               0.001053202               0.004231896               0.001589287              -0.000134038               0.001455297               0.001321259               0.000000000               0.000000000               0.000000000               0.000000000               0.000723309               0.003804187               0.001067297              -0.000204283               0.001336144               0.001131861               0.000000000               0.000000000               0.000000000               0.000000000               0.000543497               0.003595574               0.000537725              -0.000245635               0.001280391               0.001034756               0.000000000               0.000000000               0.000000000               0.000000000               0.000438060               0.003439555               0.000307664              -0.000265671               0.001235064               0.000969392               0.000000000               0.000000000               0.000000000               0.000000000               0.000365973               0.003331222               0.000190822              -0.000279162               0.001203450               0.000924288               0.000000000               0.000000000               0.000000000               0.000000000               0.000311047               0.003257199               0.000127356              -0.000290506               0.001182558               0.000892051               0.000000000               0.000000000               0.000000000               0.000000000               0.000264832               0.003203775               0.000093241              -0.000301159               0.001168301               0.000867142               0.000000000               0.000000000               0.000000000               0.000000000               0.000224349               0.003168439               0.000076509              -0.000311923               0.001160110               0.000848187               0.000000000               0.000000000               0.000000000               0.000000000               0.000187880               0.003145291               0.000069012              -0.000322706               0.001155988               0.000833283               0.000000000               0.000000000               0.000000000               0.000000000               0.000154079               0.003130142               0.000061264              -0.000333487               0.001154533               0.000821045               0.000000000               0.000000000               0.000000000               0.000000000               0.000126341               0.003126565               0.000057562              -0.000343442               0.001156659               0.000813217               0.000000000               0.000000000               0.000000000               0.000000000               0.000102261               0.003130322               0.000056869              -0.000352942               0.001161077               0.000808136               0.000000000               0.000000000               0.000000000               0.000000000               0.000081786               0.003137970               0.000047617              -0.000361576               0.001166505               0.000804929               0.000000000               0.000000000               0.000000000               0.000000000               0.000061768               0.003153430               0.000032573              -0.000371015               0.001174804               0.000803790               0.000000000               0.000000000               0.000000000               0.000000000               0.000039903               0.003176193               0.000018946              -0.000382060               0.001186074               0.000804014               0.000000000               0.000000000               0.000000000               0.000000000               0.000019767               0.003200888               0.000007943              -0.000392697               0.001197851               0.000805154               0.000000000               0.000000000               0.000000000               0.000000000               0.000014106               0.003218366               0.000005441              -0.000397005               0.001205113               0.000808108               0.000000000               0.000000000               0.000000000               0.000000000               0.001123339               0.003581450               0.001596077              -0.000026431               0.001202615               0.001176183               0.000000000               0.000000000               0.000000000               0.000000000               0.000722898               0.003367595               0.001108131              -0.000149864               0.001172475               0.001022611               0.000000000               0.000000000               0.000000000               0.000000000               0.000463755               0.003356447               0.000606528              -0.000245647               0.001200687               0.000955039               0.000000000               0.000000000               0.000000000               0.000000000               0.000353533               0.003288206               0.000383162              -0.000278450               0.001188874               0.000910424               0.000000000               0.000000000               0.000000000               0.000000000               0.000289918               0.003222242               0.000263657              -0.000294060               0.001172090               0.000878030               0.000000000               0.000000000               0.000000000               0.000000000               0.000244295               0.003171096               0.000196051              -0.000304776               0.001158613               0.000853838               0.000000000               0.000000000               0.000000000               0.000000000               0.000208057               0.003133366               0.000156134              -0.000313649               0.001148994               0.000835346               0.000000000               0.000000000               0.000000000               0.000000000               0.000177283               0.003112803               0.000132188              -0.000322618               0.001145130               0.000822512               0.000000000               0.000000000               0.000000000               0.000000000               0.000151605               0.003102452               0.000118648              -0.000330954               0.001144458               0.000813504               0.000000000               0.000000000               0.000000000               0.000000000               0.000127816               0.003098830               0.000104259              -0.000339422               0.001146074               0.000806652               0.000000000               0.000000000               0.000000000               0.000000000               0.000107041               0.003101598               0.000091622              -0.000347559               0.001149709               0.000802150               0.000000000               0.000000000               0.000000000               0.000000000               0.000087845               0.003112082               0.000085148              -0.000356068               0.001156039               0.000799972               0.000000000               0.000000000               0.000000000               0.000000000               0.000067735               0.003128261               0.000071202              -0.000365631               0.001164620               0.000798989               0.000000000               0.000000000               0.000000000               0.000000000               0.000047465               0.003147826               0.000048816              -0.000375678               0.001174491               0.000798813               0.000000000               0.000000000               0.000000000               0.000000000               0.000027026               0.003164178               0.000028121              -0.000385386               0.001183178               0.000797791               0.000000000               0.000000000               0.000000000               0.000000000               0.000011668               0.003171267               0.000011694              -0.000392032               0.001187756               0.000795724               0.000000000               0.000000000               0.000000000               0.000000000               0.000003955               0.003168544               0.000003473              -0.000394584               0.001187699               0.000793115               0.000000000               0.000000000               0.000000000               0.000000000               0.001142398               0.002957705               0.001516721               0.000058684               0.000966330               0.001025014               0.000000000               0.000000000               0.000000000               0.000000000               0.000708224               0.002960494               0.001107070              -0.000104479               0.001021647               0.000917168               0.000000000               0.000000000               0.000000000               0.000000000               0.000401711               0.003128083               0.000667316              -0.000240368               0.001122806               0.000882438               0.000000000               0.000000000               0.000000000               0.000000000               0.000296702               0.003131760               0.000454330              -0.000280206               0.001137312               0.000857105               0.000000000               0.000000000               0.000000000               0.000000000               0.000243967               0.003107454               0.000333502              -0.000296943               0.001134789               0.000837845               0.000000000               0.000000000               0.000000000               0.000000000               0.000205557               0.003082845               0.000260244              -0.000308271               0.001130362               0.000822091               0.000000000               0.000000000               0.000000000               0.000000000               0.000179045               0.003068327               0.000212360              -0.000316398               0.001128232               0.000811833               0.000000000               0.000000000               0.000000000               0.000000000               0.000157910               0.003064066               0.000178927              -0.000323791               0.001129275               0.000805484               0.000000000               0.000000000               0.000000000               0.000000000               0.000140253               0.003065088               0.000157543              -0.000330540               0.001131866               0.000801326               0.000000000               0.000000000               0.000000000               0.000000000               0.000124162               0.003074079               0.000138123              -0.000337698               0.001137249               0.000799550               0.000000000               0.000000000               0.000000000               0.000000000               0.000106902               0.003086954               0.000117553              -0.000345780               0.001144234               0.000798454               0.000000000               0.000000000               0.000000000               0.000000000               0.000087635               0.003105455               0.000100530              -0.000355318               0.001153581               0.000798263               0.000000000               0.000000000               0.000000000               0.000000000               0.000063004               0.003127432               0.000079170              -0.000367301               0.001164901               0.000797599               0.000000000               0.000000000               0.000000000               0.000000000               0.000037123               0.003142532               0.000050986              -0.000378894               0.001173798               0.000794904               0.000000000               0.000000000               0.000000000               0.000000000               0.000015966               0.003144109               0.000025113              -0.000387026               0.001177035               0.000790009               0.000000000               0.000000000               0.000000000               0.000000000               0.000004162               0.003131870               0.000007722              -0.000389922               0.001173920               0.000783998               0.000000000               0.000000000               0.000000000               0.000000000              -0.000004193               0.003116333              -0.000000636              -0.000391113               0.001169139               0.000778025               0.000000000               0.000000000               0.000000000               0.000000000               0.001133810               0.002410388               0.001379245               0.000123878               0.000762162               0.000886039               0.000000000               0.000000000               0.000000000               0.000000000               0.000702693               0.002601236               0.001084133              -0.000061646               0.000887618               0.000825972               0.000000000               0.000000000               0.000000000               0.000000000               0.000375540               0.002920386               0.000736196              -0.000224221               0.001048193               0.000823972               0.000000000               0.000000000               0.000000000               0.000000000               0.000277644               0.002995657               0.000533551              -0.000270340               0.001088656               0.000818316               0.000000000               0.000000000               0.000000000               0.000000000               0.000232771               0.003017675               0.000408065              -0.000289920               0.001102521               0.000812602               0.000000000               0.000000000               0.000000000               0.000000000               0.000198800               0.003021466               0.000325387              -0.000303132               0.001108189               0.000805057               0.000000000               0.000000000               0.000000000               0.000000000               0.000174406               0.003027009               0.000267509              -0.000312973               0.001113317               0.000800344               0.000000000               0.000000000               0.000000000               0.000000000               0.000157777               0.003034267               0.000225268              -0.000320116               0.001118117               0.000798001               0.000000000               0.000000000               0.000000000               0.000000000               0.000146816               0.003046053               0.000195410              -0.000325700               0.001123907               0.000798208               0.000000000               0.000000000               0.000000000               0.000000000               0.000139474               0.003068285               0.000167439              -0.000331232               0.001133162               0.000801930               0.000000000               0.000000000               0.000000000               0.000000000               0.000127437               0.003093505               0.000138202              -0.000338898               0.001144124               0.000805226               0.000000000               0.000000000               0.000000000               0.000000000               0.000104655               0.003117360               0.000109786              -0.000350423               0.001155917               0.000805494               0.000000000               0.000000000               0.000000000               0.000000000               0.000073162               0.003137775               0.000081514              -0.000364785               0.001167510               0.000802724               0.000000000               0.000000000               0.000000000               0.000000000               0.000041775               0.003144684               0.000051272              -0.000377419               0.001174024               0.000796605               0.000000000               0.000000000               0.000000000               0.000000000               0.000015904               0.003132834               0.000023445              -0.000385639               0.001172814               0.000787175               0.000000000               0.000000000               0.000000000               0.000000000              -0.000003806               0.003105925               0.000003962              -0.000389667               0.001165187               0.000775520               0.000000000               0.000000000               0.000000000               0.000000000              -0.000013149               0.003088580              -0.000003903              -0.000391002               0.001159850               0.000768848               0.000000000               0.000000000               0.000000000               0.000000000               0.001085516               0.001885825               0.001210525               0.000171338               0.000571489               0.000742827               0.000000000               0.000000000               0.000000000               0.000000000               0.000709811               0.002184689               0.001050634              -0.000006908               0.000730525               0.000723616               0.000000000               0.000000000               0.000000000               0.000000000               0.000393030               0.002613597               0.000821044              -0.000179314               0.000930961               0.000751647               0.000000000               0.000000000               0.000000000               0.000000000               0.000298047               0.002781433               0.000634326              -0.000235912               0.001005772               0.000769861               0.000000000               0.000000000               0.000000000               0.000000000               0.000255856               0.002863744               0.000502541              -0.000262022               0.001041912               0.000779891               0.000000000               0.000000000               0.000000000               0.000000000               0.000222980               0.002906729               0.000408706              -0.000279723               0.001062141               0.000782418               0.000000000               0.000000000               0.000000000               0.000000000               0.000196622               0.002938042               0.000340856              -0.000293521               0.001077178               0.000783657               0.000000000               0.000000000               0.000000000               0.000000000               0.000181979               0.002967478               0.000292221              -0.000302692               0.001090047               0.000787355               0.000000000               0.000000000               0.000000000               0.000000000               0.000174199               0.002997310               0.000252503              -0.000309338               0.001102206               0.000792868               0.000000000               0.000000000               0.000000000               0.000000000               0.000165199               0.003029216               0.000213559              -0.000316702               0.001115296               0.000798594               0.000000000               0.000000000               0.000000000               0.000000000               0.000150662               0.003059168               0.000173443              -0.000325897               0.001128345               0.000802448               0.000000000               0.000000000               0.000000000               0.000000000               0.000126826               0.003083476               0.000134092              -0.000337874               0.001140440               0.000802566               0.000000000               0.000000000               0.000000000               0.000000000               0.000092881               0.003097962               0.000098600              -0.000352414               0.001150115               0.000797701               0.000000000               0.000000000               0.000000000               0.000000000               0.000054286               0.003105464               0.000065820              -0.000367825               0.001157753               0.000789928               0.000000000               0.000000000               0.000000000               0.000000000               0.000016503               0.003100752               0.000034858              -0.000381404               0.001160709               0.000779304               0.000000000               0.000000000               0.000000000               0.000000000              -0.000016071               0.003085329               0.000011086              -0.000391692               0.001158997               0.000767305               0.000000000               0.000000000               0.000000000               0.000000000              -0.000033962               0.003072846              -0.000000005              -0.000396841               0.001156552               0.000759711               0.000000000               0.000000000               0.000000000               0.000000000               0.000974533               0.001396492               0.001015364               0.000190886               0.000401864               0.000592749               0.000000000               0.000000000               0.000000000               0.000000000               0.000713440               0.001768745               0.000989021               0.000046445               0.000574093               0.000620539               0.000000000               0.000000000               0.000000000               0.000000000               0.000445298               0.002273411               0.000885533              -0.000117190               0.000796859               0.000679669               0.000000000               0.000000000               0.000000000               0.000000000               0.000350997               0.002527658               0.000732243              -0.000184334               0.000903988               0.000719655               0.000000000               0.000000000               0.000000000               0.000000000               0.000308661               0.002676009               0.000602156              -0.000218753               0.000964912               0.000746158               0.000000000               0.000000000               0.000000000               0.000000000               0.000272051               0.002764820               0.000501254              -0.000243583               0.001002792               0.000759209               0.000000000               0.000000000               0.000000000               0.000000000               0.000242249               0.002829376               0.000427525              -0.000262828               0.001030725               0.000767897               0.000000000               0.000000000               0.000000000               0.000000000               0.000220692               0.002885064               0.000372702              -0.000277873               0.001054303               0.000776430               0.000000000               0.000000000               0.000000000               0.000000000               0.000207837               0.002936797               0.000323333              -0.000289160               0.001075309               0.000786149               0.000000000               0.000000000               0.000000000               0.000000000               0.000196362               0.002983791               0.000273469              -0.000299338               0.001094366               0.000795029               0.000000000               0.000000000               0.000000000               0.000000000               0.000179496               0.003022239               0.000224632              -0.000310468               0.001110892               0.000800424               0.000000000               0.000000000               0.000000000               0.000000000               0.000155698               0.003047835               0.000178953              -0.000322592               0.001123465               0.000800874               0.000000000               0.000000000               0.000000000               0.000000000               0.000124458               0.003064288               0.000137678              -0.000336364               0.001133540               0.000797177               0.000000000               0.000000000               0.000000000               0.000000000               0.000086505               0.003075414               0.000098111              -0.000351987               0.001142457               0.000790470               0.000000000               0.000000000               0.000000000               0.000000000               0.000040159               0.003077378               0.000059565              -0.000369612               0.001148986               0.000779375               0.000000000               0.000000000               0.000000000               0.000000000              -0.000010291               0.003073071               0.000025752              -0.000387992               0.001153678               0.000765685               0.000000000               0.000000000               0.000000000               0.000000000              -0.000047668               0.003060152               0.000005406              -0.000400394               0.001153505               0.000753111               0.000000000               0.000000000               0.000000000               0.000000000               0.000806522               0.000968025               0.000800680               0.000181440               0.000262191               0.000443631               0.000000000               0.000000000               0.000000000               0.000000000               0.000691237               0.001372806               0.000884563               0.000087611               0.000428393               0.000516004               0.000000000               0.000000000               0.000000000               0.000000000               0.000512123               0.001900944               0.000892474              -0.000045573               0.000648832               0.000603260               0.000000000               0.000000000               0.000000000               0.000000000               0.000432092               0.002219571               0.000785922              -0.000115412               0.000778320               0.000662908               0.000000000               0.000000000               0.000000000               0.000000000               0.000388466               0.002431265               0.000670565              -0.000158234               0.000863158               0.000704924               0.000000000               0.000000000               0.000000000               0.000000000               0.000349682               0.002571401               0.000572942              -0.000190294               0.000920557               0.000730262               0.000000000               0.000000000               0.000000000               0.000000000               0.000311672               0.002675921               0.000498247              -0.000217613               0.000964502               0.000746890               0.000000000               0.000000000               0.000000000               0.000000000               0.000279169               0.002764757               0.000439341              -0.000240906               0.001001879               0.000760972               0.000000000               0.000000000               0.000000000               0.000000000               0.000255947               0.002844365               0.000386307              -0.000259565               0.001034634               0.000775069               0.000000000               0.000000000               0.000000000               0.000000000               0.000240886               0.002916592               0.000331756              -0.000274241               0.001063601               0.000789360               0.000000000               0.000000000               0.000000000               0.000000000               0.000222046               0.002974030               0.000278315              -0.000288486               0.001087496               0.000799009               0.000000000               0.000000000               0.000000000               0.000000000               0.000196070               0.003011514               0.000229046              -0.000302912               0.001104799               0.000801886               0.000000000               0.000000000               0.000000000               0.000000000               0.000164040               0.003033135               0.000185060              -0.000317626               0.001116910               0.000799284               0.000000000               0.000000000               0.000000000               0.000000000               0.000123925               0.003043319               0.000140212              -0.000333942               0.001125743               0.000791801               0.000000000               0.000000000               0.000000000               0.000000000               0.000076166               0.003052624               0.000092541              -0.000353015               0.001135203               0.000782188               0.000000000               0.000000000               0.000000000               0.000000000               0.000018403               0.003060857               0.000044925              -0.000375705               0.001145511               0.000769805               0.000000000               0.000000000               0.000000000               0.000000000              -0.000029999               0.003052317               0.000015138              -0.000392788               0.001148358               0.000755570               0.000000000               0.000000000               0.000000000               0.000000000               0.000597066               0.000621596               0.000587044               0.000146198               0.000158463               0.000304662               0.000000000               0.000000000               0.000000000               0.000000000               0.000644228               0.001013271               0.000742641               0.000114925               0.000299445               0.000414370               0.000000000               0.000000000               0.000000000               0.000000000               0.000583015               0.001520802               0.000832759               0.000028529               0.000497419               0.000525948               0.000000000               0.000000000               0.000000000               0.000000000               0.000534751               0.001879369               0.000774637              -0.000034390               0.000637913               0.000603523               0.000000000               0.000000000               0.000000000               0.000000000               0.000493767               0.002142458               0.000684220              -0.000082645               0.000741694               0.000659048               0.000000000               0.000000000               0.000000000               0.000000000               0.000454557               0.002332872               0.000598423              -0.000121150               0.000818000               0.000696849               0.000000000               0.000000000               0.000000000               0.000000000               0.000408672               0.002475688               0.000528455              -0.000156209               0.000877291               0.000721082               0.000000000               0.000000000               0.000000000               0.000000000               0.000367417               0.002598406               0.000472626              -0.000187019               0.000928466               0.000741447               0.000000000               0.000000000               0.000000000               0.000000000               0.000334818               0.002712924               0.000421286              -0.000213558               0.000975485               0.000761927               0.000000000               0.000000000               0.000000000               0.000000000               0.000311669               0.002816193               0.000367426              -0.000235148               0.001017104               0.000781956               0.000000000               0.000000000               0.000000000               0.000000000               0.000289845               0.002896407               0.000312927              -0.000253359               0.001049912               0.000796554               0.000000000               0.000000000               0.000000000               0.000000000               0.000263040               0.002952162               0.000264633              -0.000270380               0.001074171               0.000803791               0.000000000               0.000000000               0.000000000               0.000000000               0.000230650               0.002989476               0.000220590              -0.000287190               0.001092212               0.000805022               0.000000000               0.000000000               0.000000000               0.000000000               0.000192419               0.003013173               0.000175036              -0.000304489               0.001105877               0.000801388               0.000000000               0.000000000               0.000000000               0.000000000               0.000148368               0.003030154               0.000125024              -0.000323131               0.001117751               0.000794621               0.000000000               0.000000000               0.000000000               0.000000000               0.000093182               0.003046912               0.000066962              -0.000345920               0.001130934               0.000785014               0.000000000               0.000000000               0.000000000               0.000000000               0.000044422               0.003045903               0.000029901              -0.000364079               0.001136650               0.000772572               0.000000000               0.000000000               0.000000000               0.000000000               0.000373729               0.000360802               0.000394797               0.000095047               0.000088583               0.000183630               0.000000000               0.000000000               0.000000000               0.000000000               0.000578525               0.000708623               0.000573583               0.000128367               0.000193416               0.000321783               0.000000000               0.000000000               0.000000000               0.000000000               0.000647716               0.001167645               0.000702539               0.000096936               0.000356899               0.000453835               0.000000000               0.000000000               0.000000000               0.000000000               0.000644466               0.001538878               0.000683291               0.000049314               0.000496516               0.000545830               0.000000000               0.000000000               0.000000000               0.000000000               0.000613750               0.001835172               0.000620896               0.000000759               0.000611465               0.000612224               0.000000000               0.000000000               0.000000000               0.000000000               0.000573435               0.002063578               0.000553154              -0.000042910               0.000702156               0.000659246               0.000000000               0.000000000               0.000000000               0.000000000               0.000527072               0.002243094               0.000495520              -0.000082735               0.000775269               0.000692534               0.000000000               0.000000000               0.000000000               0.000000000               0.000479293               0.002401176               0.000448911              -0.000120412               0.000840521               0.000720109               0.000000000               0.000000000               0.000000000               0.000000000               0.000435852               0.002547715               0.000404458              -0.000155020               0.000900903               0.000745883               0.000000000               0.000000000               0.000000000               0.000000000               0.000403244               0.002678160               0.000358128              -0.000183553               0.000953896               0.000770342               0.000000000               0.000000000               0.000000000               0.000000000               0.000378930               0.002784140               0.000309253              -0.000205918               0.000996677               0.000790758               0.000000000               0.000000000               0.000000000               0.000000000               0.000350322               0.002867101               0.000262196              -0.000227016               0.001031363               0.000804347               0.000000000               0.000000000               0.000000000               0.000000000               0.000316266               0.002931089               0.000221683              -0.000247786               0.001059615               0.000811829               0.000000000               0.000000000               0.000000000               0.000000000               0.000285320               0.002979215               0.000183656              -0.000265406               0.001081531               0.000816124               0.000000000               0.000000000               0.000000000               0.000000000               0.000254401               0.003012399               0.000136892              -0.000281149               0.001097839               0.000816690               0.000000000               0.000000000               0.000000000               0.000000000               0.000215557               0.003038612               0.000074842              -0.000298992               0.001112525               0.000813533               0.000000000               0.000000000               0.000000000               0.000000000               0.000180472               0.003044625               0.000036176              -0.000312900               0.001119165               0.000806265               0.000000000               0.000000000               0.000000000               0.000000000               0.000177677               0.000186500               0.000233678               0.000043316               0.000047727               0.000091043               0.000000000               0.000000000               0.000000000               0.000000000               0.000512993               0.000477995               0.000388261               0.000132622               0.000115123               0.000247744               0.000000000               0.000000000               0.000000000               0.000000000               0.000698345               0.000876221               0.000510029               0.000152350               0.000241287               0.000393637               0.000000000               0.000000000               0.000000000               0.000000000               0.000740003               0.001241130               0.000511435               0.000122359               0.000372920               0.000495278               0.000000000               0.000000000               0.000000000               0.000000000               0.000725715               0.001553627               0.000473762               0.000077939               0.000491891               0.000569830               0.000000000               0.000000000               0.000000000               0.000000000               0.000689473               0.001811522               0.000428901               0.000032112               0.000593131               0.000625242               0.000000000               0.000000000               0.000000000               0.000000000               0.000645955               0.002026885               0.000389722              -0.000011128               0.000679331               0.000668203               0.000000000               0.000000000               0.000000000               0.000000000               0.000593345               0.002212776               0.000354999              -0.000054093               0.000755615               0.000701523               0.000000000               0.000000000               0.000000000               0.000000000               0.000538024               0.002378087               0.000323553              -0.000095502               0.000824522               0.000729020               0.000000000               0.000000000               0.000000000               0.000000000               0.000494362               0.002529219               0.000292752              -0.000130766               0.000886653               0.000755887               0.000000000               0.000000000               0.000000000               0.000000000               0.000460239               0.002663744               0.000253130              -0.000160378               0.000941365               0.000780987               0.000000000               0.000000000               0.000000000               0.000000000               0.000428570               0.002779745               0.000211447              -0.000186754               0.000988824               0.000802070               0.000000000               0.000000000               0.000000000               0.000000000               0.000400919               0.002874291               0.000182062              -0.000208941               0.001027734               0.000818793               0.000000000               0.000000000               0.000000000               0.000000000               0.000377178               0.002946231               0.000157385              -0.000226836               0.001057679               0.000830843               0.000000000               0.000000000               0.000000000               0.000000000               0.000359161               0.003001836               0.000120380              -0.000240544               0.001080783               0.000840240               0.000000000               0.000000000               0.000000000               0.000000000               0.000347597               0.003041143               0.000065692              -0.000249793               0.001096968               0.000847175               0.000000000               0.000000000               0.000000000               0.000000000               0.000341154               0.003053824               0.000033156              -0.000253795               0.001102529               0.000848735               0.000000000               0.000000000               0.000000000               0.000000000               0.000045655               0.000090584               0.000105859               0.000005797               0.000028262               0.000034059               0.000000000               0.000000000               0.000000000               0.000000000               0.000468955               0.000337384               0.000195271               0.000133684               0.000067899               0.000201583               0.000000000               0.000000000               0.000000000               0.000000000               0.000732264               0.000685663               0.000268509               0.000188889               0.000165589               0.000354478               0.000000000               0.000000000               0.000000000               0.000000000               0.000805774               0.001036654               0.000273644               0.000172582               0.000288021               0.000460603               0.000000000               0.000000000               0.000000000               0.000000000               0.000808677               0.001354424               0.000256191               0.000133950               0.000406820               0.000540770               0.000000000               0.000000000               0.000000000               0.000000000               0.000781116               0.001636328               0.000235788               0.000088377               0.000515978               0.000604355               0.000000000               0.000000000               0.000000000               0.000000000               0.000736426               0.001876190               0.000217078               0.000041636               0.000611512               0.000653148               0.000000000               0.000000000               0.000000000               0.000000000               0.000679766               0.002074122               0.000196983              -0.000004353               0.000692818               0.000688465               0.000000000               0.000000000               0.000000000               0.000000000               0.000619770               0.002248545               0.000181310              -0.000048654               0.000765726               0.000717071               0.000000000               0.000000000               0.000000000               0.000000000               0.000563262               0.002416482               0.000166756              -0.000090837               0.000835765               0.000744928               0.000000000               0.000000000               0.000000000               0.000000000               0.000517619               0.002577473               0.000143016              -0.000128077               0.000901841               0.000773765               0.000000000               0.000000000               0.000000000               0.000000000               0.000488184               0.002719030               0.000119730              -0.000156809               0.000958604               0.000801795               0.000000000               0.000000000               0.000000000               0.000000000               0.000468959               0.002834374               0.000105120              -0.000178437               0.001004261               0.000825824               0.000000000               0.000000000               0.000000000               0.000000000               0.000452386               0.002923417               0.000091898              -0.000195782               0.001039723               0.000843941               0.000000000               0.000000000               0.000000000               0.000000000               0.000443401               0.002991057               0.000071711              -0.000207606               0.001066211               0.000858605               0.000000000               0.000000000               0.000000000               0.000000000               0.000451675               0.003037739               0.000041169              -0.000210339               0.001082682               0.000872344               0.000000000               0.000000000               0.000000000               0.000000000               0.000467868               0.003056700               0.000023500              -0.000206636               0.001087769               0.000881132               0.000000000               0.000000000               0.000000000               0.000000000               0.000000000               0.000000000               0.000000000               0.000000000               0.000000000               0.000000000               0.000000000               0.000000000               0.000000000               0.000000000               0.000000000               0.000000000               0.000000000               0.000000000               0.000000000               0.000000000               0.000000000               0.000000000               0.000000000               0.000000000               0.000000000               0.000000000               0.000000000               0.000000000               0.000000000               0.000000000               0.000000000               0.000000000               0.000000000               0.000000000               0.000000000               0.000000000               0.000000000               0.000000000               0.000000000               0.000000000               0.000000000               0.000000000               0.000000000               0.000000000               0.000000000               0.000000000               0.000000000               0.000000000               0.000000000               0.000000000               0.000000000               0.000000000               0.000000000               0.000000000               0.000000000               0.000000000               0.000000000               0.000000000               0.000000000               0.000000000               0.000000000               0.000000000               0.000000000               0.000000000               0.000000000               0.000000000               0.000000000               0.000000000               0.000000000               0.000000000               0.000000000               0.000000000               0.000000000               0.000000000               0.000000000               0.000000000               0.000000000               0.000000000               0.000000000               0.000000000               0.000000000               0.000000000               0.000000000               0.000000000               0.000000000               0.000000000               0.000000000               0.000000000               0.000000000               0.000000000               0.000000000               0.000000000               0.000000000               0.000000000               0.000000000               0.000000000               0.000000000               0.000000000               0.000000000               0.000000000               0.000000000               0.000000000               0.000000000               0.000000000               0.000000000               0.000000000               0.000000000               0.000000000               0.000000000               0.000000000               0.000000000               0.000000000               0.000000000               0.000000000               0.000000000               0.000000000               0.000000000               0.000000000               0.000000000               0.000000000               0.000000000               0.000000000               0.000000000               0.000000000               0.000000000               0.000000000               0.000000000               0.000000000               0.000000000               0.000000000               0.000000000               0.000000000               0.000000000               0.000000000               0.000000000               0.000000000               0.000000000               0.000000000               0.000000000               0.000000000               0.000000000               0.000000000               0.000000000               0.000000000               0.000000000               0.000000000               0.000000000               0.000000000               0.000000000               0.000000000               0.000000000               0.000000000               0.000000000               0.000000000               0.000000000               0.000000000               0.000000000               0.000000000               0.000000000               0.000000000               0.000000000               0.000000000               0.000000000               0.000000000               0.000000000               0.000000000               0.000000000               0.000000000               0.000000000               0.000000000               0.000000000               0.000000000               0.000000000               0.000000000 </DataArray>
</PointData>
</Piece>
</UnstructuredGrid> </VTKFile>
