<?xml version="1.0"?>
<VTKFile type="UnstructuredGrid" version="0.1">
<UnstructuredGrid>
<Piece NumberOfPoints="      1156" NumberOfCells="      1024">
<Points>
<DataArray type="Float64"                                    Name="coordinates"                                                      NumberOfComponents=" 3" format="ascii">
              0.133000000               0.000000000               0.000000000               0.155937500               0.000000000               0.000000000               0.178875000               0.000000000               0.000000000               0.201812500               0.000000000               0.000000000               0.224750000               0.000000000               0.000000000               0.247687500               0.000000000               0.000000000               0.270625000               0.000000000               0.000000000               0.293562500               0.000000000               0.000000000               0.316500000               0.000000000               0.000000000               0.339437500               0.000000000               0.000000000               0.362375000               0.000000000               0.000000000               0.385312500               0.000000000               0.000000000               0.408250000               0.000000000               0.000000000               0.431187500               0.000000000               0.000000000               0.454125000               0.000000000               0.000000000               0.477062500               0.000000000               0.000000000               0.500000000               0.000000000               0.000000000               0.132359569               0.013036280               0.000000000               0.155337096               0.016127762               0.000000000               0.178314623               0.019219245               0.000000000               0.201292150               0.022310727               0.000000000               0.224269676               0.025402210               0.000000000               0.247247203               0.028493692               0.000000000               0.270224730               0.031585175               0.000000000               0.293202257               0.034676657               0.000000000               0.316179784               0.037768140               0.000000000               0.339157311               0.040859622               0.000000000               0.362134838               0.043951105               0.000000000               0.385112365               0.047042587               0.000000000               0.408089892               0.050134070               0.000000000               0.431067419               0.053225552               0.000000000               0.454044946               0.056317035               0.000000000               0.477022473               0.059408517               0.000000000               0.500000000               0.062500000               0.000000000               0.130444442               0.025947013               0.000000000               0.153541665               0.032137825               0.000000000               0.176638887               0.038328636               0.000000000               0.199736109               0.044519448               0.000000000               0.222833332               0.050710260               0.000000000               0.245930554               0.056901071               0.000000000               0.269027776               0.063091883               0.000000000               0.292124999               0.069282695               0.000000000               0.315222221               0.075473506               0.000000000               0.338319444               0.081664318               0.000000000               0.361416666               0.087855130               0.000000000               0.384513888               0.094045942               0.000000000               0.407611111               0.100236753               0.000000000               0.430708333               0.106427565               0.000000000               0.453805555               0.112618377               0.000000000               0.476902778               0.118809188               0.000000000               0.500000000               0.125000000               0.000000000               0.127273065               0.038607862               0.000000000               0.150568498               0.047913621               0.000000000               0.173863932               0.057219379               0.000000000               0.197159365               0.066525138               0.000000000               0.220454798               0.075830897               0.000000000               0.243750232               0.085136655               0.000000000               0.267045665               0.094442414               0.000000000               0.290341099               0.103748172               0.000000000               0.313636532               0.113053931               0.000000000               0.336931966               0.122359690               0.000000000               0.360227399               0.131665448               0.000000000               0.383522833               0.140971207               0.000000000               0.406818266               0.150276966               0.000000000               0.430113700               0.159582724               0.000000000               0.453409133               0.168888483               0.000000000               0.476704567               0.178194241               0.000000000               0.500000000               0.187500000               0.000000000               0.122875978               0.050896897               0.000000000               0.146446229               0.063340840               0.000000000               0.170016481               0.075784784               0.000000000               0.193586732               0.088228728               0.000000000               0.217156983               0.100672672               0.000000000               0.240727235               0.113116616               0.000000000               0.264297486               0.125560560               0.000000000               0.287867738               0.138004504               0.000000000               0.311437989               0.150448448               0.000000000               0.335008240               0.162892392               0.000000000               0.358578492               0.175336336               0.000000000               0.382148743               0.187780280               0.000000000               0.405718994               0.200224224               0.000000000               0.429289246               0.212668168               0.000000000               0.452859497               0.225112112               0.000000000               0.476429749               0.237556056               0.000000000               0.500000000               0.250000000               0.000000000               0.117295528               0.062695766               0.000000000               0.141214558               0.078308531               0.000000000               0.165133587               0.093921295               0.000000000               0.189052617               0.109534060               0.000000000               0.212971646               0.125146824               0.000000000               0.236890676               0.140759589               0.000000000               0.260809705               0.156372354               0.000000000               0.284728735               0.171985118               0.000000000               0.308647764               0.187597883               0.000000000               0.332566794               0.203210648               0.000000000               0.356485823               0.218823412               0.000000000               0.380404853               0.234436177               0.000000000               0.404323882               0.250048941               0.000000000               0.428242912               0.265661706               0.000000000               0.452161941               0.281274471               0.000000000               0.476080971               0.296887235               0.000000000               0.500000000               0.312500000               0.000000000               0.110585458               0.073890841               0.000000000               0.134923867               0.092710163               0.000000000               0.159262276               0.111529486               0.000000000               0.183600685               0.130348808               0.000000000               0.207939094               0.149168131               0.000000000               0.232277503               0.167987453               0.000000000               0.256615912               0.186806776               0.000000000               0.280954320               0.205626098               0.000000000               0.305292729               0.224445420               0.000000000               0.329631138               0.243264743               0.000000000               0.353969547               0.262084065               0.000000000               0.378307956               0.280903388               0.000000000               0.402646365               0.299722710               0.000000000               0.426984773               0.318542033               0.000000000               0.451323182               0.337361355               0.000000000               0.475661591               0.356180678               0.000000000               0.500000000               0.375000000               0.000000000               0.102810390               0.084374307               0.000000000               0.127634741               0.106444663               0.000000000               0.152459092               0.128515018               0.000000000               0.177283442               0.150585374               0.000000000               0.202107793               0.172655730               0.000000000               0.226932143               0.194726086               0.000000000               0.251756494               0.216796442               0.000000000               0.276580845               0.238866798               0.000000000               0.301405195               0.260937153               0.000000000               0.326229546               0.283007509               0.000000000               0.351053896               0.305077865               0.000000000               0.375878247               0.327148221               0.000000000               0.400702598               0.349218577               0.000000000               0.425526948               0.371288933               0.000000000               0.450351299               0.393359288               0.000000000               0.475175649               0.415429644               0.000000000               0.500000000               0.437500000               0.000000000               0.094045202               0.094045202               0.000000000               0.119417377               0.119417377               0.000000000               0.144789552               0.144789552               0.000000000               0.170161727               0.170161727               0.000000000               0.195533901               0.195533901               0.000000000               0.220906076               0.220906076               0.000000000               0.246278251               0.246278251               0.000000000               0.271650426               0.271650426               0.000000000               0.297022601               0.297022601               0.000000000               0.322394776               0.322394776               0.000000000               0.347766951               0.347766951               0.000000000               0.373139126               0.373139126               0.000000000               0.398511300               0.398511300               0.000000000               0.423883475               0.423883475               0.000000000               0.449255650               0.449255650               0.000000000               0.474627825               0.474627825               0.000000000               0.500000000               0.500000000               0.000000000               0.084374307               0.102810390               0.000000000               0.106444663               0.127634741               0.000000000               0.128515018               0.152459092               0.000000000               0.150585374               0.177283442               0.000000000               0.172655730               0.202107793               0.000000000               0.194726086               0.226932143               0.000000000               0.216796442               0.251756494               0.000000000               0.238866798               0.276580845               0.000000000               0.260937153               0.301405195               0.000000000               0.283007509               0.326229546               0.000000000               0.305077865               0.351053896               0.000000000               0.327148221               0.375878247               0.000000000               0.349218577               0.400702598               0.000000000               0.371288933               0.425526948               0.000000000               0.393359288               0.450351299               0.000000000               0.415429644               0.475175649               0.000000000               0.437500000               0.500000000               0.000000000               0.073890841               0.110585458               0.000000000               0.092710163               0.134923867               0.000000000               0.111529486               0.159262276               0.000000000               0.130348808               0.183600685               0.000000000               0.149168131               0.207939094               0.000000000               0.167987453               0.232277503               0.000000000               0.186806776               0.256615912               0.000000000               0.205626098               0.280954320               0.000000000               0.224445420               0.305292729               0.000000000               0.243264743               0.329631138               0.000000000               0.262084065               0.353969547               0.000000000               0.280903388               0.378307956               0.000000000               0.299722710               0.402646365               0.000000000               0.318542033               0.426984773               0.000000000               0.337361355               0.451323182               0.000000000               0.356180678               0.475661591               0.000000000               0.375000000               0.500000000               0.000000000               0.062695766               0.117295528               0.000000000               0.078308531               0.141214558               0.000000000               0.093921295               0.165133587               0.000000000               0.109534060               0.189052617               0.000000000               0.125146824               0.212971646               0.000000000               0.140759589               0.236890676               0.000000000               0.156372354               0.260809705               0.000000000               0.171985118               0.284728735               0.000000000               0.187597883               0.308647764               0.000000000               0.203210648               0.332566794               0.000000000               0.218823412               0.356485823               0.000000000               0.234436177               0.380404853               0.000000000               0.250048941               0.404323882               0.000000000               0.265661706               0.428242912               0.000000000               0.281274471               0.452161941               0.000000000               0.296887235               0.476080971               0.000000000               0.312500000               0.500000000               0.000000000               0.050896897               0.122875978               0.000000000               0.063340840               0.146446229               0.000000000               0.075784784               0.170016481               0.000000000               0.088228728               0.193586732               0.000000000               0.100672672               0.217156983               0.000000000               0.113116616               0.240727235               0.000000000               0.125560560               0.264297486               0.000000000               0.138004504               0.287867738               0.000000000               0.150448448               0.311437989               0.000000000               0.162892392               0.335008240               0.000000000               0.175336336               0.358578492               0.000000000               0.187780280               0.382148743               0.000000000               0.200224224               0.405718994               0.000000000               0.212668168               0.429289246               0.000000000               0.225112112               0.452859497               0.000000000               0.237556056               0.476429749               0.000000000               0.250000000               0.500000000               0.000000000               0.038607862               0.127273065               0.000000000               0.047913621               0.150568498               0.000000000               0.057219379               0.173863932               0.000000000               0.066525138               0.197159365               0.000000000               0.075830897               0.220454798               0.000000000               0.085136655               0.243750232               0.000000000               0.094442414               0.267045665               0.000000000               0.103748172               0.290341099               0.000000000               0.113053931               0.313636532               0.000000000               0.122359690               0.336931966               0.000000000               0.131665448               0.360227399               0.000000000               0.140971207               0.383522833               0.000000000               0.150276966               0.406818266               0.000000000               0.159582724               0.430113700               0.000000000               0.168888483               0.453409133               0.000000000               0.178194241               0.476704567               0.000000000               0.187500000               0.500000000               0.000000000               0.025947013               0.130444442               0.000000000               0.032137825               0.153541665               0.000000000               0.038328636               0.176638887               0.000000000               0.044519448               0.199736109               0.000000000               0.050710260               0.222833332               0.000000000               0.056901071               0.245930554               0.000000000               0.063091883               0.269027776               0.000000000               0.069282695               0.292124999               0.000000000               0.075473506               0.315222221               0.000000000               0.081664318               0.338319444               0.000000000               0.087855130               0.361416666               0.000000000               0.094045942               0.384513888               0.000000000               0.100236753               0.407611111               0.000000000               0.106427565               0.430708333               0.000000000               0.112618377               0.453805555               0.000000000               0.118809188               0.476902778               0.000000000               0.125000000               0.500000000               0.000000000               0.013036280               0.132359569               0.000000000               0.016127762               0.155337096               0.000000000               0.019219245               0.178314623               0.000000000               0.022310727               0.201292150               0.000000000               0.025402210               0.224269676               0.000000000               0.028493692               0.247247203               0.000000000               0.031585175               0.270224730               0.000000000               0.034676657               0.293202257               0.000000000               0.037768140               0.316179784               0.000000000               0.040859622               0.339157311               0.000000000               0.043951105               0.362134838               0.000000000               0.047042587               0.385112365               0.000000000               0.050134070               0.408089892               0.000000000               0.053225552               0.431067419               0.000000000               0.056317035               0.454044946               0.000000000               0.059408517               0.477022473               0.000000000               0.062500000               0.500000000               0.000000000               0.000000000               0.133000000               0.000000000               0.000000000               0.155937500               0.000000000               0.000000000               0.178875000               0.000000000               0.000000000               0.201812500               0.000000000               0.000000000               0.224750000               0.000000000               0.000000000               0.247687500               0.000000000               0.000000000               0.270625000               0.000000000               0.000000000               0.293562500               0.000000000               0.000000000               0.316500000               0.000000000               0.000000000               0.339437500               0.000000000               0.000000000               0.362375000               0.000000000               0.000000000               0.385312500               0.000000000               0.000000000               0.408250000               0.000000000               0.000000000               0.431187500               0.000000000               0.000000000               0.454125000               0.000000000               0.000000000               0.477062500               0.000000000               0.000000000               0.500000000               0.000000000               0.133000000               0.000000000               0.000000000               0.155937500               0.000000000               0.000000000               0.178875000               0.000000000               0.000000000               0.201812500               0.000000000               0.000000000               0.224750000               0.000000000               0.000000000               0.247687500               0.000000000               0.000000000               0.270625000               0.000000000               0.000000000               0.293562500               0.000000000               0.000000000               0.316500000               0.000000000               0.000000000               0.339437500               0.000000000               0.000000000               0.362375000               0.000000000               0.000000000               0.385312500               0.000000000               0.000000000               0.408250000               0.000000000               0.000000000               0.431187500               0.000000000               0.000000000               0.454125000               0.000000000               0.000000000               0.477062500               0.000000000               0.000000000               0.500000000               0.000000000               0.000000000               0.132359569              -0.013036280               0.000000000               0.155337096              -0.016127762               0.000000000               0.178314623              -0.019219245               0.000000000               0.201292150              -0.022310727               0.000000000               0.224269676              -0.025402210               0.000000000               0.247247203              -0.028493692               0.000000000               0.270224730              -0.031585175               0.000000000               0.293202257              -0.034676657               0.000000000               0.316179784              -0.037768140               0.000000000               0.339157311              -0.040859622               0.000000000               0.362134838              -0.043951105               0.000000000               0.385112365              -0.047042587               0.000000000               0.408089892              -0.050134070               0.000000000               0.431067419              -0.053225552               0.000000000               0.454044946              -0.056317035               0.000000000               0.477022473              -0.059408517               0.000000000               0.500000000              -0.062500000               0.000000000               0.130444442              -0.025947013               0.000000000               0.153541665              -0.032137825               0.000000000               0.176638887              -0.038328636               0.000000000               0.199736109              -0.044519448               0.000000000               0.222833332              -0.050710260               0.000000000               0.245930554              -0.056901071               0.000000000               0.269027776              -0.063091883               0.000000000               0.292124999              -0.069282695               0.000000000               0.315222221              -0.075473506               0.000000000               0.338319444              -0.081664318               0.000000000               0.361416666              -0.087855130               0.000000000               0.384513888              -0.094045942               0.000000000               0.407611111              -0.100236753               0.000000000               0.430708333              -0.106427565               0.000000000               0.453805555              -0.112618377               0.000000000               0.476902778              -0.118809188               0.000000000               0.500000000              -0.125000000               0.000000000               0.127273065              -0.038607862               0.000000000               0.150568498              -0.047913621               0.000000000               0.173863932              -0.057219379               0.000000000               0.197159365              -0.066525138               0.000000000               0.220454798              -0.075830897               0.000000000               0.243750232              -0.085136655               0.000000000               0.267045665              -0.094442414               0.000000000               0.290341099              -0.103748172               0.000000000               0.313636532              -0.113053931               0.000000000               0.336931966              -0.122359690               0.000000000               0.360227399              -0.131665448               0.000000000               0.383522833              -0.140971207               0.000000000               0.406818266              -0.150276966               0.000000000               0.430113700              -0.159582724               0.000000000               0.453409133              -0.168888483               0.000000000               0.476704567              -0.178194241               0.000000000               0.500000000              -0.187500000               0.000000000               0.122875978              -0.050896897               0.000000000               0.146446229              -0.063340840               0.000000000               0.170016481              -0.075784784               0.000000000               0.193586732              -0.088228728               0.000000000               0.217156983              -0.100672672               0.000000000               0.240727235              -0.113116616               0.000000000               0.264297486              -0.125560560               0.000000000               0.287867738              -0.138004504               0.000000000               0.311437989              -0.150448448               0.000000000               0.335008240              -0.162892392               0.000000000               0.358578492              -0.175336336               0.000000000               0.382148743              -0.187780280               0.000000000               0.405718994              -0.200224224               0.000000000               0.429289246              -0.212668168               0.000000000               0.452859497              -0.225112112               0.000000000               0.476429749              -0.237556056               0.000000000               0.500000000              -0.250000000               0.000000000               0.117295528              -0.062695766               0.000000000               0.141214558              -0.078308531               0.000000000               0.165133587              -0.093921295               0.000000000               0.189052617              -0.109534060               0.000000000               0.212971646              -0.125146824               0.000000000               0.236890676              -0.140759589               0.000000000               0.260809705              -0.156372354               0.000000000               0.284728735              -0.171985118               0.000000000               0.308647764              -0.187597883               0.000000000               0.332566794              -0.203210648               0.000000000               0.356485823              -0.218823412               0.000000000               0.380404853              -0.234436177               0.000000000               0.404323882              -0.250048941               0.000000000               0.428242912              -0.265661706               0.000000000               0.452161941              -0.281274471               0.000000000               0.476080971              -0.296887235               0.000000000               0.500000000              -0.312500000               0.000000000               0.110585458              -0.073890841               0.000000000               0.134923867              -0.092710163               0.000000000               0.159262276              -0.111529486               0.000000000               0.183600685              -0.130348808               0.000000000               0.207939094              -0.149168131               0.000000000               0.232277503              -0.167987453               0.000000000               0.256615912              -0.186806776               0.000000000               0.280954320              -0.205626098               0.000000000               0.305292729              -0.224445420               0.000000000               0.329631138              -0.243264743               0.000000000               0.353969547              -0.262084065               0.000000000               0.378307956              -0.280903388               0.000000000               0.402646365              -0.299722710               0.000000000               0.426984773              -0.318542033               0.000000000               0.451323182              -0.337361355               0.000000000               0.475661591              -0.356180678               0.000000000               0.500000000              -0.375000000               0.000000000               0.102810390              -0.084374307               0.000000000               0.127634741              -0.106444663               0.000000000               0.152459092              -0.128515018               0.000000000               0.177283442              -0.150585374               0.000000000               0.202107793              -0.172655730               0.000000000               0.226932143              -0.194726086               0.000000000               0.251756494              -0.216796442               0.000000000               0.276580845              -0.238866798               0.000000000               0.301405195              -0.260937153               0.000000000               0.326229546              -0.283007509               0.000000000               0.351053896              -0.305077865               0.000000000               0.375878247              -0.327148221               0.000000000               0.400702598              -0.349218577               0.000000000               0.425526948              -0.371288933               0.000000000               0.450351299              -0.393359288               0.000000000               0.475175649              -0.415429644               0.000000000               0.500000000              -0.437500000               0.000000000               0.094045202              -0.094045202               0.000000000               0.119417377              -0.119417377               0.000000000               0.144789552              -0.144789552               0.000000000               0.170161727              -0.170161727               0.000000000               0.195533901              -0.195533901               0.000000000               0.220906076              -0.220906076               0.000000000               0.246278251              -0.246278251               0.000000000               0.271650426              -0.271650426               0.000000000               0.297022601              -0.297022601               0.000000000               0.322394776              -0.322394776               0.000000000               0.347766951              -0.347766951               0.000000000               0.373139126              -0.373139126               0.000000000               0.398511300              -0.398511300               0.000000000               0.423883475              -0.423883475               0.000000000               0.449255650              -0.449255650               0.000000000               0.474627825              -0.474627825               0.000000000               0.500000000              -0.500000000               0.000000000               0.084374307              -0.102810390               0.000000000               0.106444663              -0.127634741               0.000000000               0.128515018              -0.152459092               0.000000000               0.150585374              -0.177283442               0.000000000               0.172655730              -0.202107793               0.000000000               0.194726086              -0.226932143               0.000000000               0.216796442              -0.251756494               0.000000000               0.238866798              -0.276580845               0.000000000               0.260937153              -0.301405195               0.000000000               0.283007509              -0.326229546               0.000000000               0.305077865              -0.351053896               0.000000000               0.327148221              -0.375878247               0.000000000               0.349218577              -0.400702598               0.000000000               0.371288933              -0.425526948               0.000000000               0.393359288              -0.450351299               0.000000000               0.415429644              -0.475175649               0.000000000               0.437500000              -0.500000000               0.000000000               0.073890841              -0.110585458               0.000000000               0.092710163              -0.134923867               0.000000000               0.111529486              -0.159262276               0.000000000               0.130348808              -0.183600685               0.000000000               0.149168131              -0.207939094               0.000000000               0.167987453              -0.232277503               0.000000000               0.186806776              -0.256615912               0.000000000               0.205626098              -0.280954320               0.000000000               0.224445420              -0.305292729               0.000000000               0.243264743              -0.329631138               0.000000000               0.262084065              -0.353969547               0.000000000               0.280903388              -0.378307956               0.000000000               0.299722710              -0.402646365               0.000000000               0.318542033              -0.426984773               0.000000000               0.337361355              -0.451323182               0.000000000               0.356180678              -0.475661591               0.000000000               0.375000000              -0.500000000               0.000000000               0.062695766              -0.117295528               0.000000000               0.078308531              -0.141214558               0.000000000               0.093921295              -0.165133587               0.000000000               0.109534060              -0.189052617               0.000000000               0.125146824              -0.212971646               0.000000000               0.140759589              -0.236890676               0.000000000               0.156372354              -0.260809705               0.000000000               0.171985118              -0.284728735               0.000000000               0.187597883              -0.308647764               0.000000000               0.203210648              -0.332566794               0.000000000               0.218823412              -0.356485823               0.000000000               0.234436177              -0.380404853               0.000000000               0.250048941              -0.404323882               0.000000000               0.265661706              -0.428242912               0.000000000               0.281274471              -0.452161941               0.000000000               0.296887235              -0.476080971               0.000000000               0.312500000              -0.500000000               0.000000000               0.050896897              -0.122875978               0.000000000               0.063340840              -0.146446229               0.000000000               0.075784784              -0.170016481               0.000000000               0.088228728              -0.193586732               0.000000000               0.100672672              -0.217156983               0.000000000               0.113116616              -0.240727235               0.000000000               0.125560560              -0.264297486               0.000000000               0.138004504              -0.287867738               0.000000000               0.150448448              -0.311437989               0.000000000               0.162892392              -0.335008240               0.000000000               0.175336336              -0.358578492               0.000000000               0.187780280              -0.382148743               0.000000000               0.200224224              -0.405718994               0.000000000               0.212668168              -0.429289246               0.000000000               0.225112112              -0.452859497               0.000000000               0.237556056              -0.476429749               0.000000000               0.250000000              -0.500000000               0.000000000               0.038607862              -0.127273065               0.000000000               0.047913621              -0.150568498               0.000000000               0.057219379              -0.173863932               0.000000000               0.066525138              -0.197159365               0.000000000               0.075830897              -0.220454798               0.000000000               0.085136655              -0.243750232               0.000000000               0.094442414              -0.267045665               0.000000000               0.103748172              -0.290341099               0.000000000               0.113053931              -0.313636532               0.000000000               0.122359690              -0.336931966               0.000000000               0.131665448              -0.360227399               0.000000000               0.140971207              -0.383522833               0.000000000               0.150276966              -0.406818266               0.000000000               0.159582724              -0.430113700               0.000000000               0.168888483              -0.453409133               0.000000000               0.178194241              -0.476704567               0.000000000               0.187500000              -0.500000000               0.000000000               0.025947013              -0.130444442               0.000000000               0.032137825              -0.153541665               0.000000000               0.038328636              -0.176638887               0.000000000               0.044519448              -0.199736109               0.000000000               0.050710260              -0.222833332               0.000000000               0.056901071              -0.245930554               0.000000000               0.063091883              -0.269027776               0.000000000               0.069282695              -0.292124999               0.000000000               0.075473506              -0.315222221               0.000000000               0.081664318              -0.338319444               0.000000000               0.087855130              -0.361416666               0.000000000               0.094045942              -0.384513888               0.000000000               0.100236753              -0.407611111               0.000000000               0.106427565              -0.430708333               0.000000000               0.112618377              -0.453805555               0.000000000               0.118809188              -0.476902778               0.000000000               0.125000000              -0.500000000               0.000000000               0.013036280              -0.132359569               0.000000000               0.016127762              -0.155337096               0.000000000               0.019219245              -0.178314623               0.000000000               0.022310727              -0.201292150               0.000000000               0.025402210              -0.224269676               0.000000000               0.028493692              -0.247247203               0.000000000               0.031585175              -0.270224730               0.000000000               0.034676657              -0.293202257               0.000000000               0.037768140              -0.316179784               0.000000000               0.040859622              -0.339157311               0.000000000               0.043951105              -0.362134838               0.000000000               0.047042587              -0.385112365               0.000000000               0.050134070              -0.408089892               0.000000000               0.053225552              -0.431067419               0.000000000               0.056317035              -0.454044946               0.000000000               0.059408517              -0.477022473               0.000000000               0.062500000              -0.500000000               0.000000000               0.000000000              -0.133000000               0.000000000               0.000000000              -0.155937500               0.000000000               0.000000000              -0.178875000               0.000000000               0.000000000              -0.201812500               0.000000000               0.000000000              -0.224750000               0.000000000               0.000000000              -0.247687500               0.000000000               0.000000000              -0.270625000               0.000000000               0.000000000              -0.293562500               0.000000000               0.000000000              -0.316500000               0.000000000               0.000000000              -0.339437500               0.000000000               0.000000000              -0.362375000               0.000000000               0.000000000              -0.385312500               0.000000000               0.000000000              -0.408250000               0.000000000               0.000000000              -0.431187500               0.000000000               0.000000000              -0.454125000               0.000000000               0.000000000              -0.477062500               0.000000000               0.000000000              -0.500000000               0.000000000              -0.133000000               0.000000000               0.000000000              -0.155937500               0.000000000               0.000000000              -0.178875000               0.000000000               0.000000000              -0.201812500               0.000000000               0.000000000              -0.224750000               0.000000000               0.000000000              -0.247687500               0.000000000               0.000000000              -0.270625000               0.000000000               0.000000000              -0.293562500               0.000000000               0.000000000              -0.316500000               0.000000000               0.000000000              -0.339437500               0.000000000               0.000000000              -0.362375000               0.000000000               0.000000000              -0.385312500               0.000000000               0.000000000              -0.408250000               0.000000000               0.000000000              -0.431187500               0.000000000               0.000000000              -0.454125000               0.000000000               0.000000000              -0.477062500               0.000000000               0.000000000              -0.500000000               0.000000000               0.000000000              -0.132359569              -0.013036280               0.000000000              -0.155337096              -0.016127762               0.000000000              -0.178314623              -0.019219245               0.000000000              -0.201292150              -0.022310727               0.000000000              -0.224269676              -0.025402210               0.000000000              -0.247247203              -0.028493692               0.000000000              -0.270224730              -0.031585175               0.000000000              -0.293202257              -0.034676657               0.000000000              -0.316179784              -0.037768140               0.000000000              -0.339157311              -0.040859622               0.000000000              -0.362134838              -0.043951105               0.000000000              -0.385112365              -0.047042587               0.000000000              -0.408089892              -0.050134070               0.000000000              -0.431067419              -0.053225552               0.000000000              -0.454044946              -0.056317035               0.000000000              -0.477022473              -0.059408517               0.000000000              -0.500000000              -0.062500000               0.000000000              -0.130444442              -0.025947013               0.000000000              -0.153541665              -0.032137825               0.000000000              -0.176638887              -0.038328636               0.000000000              -0.199736109              -0.044519448               0.000000000              -0.222833332              -0.050710260               0.000000000              -0.245930554              -0.056901071               0.000000000              -0.269027776              -0.063091883               0.000000000              -0.292124999              -0.069282695               0.000000000              -0.315222221              -0.075473506               0.000000000              -0.338319444              -0.081664318               0.000000000              -0.361416666              -0.087855130               0.000000000              -0.384513888              -0.094045942               0.000000000              -0.407611111              -0.100236753               0.000000000              -0.430708333              -0.106427565               0.000000000              -0.453805555              -0.112618377               0.000000000              -0.476902778              -0.118809188               0.000000000              -0.500000000              -0.125000000               0.000000000              -0.127273065              -0.038607862               0.000000000              -0.150568498              -0.047913621               0.000000000              -0.173863932              -0.057219379               0.000000000              -0.197159365              -0.066525138               0.000000000              -0.220454798              -0.075830897               0.000000000              -0.243750232              -0.085136655               0.000000000              -0.267045665              -0.094442414               0.000000000              -0.290341099              -0.103748172               0.000000000              -0.313636532              -0.113053931               0.000000000              -0.336931966              -0.122359690               0.000000000              -0.360227399              -0.131665448               0.000000000              -0.383522833              -0.140971207               0.000000000              -0.406818266              -0.150276966               0.000000000              -0.430113700              -0.159582724               0.000000000              -0.453409133              -0.168888483               0.000000000              -0.476704567              -0.178194241               0.000000000              -0.500000000              -0.187500000               0.000000000              -0.122875978              -0.050896897               0.000000000              -0.146446229              -0.063340840               0.000000000              -0.170016481              -0.075784784               0.000000000              -0.193586732              -0.088228728               0.000000000              -0.217156983              -0.100672672               0.000000000              -0.240727235              -0.113116616               0.000000000              -0.264297486              -0.125560560               0.000000000              -0.287867738              -0.138004504               0.000000000              -0.311437989              -0.150448448               0.000000000              -0.335008240              -0.162892392               0.000000000              -0.358578492              -0.175336336               0.000000000              -0.382148743              -0.187780280               0.000000000              -0.405718994              -0.200224224               0.000000000              -0.429289246              -0.212668168               0.000000000              -0.452859497              -0.225112112               0.000000000              -0.476429749              -0.237556056               0.000000000              -0.500000000              -0.250000000               0.000000000              -0.117295528              -0.062695766               0.000000000              -0.141214558              -0.078308531               0.000000000              -0.165133587              -0.093921295               0.000000000              -0.189052617              -0.109534060               0.000000000              -0.212971646              -0.125146824               0.000000000              -0.236890676              -0.140759589               0.000000000              -0.260809705              -0.156372354               0.000000000              -0.284728735              -0.171985118               0.000000000              -0.308647764              -0.187597883               0.000000000              -0.332566794              -0.203210648               0.000000000              -0.356485823              -0.218823412               0.000000000              -0.380404853              -0.234436177               0.000000000              -0.404323882              -0.250048941               0.000000000              -0.428242912              -0.265661706               0.000000000              -0.452161941              -0.281274471               0.000000000              -0.476080971              -0.296887235               0.000000000              -0.500000000              -0.312500000               0.000000000              -0.110585458              -0.073890841               0.000000000              -0.134923867              -0.092710163               0.000000000              -0.159262276              -0.111529486               0.000000000              -0.183600685              -0.130348808               0.000000000              -0.207939094              -0.149168131               0.000000000              -0.232277503              -0.167987453               0.000000000              -0.256615912              -0.186806776               0.000000000              -0.280954320              -0.205626098               0.000000000              -0.305292729              -0.224445420               0.000000000              -0.329631138              -0.243264743               0.000000000              -0.353969547              -0.262084065               0.000000000              -0.378307956              -0.280903388               0.000000000              -0.402646365              -0.299722710               0.000000000              -0.426984773              -0.318542033               0.000000000              -0.451323182              -0.337361355               0.000000000              -0.475661591              -0.356180678               0.000000000              -0.500000000              -0.375000000               0.000000000              -0.102810390              -0.084374307               0.000000000              -0.127634741              -0.106444663               0.000000000              -0.152459092              -0.128515018               0.000000000              -0.177283442              -0.150585374               0.000000000              -0.202107793              -0.172655730               0.000000000              -0.226932143              -0.194726086               0.000000000              -0.251756494              -0.216796442               0.000000000              -0.276580845              -0.238866798               0.000000000              -0.301405195              -0.260937153               0.000000000              -0.326229546              -0.283007509               0.000000000              -0.351053896              -0.305077865               0.000000000              -0.375878247              -0.327148221               0.000000000              -0.400702598              -0.349218577               0.000000000              -0.425526948              -0.371288933               0.000000000              -0.450351299              -0.393359288               0.000000000              -0.475175649              -0.415429644               0.000000000              -0.500000000              -0.437500000               0.000000000              -0.094045202              -0.094045202               0.000000000              -0.119417377              -0.119417377               0.000000000              -0.144789552              -0.144789552               0.000000000              -0.170161727              -0.170161727               0.000000000              -0.195533901              -0.195533901               0.000000000              -0.220906076              -0.220906076               0.000000000              -0.246278251              -0.246278251               0.000000000              -0.271650426              -0.271650426               0.000000000              -0.297022601              -0.297022601               0.000000000              -0.322394776              -0.322394776               0.000000000              -0.347766951              -0.347766951               0.000000000              -0.373139126              -0.373139126               0.000000000              -0.398511300              -0.398511300               0.000000000              -0.423883475              -0.423883475               0.000000000              -0.449255650              -0.449255650               0.000000000              -0.474627825              -0.474627825               0.000000000              -0.500000000              -0.500000000               0.000000000              -0.084374307              -0.102810390               0.000000000              -0.106444663              -0.127634741               0.000000000              -0.128515018              -0.152459092               0.000000000              -0.150585374              -0.177283442               0.000000000              -0.172655730              -0.202107793               0.000000000              -0.194726086              -0.226932143               0.000000000              -0.216796442              -0.251756494               0.000000000              -0.238866798              -0.276580845               0.000000000              -0.260937153              -0.301405195               0.000000000              -0.283007509              -0.326229546               0.000000000              -0.305077865              -0.351053896               0.000000000              -0.327148221              -0.375878247               0.000000000              -0.349218577              -0.400702598               0.000000000              -0.371288933              -0.425526948               0.000000000              -0.393359288              -0.450351299               0.000000000              -0.415429644              -0.475175649               0.000000000              -0.437500000              -0.500000000               0.000000000              -0.073890841              -0.110585458               0.000000000              -0.092710163              -0.134923867               0.000000000              -0.111529486              -0.159262276               0.000000000              -0.130348808              -0.183600685               0.000000000              -0.149168131              -0.207939094               0.000000000              -0.167987453              -0.232277503               0.000000000              -0.186806776              -0.256615912               0.000000000              -0.205626098              -0.280954320               0.000000000              -0.224445420              -0.305292729               0.000000000              -0.243264743              -0.329631138               0.000000000              -0.262084065              -0.353969547               0.000000000              -0.280903388              -0.378307956               0.000000000              -0.299722710              -0.402646365               0.000000000              -0.318542033              -0.426984773               0.000000000              -0.337361355              -0.451323182               0.000000000              -0.356180678              -0.475661591               0.000000000              -0.375000000              -0.500000000               0.000000000              -0.062695766              -0.117295528               0.000000000              -0.078308531              -0.141214558               0.000000000              -0.093921295              -0.165133587               0.000000000              -0.109534060              -0.189052617               0.000000000              -0.125146824              -0.212971646               0.000000000              -0.140759589              -0.236890676               0.000000000              -0.156372354              -0.260809705               0.000000000              -0.171985118              -0.284728735               0.000000000              -0.187597883              -0.308647764               0.000000000              -0.203210648              -0.332566794               0.000000000              -0.218823412              -0.356485823               0.000000000              -0.234436177              -0.380404853               0.000000000              -0.250048941              -0.404323882               0.000000000              -0.265661706              -0.428242912               0.000000000              -0.281274471              -0.452161941               0.000000000              -0.296887235              -0.476080971               0.000000000              -0.312500000              -0.500000000               0.000000000              -0.050896897              -0.122875978               0.000000000              -0.063340840              -0.146446229               0.000000000              -0.075784784              -0.170016481               0.000000000              -0.088228728              -0.193586732               0.000000000              -0.100672672              -0.217156983               0.000000000              -0.113116616              -0.240727235               0.000000000              -0.125560560              -0.264297486               0.000000000              -0.138004504              -0.287867738               0.000000000              -0.150448448              -0.311437989               0.000000000              -0.162892392              -0.335008240               0.000000000              -0.175336336              -0.358578492               0.000000000              -0.187780280              -0.382148743               0.000000000              -0.200224224              -0.405718994               0.000000000              -0.212668168              -0.429289246               0.000000000              -0.225112112              -0.452859497               0.000000000              -0.237556056              -0.476429749               0.000000000              -0.250000000              -0.500000000               0.000000000              -0.038607862              -0.127273065               0.000000000              -0.047913621              -0.150568498               0.000000000              -0.057219379              -0.173863932               0.000000000              -0.066525138              -0.197159365               0.000000000              -0.075830897              -0.220454798               0.000000000              -0.085136655              -0.243750232               0.000000000              -0.094442414              -0.267045665               0.000000000              -0.103748172              -0.290341099               0.000000000              -0.113053931              -0.313636532               0.000000000              -0.122359690              -0.336931966               0.000000000              -0.131665448              -0.360227399               0.000000000              -0.140971207              -0.383522833               0.000000000              -0.150276966              -0.406818266               0.000000000              -0.159582724              -0.430113700               0.000000000              -0.168888483              -0.453409133               0.000000000              -0.178194241              -0.476704567               0.000000000              -0.187500000              -0.500000000               0.000000000              -0.025947013              -0.130444442               0.000000000              -0.032137825              -0.153541665               0.000000000              -0.038328636              -0.176638887               0.000000000              -0.044519448              -0.199736109               0.000000000              -0.050710260              -0.222833332               0.000000000              -0.056901071              -0.245930554               0.000000000              -0.063091883              -0.269027776               0.000000000              -0.069282695              -0.292124999               0.000000000              -0.075473506              -0.315222221               0.000000000              -0.081664318              -0.338319444               0.000000000              -0.087855130              -0.361416666               0.000000000              -0.094045942              -0.384513888               0.000000000              -0.100236753              -0.407611111               0.000000000              -0.106427565              -0.430708333               0.000000000              -0.112618377              -0.453805555               0.000000000              -0.118809188              -0.476902778               0.000000000              -0.125000000              -0.500000000               0.000000000              -0.013036280              -0.132359569               0.000000000              -0.016127762              -0.155337096               0.000000000              -0.019219245              -0.178314623               0.000000000              -0.022310727              -0.201292150               0.000000000              -0.025402210              -0.224269676               0.000000000              -0.028493692              -0.247247203               0.000000000              -0.031585175              -0.270224730               0.000000000              -0.034676657              -0.293202257               0.000000000              -0.037768140              -0.316179784               0.000000000              -0.040859622              -0.339157311               0.000000000              -0.043951105              -0.362134838               0.000000000              -0.047042587              -0.385112365               0.000000000              -0.050134070              -0.408089892               0.000000000              -0.053225552              -0.431067419               0.000000000              -0.056317035              -0.454044946               0.000000000              -0.059408517              -0.477022473               0.000000000              -0.062500000              -0.500000000               0.000000000               0.000000000              -0.133000000               0.000000000               0.000000000              -0.155937500               0.000000000               0.000000000              -0.178875000               0.000000000               0.000000000              -0.201812500               0.000000000               0.000000000              -0.224750000               0.000000000               0.000000000              -0.247687500               0.000000000               0.000000000              -0.270625000               0.000000000               0.000000000              -0.293562500               0.000000000               0.000000000              -0.316500000               0.000000000               0.000000000              -0.339437500               0.000000000               0.000000000              -0.362375000               0.000000000               0.000000000              -0.385312500               0.000000000               0.000000000              -0.408250000               0.000000000               0.000000000              -0.431187500               0.000000000               0.000000000              -0.454125000               0.000000000               0.000000000              -0.477062500               0.000000000               0.000000000              -0.500000000               0.000000000              -0.133000000               0.000000000               0.000000000              -0.155937500               0.000000000               0.000000000              -0.178875000               0.000000000               0.000000000              -0.201812500               0.000000000               0.000000000              -0.224750000               0.000000000               0.000000000              -0.247687500               0.000000000               0.000000000              -0.270625000               0.000000000               0.000000000              -0.293562500               0.000000000               0.000000000              -0.316500000               0.000000000               0.000000000              -0.339437500               0.000000000               0.000000000              -0.362375000               0.000000000               0.000000000              -0.385312500               0.000000000               0.000000000              -0.408250000               0.000000000               0.000000000              -0.431187500               0.000000000               0.000000000              -0.454125000               0.000000000               0.000000000              -0.477062500               0.000000000               0.000000000              -0.500000000               0.000000000               0.000000000              -0.132359569               0.013036280               0.000000000              -0.155337096               0.016127762               0.000000000              -0.178314623               0.019219245               0.000000000              -0.201292150               0.022310727               0.000000000              -0.224269676               0.025402210               0.000000000              -0.247247203               0.028493692               0.000000000              -0.270224730               0.031585175               0.000000000              -0.293202257               0.034676657               0.000000000              -0.316179784               0.037768140               0.000000000              -0.339157311               0.040859622               0.000000000              -0.362134838               0.043951105               0.000000000              -0.385112365               0.047042587               0.000000000              -0.408089892               0.050134070               0.000000000              -0.431067419               0.053225552               0.000000000              -0.454044946               0.056317035               0.000000000              -0.477022473               0.059408517               0.000000000              -0.500000000               0.062500000               0.000000000              -0.130444442               0.025947013               0.000000000              -0.153541665               0.032137825               0.000000000              -0.176638887               0.038328636               0.000000000              -0.199736109               0.044519448               0.000000000              -0.222833332               0.050710260               0.000000000              -0.245930554               0.056901071               0.000000000              -0.269027776               0.063091883               0.000000000              -0.292124999               0.069282695               0.000000000              -0.315222221               0.075473506               0.000000000              -0.338319444               0.081664318               0.000000000              -0.361416666               0.087855130               0.000000000              -0.384513888               0.094045942               0.000000000              -0.407611111               0.100236753               0.000000000              -0.430708333               0.106427565               0.000000000              -0.453805555               0.112618377               0.000000000              -0.476902778               0.118809188               0.000000000              -0.500000000               0.125000000               0.000000000              -0.127273065               0.038607862               0.000000000              -0.150568498               0.047913621               0.000000000              -0.173863932               0.057219379               0.000000000              -0.197159365               0.066525138               0.000000000              -0.220454798               0.075830897               0.000000000              -0.243750232               0.085136655               0.000000000              -0.267045665               0.094442414               0.000000000              -0.290341099               0.103748172               0.000000000              -0.313636532               0.113053931               0.000000000              -0.336931966               0.122359690               0.000000000              -0.360227399               0.131665448               0.000000000              -0.383522833               0.140971207               0.000000000              -0.406818266               0.150276966               0.000000000              -0.430113700               0.159582724               0.000000000              -0.453409133               0.168888483               0.000000000              -0.476704567               0.178194241               0.000000000              -0.500000000               0.187500000               0.000000000              -0.122875978               0.050896897               0.000000000              -0.146446229               0.063340840               0.000000000              -0.170016481               0.075784784               0.000000000              -0.193586732               0.088228728               0.000000000              -0.217156983               0.100672672               0.000000000              -0.240727235               0.113116616               0.000000000              -0.264297486               0.125560560               0.000000000              -0.287867738               0.138004504               0.000000000              -0.311437989               0.150448448               0.000000000              -0.335008240               0.162892392               0.000000000              -0.358578492               0.175336336               0.000000000              -0.382148743               0.187780280               0.000000000              -0.405718994               0.200224224               0.000000000              -0.429289246               0.212668168               0.000000000              -0.452859497               0.225112112               0.000000000              -0.476429749               0.237556056               0.000000000              -0.500000000               0.250000000               0.000000000              -0.117295528               0.062695766               0.000000000              -0.141214558               0.078308531               0.000000000              -0.165133587               0.093921295               0.000000000              -0.189052617               0.109534060               0.000000000              -0.212971646               0.125146824               0.000000000              -0.236890676               0.140759589               0.000000000              -0.260809705               0.156372354               0.000000000              -0.284728735               0.171985118               0.000000000              -0.308647764               0.187597883               0.000000000              -0.332566794               0.203210648               0.000000000              -0.356485823               0.218823412               0.000000000              -0.380404853               0.234436177               0.000000000              -0.404323882               0.250048941               0.000000000              -0.428242912               0.265661706               0.000000000              -0.452161941               0.281274471               0.000000000              -0.476080971               0.296887235               0.000000000              -0.500000000               0.312500000               0.000000000              -0.110585458               0.073890841               0.000000000              -0.134923867               0.092710163               0.000000000              -0.159262276               0.111529486               0.000000000              -0.183600685               0.130348808               0.000000000              -0.207939094               0.149168131               0.000000000              -0.232277503               0.167987453               0.000000000              -0.256615912               0.186806776               0.000000000              -0.280954320               0.205626098               0.000000000              -0.305292729               0.224445420               0.000000000              -0.329631138               0.243264743               0.000000000              -0.353969547               0.262084065               0.000000000              -0.378307956               0.280903388               0.000000000              -0.402646365               0.299722710               0.000000000              -0.426984773               0.318542033               0.000000000              -0.451323182               0.337361355               0.000000000              -0.475661591               0.356180678               0.000000000              -0.500000000               0.375000000               0.000000000              -0.102810390               0.084374307               0.000000000              -0.127634741               0.106444663               0.000000000              -0.152459092               0.128515018               0.000000000              -0.177283442               0.150585374               0.000000000              -0.202107793               0.172655730               0.000000000              -0.226932143               0.194726086               0.000000000              -0.251756494               0.216796442               0.000000000              -0.276580845               0.238866798               0.000000000              -0.301405195               0.260937153               0.000000000              -0.326229546               0.283007509               0.000000000              -0.351053896               0.305077865               0.000000000              -0.375878247               0.327148221               0.000000000              -0.400702598               0.349218577               0.000000000              -0.425526948               0.371288933               0.000000000              -0.450351299               0.393359288               0.000000000              -0.475175649               0.415429644               0.000000000              -0.500000000               0.437500000               0.000000000              -0.094045202               0.094045202               0.000000000              -0.119417377               0.119417377               0.000000000              -0.144789552               0.144789552               0.000000000              -0.170161727               0.170161727               0.000000000              -0.195533901               0.195533901               0.000000000              -0.220906076               0.220906076               0.000000000              -0.246278251               0.246278251               0.000000000              -0.271650426               0.271650426               0.000000000              -0.297022601               0.297022601               0.000000000              -0.322394776               0.322394776               0.000000000              -0.347766951               0.347766951               0.000000000              -0.373139126               0.373139126               0.000000000              -0.398511300               0.398511300               0.000000000              -0.423883475               0.423883475               0.000000000              -0.449255650               0.449255650               0.000000000              -0.474627825               0.474627825               0.000000000              -0.500000000               0.500000000               0.000000000              -0.084374307               0.102810390               0.000000000              -0.106444663               0.127634741               0.000000000              -0.128515018               0.152459092               0.000000000              -0.150585374               0.177283442               0.000000000              -0.172655730               0.202107793               0.000000000              -0.194726086               0.226932143               0.000000000              -0.216796442               0.251756494               0.000000000              -0.238866798               0.276580845               0.000000000              -0.260937153               0.301405195               0.000000000              -0.283007509               0.326229546               0.000000000              -0.305077865               0.351053896               0.000000000              -0.327148221               0.375878247               0.000000000              -0.349218577               0.400702598               0.000000000              -0.371288933               0.425526948               0.000000000              -0.393359288               0.450351299               0.000000000              -0.415429644               0.475175649               0.000000000              -0.437500000               0.500000000               0.000000000              -0.073890841               0.110585458               0.000000000              -0.092710163               0.134923867               0.000000000              -0.111529486               0.159262276               0.000000000              -0.130348808               0.183600685               0.000000000              -0.149168131               0.207939094               0.000000000              -0.167987453               0.232277503               0.000000000              -0.186806776               0.256615912               0.000000000              -0.205626098               0.280954320               0.000000000              -0.224445420               0.305292729               0.000000000              -0.243264743               0.329631138               0.000000000              -0.262084065               0.353969547               0.000000000              -0.280903388               0.378307956               0.000000000              -0.299722710               0.402646365               0.000000000              -0.318542033               0.426984773               0.000000000              -0.337361355               0.451323182               0.000000000              -0.356180678               0.475661591               0.000000000              -0.375000000               0.500000000               0.000000000              -0.062695766               0.117295528               0.000000000              -0.078308531               0.141214558               0.000000000              -0.093921295               0.165133587               0.000000000              -0.109534060               0.189052617               0.000000000              -0.125146824               0.212971646               0.000000000              -0.140759589               0.236890676               0.000000000              -0.156372354               0.260809705               0.000000000              -0.171985118               0.284728735               0.000000000              -0.187597883               0.308647764               0.000000000              -0.203210648               0.332566794               0.000000000              -0.218823412               0.356485823               0.000000000              -0.234436177               0.380404853               0.000000000              -0.250048941               0.404323882               0.000000000              -0.265661706               0.428242912               0.000000000              -0.281274471               0.452161941               0.000000000              -0.296887235               0.476080971               0.000000000              -0.312500000               0.500000000               0.000000000              -0.050896897               0.122875978               0.000000000              -0.063340840               0.146446229               0.000000000              -0.075784784               0.170016481               0.000000000              -0.088228728               0.193586732               0.000000000              -0.100672672               0.217156983               0.000000000              -0.113116616               0.240727235               0.000000000              -0.125560560               0.264297486               0.000000000              -0.138004504               0.287867738               0.000000000              -0.150448448               0.311437989               0.000000000              -0.162892392               0.335008240               0.000000000              -0.175336336               0.358578492               0.000000000              -0.187780280               0.382148743               0.000000000              -0.200224224               0.405718994               0.000000000              -0.212668168               0.429289246               0.000000000              -0.225112112               0.452859497               0.000000000              -0.237556056               0.476429749               0.000000000              -0.250000000               0.500000000               0.000000000              -0.038607862               0.127273065               0.000000000              -0.047913621               0.150568498               0.000000000              -0.057219379               0.173863932               0.000000000              -0.066525138               0.197159365               0.000000000              -0.075830897               0.220454798               0.000000000              -0.085136655               0.243750232               0.000000000              -0.094442414               0.267045665               0.000000000              -0.103748172               0.290341099               0.000000000              -0.113053931               0.313636532               0.000000000              -0.122359690               0.336931966               0.000000000              -0.131665448               0.360227399               0.000000000              -0.140971207               0.383522833               0.000000000              -0.150276966               0.406818266               0.000000000              -0.159582724               0.430113700               0.000000000              -0.168888483               0.453409133               0.000000000              -0.178194241               0.476704567               0.000000000              -0.187500000               0.500000000               0.000000000              -0.025947013               0.130444442               0.000000000              -0.032137825               0.153541665               0.000000000              -0.038328636               0.176638887               0.000000000              -0.044519448               0.199736109               0.000000000              -0.050710260               0.222833332               0.000000000              -0.056901071               0.245930554               0.000000000              -0.063091883               0.269027776               0.000000000              -0.069282695               0.292124999               0.000000000              -0.075473506               0.315222221               0.000000000              -0.081664318               0.338319444               0.000000000              -0.087855130               0.361416666               0.000000000              -0.094045942               0.384513888               0.000000000              -0.100236753               0.407611111               0.000000000              -0.106427565               0.430708333               0.000000000              -0.112618377               0.453805555               0.000000000              -0.118809188               0.476902778               0.000000000              -0.125000000               0.500000000               0.000000000              -0.013036280               0.132359569               0.000000000              -0.016127762               0.155337096               0.000000000              -0.019219245               0.178314623               0.000000000              -0.022310727               0.201292150               0.000000000              -0.025402210               0.224269676               0.000000000              -0.028493692               0.247247203               0.000000000              -0.031585175               0.270224730               0.000000000              -0.034676657               0.293202257               0.000000000              -0.037768140               0.316179784               0.000000000              -0.040859622               0.339157311               0.000000000              -0.043951105               0.362134838               0.000000000              -0.047042587               0.385112365               0.000000000              -0.050134070               0.408089892               0.000000000              -0.053225552               0.431067419               0.000000000              -0.056317035               0.454044946               0.000000000              -0.059408517               0.477022473               0.000000000              -0.062500000               0.500000000               0.000000000               0.000000000               0.133000000               0.000000000               0.000000000               0.155937500               0.000000000               0.000000000               0.178875000               0.000000000               0.000000000               0.201812500               0.000000000               0.000000000               0.224750000               0.000000000               0.000000000               0.247687500               0.000000000               0.000000000               0.270625000               0.000000000               0.000000000               0.293562500               0.000000000               0.000000000               0.316500000               0.000000000               0.000000000               0.339437500               0.000000000               0.000000000               0.362375000               0.000000000               0.000000000               0.385312500               0.000000000               0.000000000               0.408250000               0.000000000               0.000000000               0.431187500               0.000000000               0.000000000               0.454125000               0.000000000               0.000000000               0.477062500               0.000000000               0.000000000               0.500000000               0.000000000 </DataArray>
</Points>
<Cells>
<DataArray type="Int32"                                    Name="connectivity"                                                      NumberOfComponents=" 1" format="ascii">
         0          1         18         17          1          2         19         18          2          3         20         19          3          4         21         20          4          5         22         21          5          6         23         22          6          7         24         23          7          8         25         24          8          9         26         25          9         10         27         26         10         11         28         27         11         12         29         28         12         13         30         29         13         14         31         30         14         15         32         31         15         16         33         32         17         18         35         34         18         19         36         35         19         20         37         36         20         21         38         37         21         22         39         38         22         23         40         39         23         24         41         40         24         25         42         41         25         26         43         42         26         27         44         43         27         28         45         44         28         29         46         45         29         30         47         46         30         31         48         47         31         32         49         48         32         33         50         49         34         35         52         51         35         36         53         52         36         37         54         53         37         38         55         54         38         39         56         55         39         40         57         56         40         41         58         57         41         42         59         58         42         43         60         59         43         44         61         60         44         45         62         61         45         46         63         62         46         47         64         63         47         48         65         64         48         49         66         65         49         50         67         66         51         52         69         68         52         53         70         69         53         54         71         70         54         55         72         71         55         56         73         72         56         57         74         73         57         58         75         74         58         59         76         75         59         60         77         76         60         61         78         77         61         62         79         78         62         63         80         79         63         64         81         80         64         65         82         81         65         66         83         82         66         67         84         83         68         69         86         85         69         70         87         86         70         71         88         87         71         72         89         88         72         73         90         89         73         74         91         90         74         75         92         91         75         76         93         92         76         77         94         93         77         78         95         94         78         79         96         95         79         80         97         96         80         81         98         97         81         82         99         98         82         83        100         99         83         84        101        100         85         86        103        102         86         87        104        103         87         88        105        104         88         89        106        105         89         90        107        106         90         91        108        107         91         92        109        108         92         93        110        109         93         94        111        110         94         95        112        111         95         96        113        112         96         97        114        113         97         98        115        114         98         99        116        115         99        100        117        116        100        101        118        117        102        103        120        119        103        104        121        120        104        105        122        121        105        106        123        122        106        107        124        123        107        108        125        124        108        109        126        125        109        110        127        126        110        111        128        127        111        112        129        128        112        113        130        129        113        114        131        130        114        115        132        131        115        116        133        132        116        117        134        133        117        118        135        134        119        120        137        136        120        121        138        137        121        122        139        138        122        123        140        139        123        124        141        140        124        125        142        141        125        126        143        142        126        127        144        143        127        128        145        144        128        129        146        145        129        130        147        146        130        131        148        147        131        132        149        148        132        133        150        149        133        134        151        150        134        135        152        151        136        137        154        153        137        138        155        154        138        139        156        155        139        140        157        156        140        141        158        157        141        142        159        158        142        143        160        159        143        144        161        160        144        145        162        161        145        146        163        162        146        147        164        163        147        148        165        164        148        149        166        165        149        150        167        166        150        151        168        167        151        152        169        168        153        154        171        170        154        155        172        171        155        156        173        172        156        157        174        173        157        158        175        174        158        159        176        175        159        160        177        176        160        161        178        177        161        162        179        178        162        163        180        179        163        164        181        180        164        165        182        181        165        166        183        182        166        167        184        183        167        168        185        184        168        169        186        185        170        171        188        187        171        172        189        188        172        173        190        189        173        174        191        190        174        175        192        191        175        176        193        192        176        177        194        193        177        178        195        194        178        179        196        195        179        180        197        196        180        181        198        197        181        182        199        198        182        183        200        199        183        184        201        200        184        185        202        201        185        186        203        202        187        188        205        204        188        189        206        205        189        190        207        206        190        191        208        207        191        192        209        208        192        193        210        209        193        194        211        210        194        195        212        211        195        196        213        212        196        197        214        213        197        198        215        214        198        199        216        215        199        200        217        216        200        201        218        217        201        202        219        218        202        203        220        219        204        205        222        221        205        206        223        222        206        207        224        223        207        208        225        224        208        209        226        225        209        210        227        226        210        211        228        227        211        212        229        228        212        213        230        229        213        214        231        230        214        215        232        231        215        216        233        232        216        217        234        233        217        218        235        234        218        219        236        235        219        220        237        236        221        222        239        238        222        223        240        239        223        224        241        240        224        225        242        241        225        226        243        242        226        227        244        243        227        228        245        244        228        229        246        245        229        230        247        246        230        231        248        247        231        232        249        248        232        233        250        249        233        234        251        250        234        235        252        251        235        236        253        252        236        237        254        253        238        239        256        255        239        240        257        256        240        241        258        257        241        242        259        258        242        243        260        259        243        244        261        260        244        245        262        261        245        246        263        262        246        247        264        263        247        248        265        264        248        249        266        265        249        250        267        266        250        251        268        267        251        252        269        268        252        253        270        269        253        254        271        270        255        256        273        272        256        257        274        273        257        258        275        274        258        259        276        275        259        260        277        276        260        261        278        277        261        262        279        278        262        263        280        279        263        264        281        280        264        265        282        281        265        266        283        282        266        267        284        283        267        268        285        284        268        269        286        285        269        270        287        286        270        271        288        287        306        307          1          0        307        308          2          1        308        309          3          2        309        310          4          3        310        311          5          4        311        312          6          5        312        313          7          6        313        314          8          7        314        315          9          8        315        316         10          9        316        317         11         10        317        318         12         11        318        319         13         12        319        320         14         13        320        321         15         14        321        322         16         15        323        324        307        306        324        325        308        307        325        326        309        308        326        327        310        309        327        328        311        310        328        329        312        311        329        330        313        312        330        331        314        313        331        332        315        314        332        333        316        315        333        334        317        316        334        335        318        317        335        336        319        318        336        337        320        319        337        338        321        320        338        339        322        321        340        341        324        323        341        342        325        324        342        343        326        325        343        344        327        326        344        345        328        327        345        346        329        328        346        347        330        329        347        348        331        330        348        349        332        331        349        350        333        332        350        351        334        333        351        352        335        334        352        353        336        335        353        354        337        336        354        355        338        337        355        356        339        338        357        358        341        340        358        359        342        341        359        360        343        342        360        361        344        343        361        362        345        344        362        363        346        345        363        364        347        346        364        365        348        347        365        366        349        348        366        367        350        349        367        368        351        350        368        369        352        351        369        370        353        352        370        371        354        353        371        372        355        354        372        373        356        355        374        375        358        357        375        376        359        358        376        377        360        359        377        378        361        360        378        379        362        361        379        380        363        362        380        381        364        363        381        382        365        364        382        383        366        365        383        384        367        366        384        385        368        367        385        386        369        368        386        387        370        369        387        388        371        370        388        389        372        371        389        390        373        372        391        392        375        374        392        393        376        375        393        394        377        376        394        395        378        377        395        396        379        378        396        397        380        379        397        398        381        380        398        399        382        381        399        400        383        382        400        401        384        383        401        402        385        384        402        403        386        385        403        404        387        386        404        405        388        387        405        406        389        388        406        407        390        389        408        409        392        391        409        410        393        392        410        411        394        393        411        412        395        394        412        413        396        395        413        414        397        396        414        415        398        397        415        416        399        398        416        417        400        399        417        418        401        400        418        419        402        401        419        420        403        402        420        421        404        403        421        422        405        404        422        423        406        405        423        424        407        406        425        426        409        408        426        427        410        409        427        428        411        410        428        429        412        411        429        430        413        412        430        431        414        413        431        432        415        414        432        433        416        415        433        434        417        416        434        435        418        417        435        436        419        418        436        437        420        419        437        438        421        420        438        439        422        421        439        440        423        422        440        441        424        423        442        443        426        425        443        444        427        426        444        445        428        427        445        446        429        428        446        447        430        429        447        448        431        430        448        449        432        431        449        450        433        432        450        451        434        433        451        452        435        434        452        453        436        435        453        454        437        436        454        455        438        437        455        456        439        438        456        457        440        439        457        458        441        440        459        460        443        442        460        461        444        443        461        462        445        444        462        463        446        445        463        464        447        446        464        465        448        447        465        466        449        448        466        467        450        449        467        468        451        450        468        469        452        451        469        470        453        452        470        471        454        453        471        472        455        454        472        473        456        455        473        474        457        456        474        475        458        457        476        477        460        459        477        478        461        460        478        479        462        461        479        480        463        462        480        481        464        463        481        482        465        464        482        483        466        465        483        484        467        466        484        485        468        467        485        486        469        468        486        487        470        469        487        488        471        470        488        489        472        471        489        490        473        472        490        491        474        473        491        492        475        474        493        494        477        476        494        495        478        477        495        496        479        478        496        497        480        479        497        498        481        480        498        499        482        481        499        500        483        482        500        501        484        483        501        502        485        484        502        503        486        485        503        504        487        486        504        505        488        487        505        506        489        488        506        507        490        489        507        508        491        490        508        509        492        491        510        511        494        493        511        512        495        494        512        513        496        495        513        514        497        496        514        515        498        497        515        516        499        498        516        517        500        499        517        518        501        500        518        519        502        501        519        520        503        502        520        521        504        503        521        522        505        504        522        523        506        505        523        524        507        506        524        525        508        507        525        526        509        508        527        528        511        510        528        529        512        511        529        530        513        512        530        531        514        513        531        532        515        514        532        533        516        515        533        534        517        516        534        535        518        517        535        536        519        518        536        537        520        519        537        538        521        520        538        539        522        521        539        540        523        522        540        541        524        523        541        542        525        524        542        543        526        525        544        545        528        527        545        546        529        528        546        547        530        529        547        548        531        530        548        549        532        531        549        550        533        532        550        551        534        533        551        552        535        534        552        553        536        535        553        554        537        536        554        555        538        537        555        556        539        538        556        557        540        539        557        558        541        540        558        559        542        541        559        560        543        542        561        562        545        544        562        563        546        545        563        564        547        546        564        565        548        547        565        566        549        548        566        567        550        549        567        568        551        550        568        569        552        551        569        570        553        552        570        571        554        553        571        572        555        554        572        573        556        555        573        574        557        556        574        575        558        557        575        576        559        558        576        577        560        559        578        579        596        595        579        580        597        596        580        581        598        597        581        582        599        598        582        583        600        599        583        584        601        600        584        585        602        601        585        586        603        602        586        587        604        603        587        588        605        604        588        589        606        605        589        590        607        606        590        591        608        607        591        592        609        608        592        593        610        609        593        594        611        610        595        596        613        612        596        597        614        613        597        598        615        614        598        599        616        615        599        600        617        616        600        601        618        617        601        602        619        618        602        603        620        619        603        604        621        620        604        605        622        621        605        606        623        622        606        607        624        623        607        608        625        624        608        609        626        625        609        610        627        626        610        611        628        627        612        613        630        629        613        614        631        630        614        615        632        631        615        616        633        632        616        617        634        633        617        618        635        634        618        619        636        635        619        620        637        636        620        621        638        637        621        622        639        638        622        623        640        639        623        624        641        640        624        625        642        641        625        626        643        642        626        627        644        643        627        628        645        644        629        630        647        646        630        631        648        647        631        632        649        648        632        633        650        649        633        634        651        650        634        635        652        651        635        636        653        652        636        637        654        653        637        638        655        654        638        639        656        655        639        640        657        656        640        641        658        657        641        642        659        658        642        643        660        659        643        644        661        660        644        645        662        661        646        647        664        663        647        648        665        664        648        649        666        665        649        650        667        666        650        651        668        667        651        652        669        668        652        653        670        669        653        654        671        670        654        655        672        671        655        656        673        672        656        657        674        673        657        658        675        674        658        659        676        675        659        660        677        676        660        661        678        677        661        662        679        678        663        664        681        680        664        665        682        681        665        666        683        682        666        667        684        683        667        668        685        684        668        669        686        685        669        670        687        686        670        671        688        687        671        672        689        688        672        673        690        689        673        674        691        690        674        675        692        691        675        676        693        692        676        677        694        693        677        678        695        694        678        679        696        695        680        681        698        697        681        682        699        698        682        683        700        699        683        684        701        700        684        685        702        701        685        686        703        702        686        687        704        703        687        688        705        704        688        689        706        705        689        690        707        706        690        691        708        707        691        692        709        708        692        693        710        709        693        694        711        710        694        695        712        711        695        696        713        712        697        698        715        714        698        699        716        715        699        700        717        716        700        701        718        717        701        702        719        718        702        703        720        719        703        704        721        720        704        705        722        721        705        706        723        722        706        707        724        723        707        708        725        724        708        709        726        725        709        710        727        726        710        711        728        727        711        712        729        728        712        713        730        729        714        715        732        731        715        716        733        732        716        717        734        733        717        718        735        734        718        719        736        735        719        720        737        736        720        721        738        737        721        722        739        738        722        723        740        739        723        724        741        740        724        725        742        741        725        726        743        742        726        727        744        743        727        728        745        744        728        729        746        745        729        730        747        746        731        732        749        748        732        733        750        749        733        734        751        750        734        735        752        751        735        736        753        752        736        737        754        753        737        738        755        754        738        739        756        755        739        740        757        756        740        741        758        757        741        742        759        758        742        743        760        759        743        744        761        760        744        745        762        761        745        746        763        762        746        747        764        763        748        749        766        765        749        750        767        766        750        751        768        767        751        752        769        768        752        753        770        769        753        754        771        770        754        755        772        771        755        756        773        772        756        757        774        773        757        758        775        774        758        759        776        775        759        760        777        776        760        761        778        777        761        762        779        778        762        763        780        779        763        764        781        780        765        766        783        782        766        767        784        783        767        768        785        784        768        769        786        785        769        770        787        786        770        771        788        787        771        772        789        788        772        773        790        789        773        774        791        790        774        775        792        791        775        776        793        792        776        777        794        793        777        778        795        794        778        779        796        795        779        780        797        796        780        781        798        797        782        783        800        799        783        784        801        800        784        785        802        801        785        786        803        802        786        787        804        803        787        788        805        804        788        789        806        805        789        790        807        806        790        791        808        807        791        792        809        808        792        793        810        809        793        794        811        810        794        795        812        811        795        796        813        812        796        797        814        813        797        798        815        814        799        800        817        816        800        801        818        817        801        802        819        818        802        803        820        819        803        804        821        820        804        805        822        821        805        806        823        822        806        807        824        823        807        808        825        824        808        809        826        825        809        810        827        826        810        811        828        827        811        812        829        828        812        813        830        829        813        814        831        830        814        815        832        831        816        817        834        833        817        818        835        834        818        819        836        835        819        820        837        836        820        821        838        837        821        822        839        838        822        823        840        839        823        824        841        840        824        825        842        841        825        826        843        842        826        827        844        843        827        828        845        844        828        829        846        845        829        830        847        846        830        831        848        847        831        832        849        848        833        834        562        561        834        835        563        562        835        836        564        563        836        837        565        564        837        838        566        565        838        839        567        566        839        840        568        567        840        841        569        568        841        842        570        569        842        843        571        570        843        844        572        571        844        845        573        572        845        846        574        573        846        847        575        574        847        848        576        575        848        849        577        576        884        885        579        578        885        886        580        579        886        887        581        580        887        888        582        581        888        889        583        582        889        890        584        583        890        891        585        584        891        892        586        585        892        893        587        586        893        894        588        587        894        895        589        588        895        896        590        589        896        897        591        590        897        898        592        591        898        899        593        592        899        900        594        593        901        902        885        884        902        903        886        885        903        904        887        886        904        905        888        887        905        906        889        888        906        907        890        889        907        908        891        890        908        909        892        891        909        910        893        892        910        911        894        893        911        912        895        894        912        913        896        895        913        914        897        896        914        915        898        897        915        916        899        898        916        917        900        899        918        919        902        901        919        920        903        902        920        921        904        903        921        922        905        904        922        923        906        905        923        924        907        906        924        925        908        907        925        926        909        908        926        927        910        909        927        928        911        910        928        929        912        911        929        930        913        912        930        931        914        913        931        932        915        914        932        933        916        915        933        934        917        916        935        936        919        918        936        937        920        919        937        938        921        920        938        939        922        921        939        940        923        922        940        941        924        923        941        942        925        924        942        943        926        925        943        944        927        926        944        945        928        927        945        946        929        928        946        947        930        929        947        948        931        930        948        949        932        931        949        950        933        932        950        951        934        933        952        953        936        935        953        954        937        936        954        955        938        937        955        956        939        938        956        957        940        939        957        958        941        940        958        959        942        941        959        960        943        942        960        961        944        943        961        962        945        944        962        963        946        945        963        964        947        946        964        965        948        947        965        966        949        948        966        967        950        949        967        968        951        950        969        970        953        952        970        971        954        953        971        972        955        954        972        973        956        955        973        974        957        956        974        975        958        957        975        976        959        958        976        977        960        959        977        978        961        960        978        979        962        961        979        980        963        962        980        981        964        963        981        982        965        964        982        983        966        965        983        984        967        966        984        985        968        967        986        987        970        969        987        988        971        970        988        989        972        971        989        990        973        972        990        991        974        973        991        992        975        974        992        993        976        975        993        994        977        976        994        995        978        977        995        996        979        978        996        997        980        979        997        998        981        980        998        999        982        981        999       1000        983        982       1000       1001        984        983       1001       1002        985        984       1003       1004        987        986       1004       1005        988        987       1005       1006        989        988       1006       1007        990        989       1007       1008        991        990       1008       1009        992        991       1009       1010        993        992       1010       1011        994        993       1011       1012        995        994       1012       1013        996        995       1013       1014        997        996       1014       1015        998        997       1015       1016        999        998       1016       1017       1000        999       1017       1018       1001       1000       1018       1019       1002       1001       1020       1021       1004       1003       1021       1022       1005       1004       1022       1023       1006       1005       1023       1024       1007       1006       1024       1025       1008       1007       1025       1026       1009       1008       1026       1027       1010       1009       1027       1028       1011       1010       1028       1029       1012       1011       1029       1030       1013       1012       1030       1031       1014       1013       1031       1032       1015       1014       1032       1033       1016       1015       1033       1034       1017       1016       1034       1035       1018       1017       1035       1036       1019       1018       1037       1038       1021       1020       1038       1039       1022       1021       1039       1040       1023       1022       1040       1041       1024       1023       1041       1042       1025       1024       1042       1043       1026       1025       1043       1044       1027       1026       1044       1045       1028       1027       1045       1046       1029       1028       1046       1047       1030       1029       1047       1048       1031       1030       1048       1049       1032       1031       1049       1050       1033       1032       1050       1051       1034       1033       1051       1052       1035       1034       1052       1053       1036       1035       1054       1055       1038       1037       1055       1056       1039       1038       1056       1057       1040       1039       1057       1058       1041       1040       1058       1059       1042       1041       1059       1060       1043       1042       1060       1061       1044       1043       1061       1062       1045       1044       1062       1063       1046       1045       1063       1064       1047       1046       1064       1065       1048       1047       1065       1066       1049       1048       1066       1067       1050       1049       1067       1068       1051       1050       1068       1069       1052       1051       1069       1070       1053       1052       1071       1072       1055       1054       1072       1073       1056       1055       1073       1074       1057       1056       1074       1075       1058       1057       1075       1076       1059       1058       1076       1077       1060       1059       1077       1078       1061       1060       1078       1079       1062       1061       1079       1080       1063       1062       1080       1081       1064       1063       1081       1082       1065       1064       1082       1083       1066       1065       1083       1084       1067       1066       1084       1085       1068       1067       1085       1086       1069       1068       1086       1087       1070       1069       1088       1089       1072       1071       1089       1090       1073       1072       1090       1091       1074       1073       1091       1092       1075       1074       1092       1093       1076       1075       1093       1094       1077       1076       1094       1095       1078       1077       1095       1096       1079       1078       1096       1097       1080       1079       1097       1098       1081       1080       1098       1099       1082       1081       1099       1100       1083       1082       1100       1101       1084       1083       1101       1102       1085       1084       1102       1103       1086       1085       1103       1104       1087       1086       1105       1106       1089       1088       1106       1107       1090       1089       1107       1108       1091       1090       1108       1109       1092       1091       1109       1110       1093       1092       1110       1111       1094       1093       1111       1112       1095       1094       1112       1113       1096       1095       1113       1114       1097       1096       1114       1115       1098       1097       1115       1116       1099       1098       1116       1117       1100       1099       1117       1118       1101       1100       1118       1119       1102       1101       1119       1120       1103       1102       1120       1121       1104       1103       1122       1123       1106       1105       1123       1124       1107       1106       1124       1125       1108       1107       1125       1126       1109       1108       1126       1127       1110       1109       1127       1128       1111       1110       1128       1129       1112       1111       1129       1130       1113       1112       1130       1131       1114       1113       1131       1132       1115       1114       1132       1133       1116       1115       1133       1134       1117       1116       1134       1135       1118       1117       1135       1136       1119       1118       1136       1137       1120       1119       1137       1138       1121       1120        272        273       1123       1122        273        274       1124       1123        274        275       1125       1124        275        276       1126       1125        276        277       1127       1126        277        278       1128       1127        278        279       1129       1128        279        280       1130       1129        280        281       1131       1130        281        282       1132       1131        282        283       1133       1132        283        284       1134       1133        284        285       1135       1134        285        286       1136       1135        286        287       1137       1136        287        288       1138       1137 </DataArray>
<DataArray type="Int32"                                    Name="offsets"                                                      NumberOfComponents=" 1" format="ascii">
         4          8         12         16         20         24         28         32         36         40         44         48         52         56         60         64         68         72         76         80         84         88         92         96        100        104        108        112        116        120        124        128        132        136        140        144        148        152        156        160        164        168        172        176        180        184        188        192        196        200        204        208        212        216        220        224        228        232        236        240        244        248        252        256        260        264        268        272        276        280        284        288        292        296        300        304        308        312        316        320        324        328        332        336        340        344        348        352        356        360        364        368        372        376        380        384        388        392        396        400        404        408        412        416        420        424        428        432        436        440        444        448        452        456        460        464        468        472        476        480        484        488        492        496        500        504        508        512        516        520        524        528        532        536        540        544        548        552        556        560        564        568        572        576        580        584        588        592        596        600        604        608        612        616        620        624        628        632        636        640        644        648        652        656        660        664        668        672        676        680        684        688        692        696        700        704        708        712        716        720        724        728        732        736        740        744        748        752        756        760        764        768        772        776        780        784        788        792        796        800        804        808        812        816        820        824        828        832        836        840        844        848        852        856        860        864        868        872        876        880        884        888        892        896        900        904        908        912        916        920        924        928        932        936        940        944        948        952        956        960        964        968        972        976        980        984        988        992        996       1000       1004       1008       1012       1016       1020       1024       1028       1032       1036       1040       1044       1048       1052       1056       1060       1064       1068       1072       1076       1080       1084       1088       1092       1096       1100       1104       1108       1112       1116       1120       1124       1128       1132       1136       1140       1144       1148       1152       1156       1160       1164       1168       1172       1176       1180       1184       1188       1192       1196       1200       1204       1208       1212       1216       1220       1224       1228       1232       1236       1240       1244       1248       1252       1256       1260       1264       1268       1272       1276       1280       1284       1288       1292       1296       1300       1304       1308       1312       1316       1320       1324       1328       1332       1336       1340       1344       1348       1352       1356       1360       1364       1368       1372       1376       1380       1384       1388       1392       1396       1400       1404       1408       1412       1416       1420       1424       1428       1432       1436       1440       1444       1448       1452       1456       1460       1464       1468       1472       1476       1480       1484       1488       1492       1496       1500       1504       1508       1512       1516       1520       1524       1528       1532       1536       1540       1544       1548       1552       1556       1560       1564       1568       1572       1576       1580       1584       1588       1592       1596       1600       1604       1608       1612       1616       1620       1624       1628       1632       1636       1640       1644       1648       1652       1656       1660       1664       1668       1672       1676       1680       1684       1688       1692       1696       1700       1704       1708       1712       1716       1720       1724       1728       1732       1736       1740       1744       1748       1752       1756       1760       1764       1768       1772       1776       1780       1784       1788       1792       1796       1800       1804       1808       1812       1816       1820       1824       1828       1832       1836       1840       1844       1848       1852       1856       1860       1864       1868       1872       1876       1880       1884       1888       1892       1896       1900       1904       1908       1912       1916       1920       1924       1928       1932       1936       1940       1944       1948       1952       1956       1960       1964       1968       1972       1976       1980       1984       1988       1992       1996       2000       2004       2008       2012       2016       2020       2024       2028       2032       2036       2040       2044       2048       2052       2056       2060       2064       2068       2072       2076       2080       2084       2088       2092       2096       2100       2104       2108       2112       2116       2120       2124       2128       2132       2136       2140       2144       2148       2152       2156       2160       2164       2168       2172       2176       2180       2184       2188       2192       2196       2200       2204       2208       2212       2216       2220       2224       2228       2232       2236       2240       2244       2248       2252       2256       2260       2264       2268       2272       2276       2280       2284       2288       2292       2296       2300       2304       2308       2312       2316       2320       2324       2328       2332       2336       2340       2344       2348       2352       2356       2360       2364       2368       2372       2376       2380       2384       2388       2392       2396       2400       2404       2408       2412       2416       2420       2424       2428       2432       2436       2440       2444       2448       2452       2456       2460       2464       2468       2472       2476       2480       2484       2488       2492       2496       2500       2504       2508       2512       2516       2520       2524       2528       2532       2536       2540       2544       2548       2552       2556       2560       2564       2568       2572       2576       2580       2584       2588       2592       2596       2600       2604       2608       2612       2616       2620       2624       2628       2632       2636       2640       2644       2648       2652       2656       2660       2664       2668       2672       2676       2680       2684       2688       2692       2696       2700       2704       2708       2712       2716       2720       2724       2728       2732       2736       2740       2744       2748       2752       2756       2760       2764       2768       2772       2776       2780       2784       2788       2792       2796       2800       2804       2808       2812       2816       2820       2824       2828       2832       2836       2840       2844       2848       2852       2856       2860       2864       2868       2872       2876       2880       2884       2888       2892       2896       2900       2904       2908       2912       2916       2920       2924       2928       2932       2936       2940       2944       2948       2952       2956       2960       2964       2968       2972       2976       2980       2984       2988       2992       2996       3000       3004       3008       3012       3016       3020       3024       3028       3032       3036       3040       3044       3048       3052       3056       3060       3064       3068       3072       3076       3080       3084       3088       3092       3096       3100       3104       3108       3112       3116       3120       3124       3128       3132       3136       3140       3144       3148       3152       3156       3160       3164       3168       3172       3176       3180       3184       3188       3192       3196       3200       3204       3208       3212       3216       3220       3224       3228       3232       3236       3240       3244       3248       3252       3256       3260       3264       3268       3272       3276       3280       3284       3288       3292       3296       3300       3304       3308       3312       3316       3320       3324       3328       3332       3336       3340       3344       3348       3352       3356       3360       3364       3368       3372       3376       3380       3384       3388       3392       3396       3400       3404       3408       3412       3416       3420       3424       3428       3432       3436       3440       3444       3448       3452       3456       3460       3464       3468       3472       3476       3480       3484       3488       3492       3496       3500       3504       3508       3512       3516       3520       3524       3528       3532       3536       3540       3544       3548       3552       3556       3560       3564       3568       3572       3576       3580       3584       3588       3592       3596       3600       3604       3608       3612       3616       3620       3624       3628       3632       3636       3640       3644       3648       3652       3656       3660       3664       3668       3672       3676       3680       3684       3688       3692       3696       3700       3704       3708       3712       3716       3720       3724       3728       3732       3736       3740       3744       3748       3752       3756       3760       3764       3768       3772       3776       3780       3784       3788       3792       3796       3800       3804       3808       3812       3816       3820       3824       3828       3832       3836       3840       3844       3848       3852       3856       3860       3864       3868       3872       3876       3880       3884       3888       3892       3896       3900       3904       3908       3912       3916       3920       3924       3928       3932       3936       3940       3944       3948       3952       3956       3960       3964       3968       3972       3976       3980       3984       3988       3992       3996       4000       4004       4008       4012       4016       4020       4024       4028       4032       4036       4040       4044       4048       4052       4056       4060       4064       4068       4072       4076       4080       4084       4088       4092       4096 </DataArray>
<DataArray type="UInt8"                                    Name="types"                                                      NumberOfComponents=" 1" format="ascii">
         9          9          9          9          9          9          9          9          9          9          9          9          9          9          9          9          9          9          9          9          9          9          9          9          9          9          9          9          9          9          9          9          9          9          9          9          9          9          9          9          9          9          9          9          9          9          9          9          9          9          9          9          9          9          9          9          9          9          9          9          9          9          9          9          9          9          9          9          9          9          9          9          9          9          9          9          9          9          9          9          9          9          9          9          9          9          9          9          9          9          9          9          9          9          9          9          9          9          9          9          9          9          9          9          9          9          9          9          9          9          9          9          9          9          9          9          9          9          9          9          9          9          9          9          9          9          9          9          9          9          9          9          9          9          9          9          9          9          9          9          9          9          9          9          9          9          9          9          9          9          9          9          9          9          9          9          9          9          9          9          9          9          9          9          9          9          9          9          9          9          9          9          9          9          9          9          9          9          9          9          9          9          9          9          9          9          9          9          9          9          9          9          9          9          9          9          9          9          9          9          9          9          9          9          9          9          9          9          9          9          9          9          9          9          9          9          9          9          9          9          9          9          9          9          9          9          9          9          9          9          9          9          9          9          9          9          9          9          9          9          9          9          9          9          9          9          9          9          9          9          9          9          9          9          9          9          9          9          9          9          9          9          9          9          9          9          9          9          9          9          9          9          9          9          9          9          9          9          9          9          9          9          9          9          9          9          9          9          9          9          9          9          9          9          9          9          9          9          9          9          9          9          9          9          9          9          9          9          9          9          9          9          9          9          9          9          9          9          9          9          9          9          9          9          9          9          9          9          9          9          9          9          9          9          9          9          9          9          9          9          9          9          9          9          9          9          9          9          9          9          9          9          9          9          9          9          9          9          9          9          9          9          9          9          9          9          9          9          9          9          9          9          9          9          9          9          9          9          9          9          9          9          9          9          9          9          9          9          9          9          9          9          9          9          9          9          9          9          9          9          9          9          9          9          9          9          9          9          9          9          9          9          9          9          9          9          9          9          9          9          9          9          9          9          9          9          9          9          9          9          9          9          9          9          9          9          9          9          9          9          9          9          9          9          9          9          9          9          9          9          9          9          9          9          9          9          9          9          9          9          9          9          9          9          9          9          9          9          9          9          9          9          9          9          9          9          9          9          9          9          9          9          9          9          9          9          9          9          9          9          9          9          9          9          9          9          9          9          9          9          9          9          9          9          9          9          9          9          9          9          9          9          9          9          9          9          9          9          9          9          9          9          9          9          9          9          9          9          9          9          9          9          9          9          9          9          9          9          9          9          9          9          9          9          9          9          9          9          9          9          9          9          9          9          9          9          9          9          9          9          9          9          9          9          9          9          9          9          9          9          9          9          9          9          9          9          9          9          9          9          9          9          9          9          9          9          9          9          9          9          9          9          9          9          9          9          9          9          9          9          9          9          9          9          9          9          9          9          9          9          9          9          9          9          9          9          9          9          9          9          9          9          9          9          9          9          9          9          9          9          9          9          9          9          9          9          9          9          9          9          9          9          9          9          9          9          9          9          9          9          9          9          9          9          9          9          9          9          9          9          9          9          9          9          9          9          9          9          9          9          9          9          9          9          9          9          9          9          9          9          9          9          9          9          9          9          9          9          9          9          9          9          9          9          9          9          9          9          9          9          9          9          9          9          9          9          9          9          9          9          9          9          9          9          9          9          9          9          9          9          9          9          9          9          9          9          9          9          9          9          9          9          9          9          9          9          9          9          9          9          9          9          9          9          9          9          9          9          9          9          9          9          9          9          9          9          9          9          9          9          9          9          9          9          9          9          9          9          9          9          9          9          9          9          9          9          9          9          9          9          9          9          9          9          9          9          9          9          9          9          9          9          9          9          9          9          9          9          9          9          9          9          9          9          9          9          9          9          9          9          9          9          9          9          9          9          9          9          9          9          9          9          9          9          9          9          9          9          9          9          9          9          9          9          9          9          9          9          9          9          9          9          9          9          9          9          9          9          9          9          9          9          9          9          9          9          9          9          9          9          9          9          9          9          9          9          9          9          9          9          9          9          9          9          9          9          9          9          9          9          9          9          9          9          9          9          9          9          9          9          9          9          9          9          9          9          9          9          9          9          9          9          9          9          9          9          9          9          9          9          9          9          9          9          9          9          9          9          9          9          9          9          9          9          9          9          9          9          9          9          9          9          9          9          9          9          9          9          9          9          9          9          9          9          9          9          9          9          9          9          9          9          9          9          9          9          9          9          9          9          9          9          9          9          9          9          9          9          9          9          9          9          9          9          9          9          9          9          9          9          9          9          9          9          9          9          9          9          9          9          9          9          9          9          9          9          9          9          9          9          9          9          9          9          9          9          9          9          9          9          9          9          9          9          9          9          9          9          9          9          9          9          9          9 </DataArray>
</Cells>
<CellData>
<DataArray type="Int32"                                    Name="material"                                                      NumberOfComponents=" 1" format="ascii">
         1          1          1          1          1          1          1          1          1          1          1          1          1          1          1          1          1          1          1          1          1          1          1          1          1          1          1          1          1          1          1          1          1          1          1          1          1          1          1          1          1          1          1          1          1          1          1          1          1          1          1          1          1          1          1          1          1          1          1          1          1          1          1          1          1          1          1          1          1          1          1          1          1          1          1          1          1          1          1          1          1          1          1          1          1          1          1          1          1          1          1          1          1          1          1          1          1          1          1          1          1          1          1          1          1          1          1          1          1          1          1          1          1          1          1          1          1          1          1          1          1          1          1          1          1          1          1          1          1          1          1          1          1          1          1          1          1          1          1          1          1          1          1          1          1          1          1          1          1          1          1          1          1          1          1          1          1          1          1          1          1          1          1          1          1          1          1          1          1          1          1          1          1          1          1          1          1          1          1          1          1          1          1          1          1          1          1          1          1          1          1          1          1          1          1          1          1          1          1          1          1          1          1          1          1          1          1          1          1          1          1          1          1          1          1          1          1          1          1          1          1          1          1          1          1          1          1          1          1          1          1          1          1          1          1          1          1          1          1          1          1          1          1          1          1          1          1          1          1          1          1          1          1          1          1          1          1          1          1          1          1          1          1          1          1          1          1          1          1          1          1          1          1          1          1          1          1          1          1          1          1          1          1          1          1          1          1          1          1          1          1          1          1          1          1          1          1          1          1          1          1          1          1          1          1          1          1          1          1          1          1          1          1          1          1          1          1          1          1          1          1          1          1          1          1          1          1          1          1          1          1          1          1          1          1          1          1          1          1          1          1          1          1          1          1          1          1          1          1          1          1          1          1          1          1          1          1          1          1          1          1          1          1          1          1          1          1          1          1          1          1          1          1          1          1          1          1          1          1          1          1          1          1          1          1          1          1          1          1          1          1          1          1          1          1          1          1          1          1          1          1          1          1          1          1          1          1          1          1          1          1          1          1          1          1          1          1          1          1          1          1          1          1          1          1          1          1          1          1          1          1          1          1          1          1          1          1          1          1          1          1          1          1          1          1          1          1          1          1          1          1          1          1          1          1          1          1          1          1          1          1          1          1          1          1          1          1          1          1          1          1          1          1          1          1          1          1          1          1          1          1          1          1          1          1          1          1          1          1          1          1          1          1          1          1          1          1          1          1          1          1          1          1          1          1          1          1          1          1          1          1          1          1          1          1          1          1          1          1          1          1          1          1          1          1          1          1          1          1          1          1          1          1          1          1          1          1          1          1          1          1          1          1          1          1          1          1          1          1          1          1          1          1          1          1          1          1          1          1          1          1          1          1          1          1          1          1          1          1          1          1          1          1          1          1          1          1          1          1          1          1          1          1          1          1          1          1          1          1          1          1          1          1          1          1          1          1          1          1          1          1          1          1          1          1          1          1          1          1          1          1          1          1          1          1          1          1          1          1          1          1          1          1          1          1          1          1          1          1          1          1          1          1          1          1          1          1          1          1          1          1          1          1          1          1          1          1          1          1          1          1          1          1          1          1          1          1          1          1          1          1          1          1          1          1          1          1          1          1          1          1          1          1          1          1          1          1          1          1          1          1          1          1          1          1          1          1          1          1          1          1          1          1          1          1          1          1          1          1          1          1          1          1          1          1          1          1          1          1          1          1          1          1          1          1          1          1          1          1          1          1          1          1          1          1          1          1          1          1          1          1          1          1          1          1          1          1          1          1          1          1          1          1          1          1          1          1          1          1          1          1          1          1          1          1          1          1          1          1          1          1          1          1          1          1          1          1          1          1          1          1          1          1          1          1          1          1          1          1          1          1          1          1          1          1          1          1          1          1          1          1          1          1          1          1          1          1          1          1          1          1          1          1          1          1          1          1          1          1          1          1          1          1          1          1          1          1          1          1          1          1          1          1          1          1          1          1          1          1          1          1          1          1          1          1          1          1          1          1          1          1          1          1          1          1          1          1          1          1          1          1          1          1          1          1          1          1          1          1          1          1          1          1          1          1          1          1          1          1          1          1          1          1          1          1          1          1          1          1          1          1          1          1          1          1          1          1          1          1          1          1          1          1          1          1          1          1          1          1          1          1          1          1          1          1          1          1          1          1          1          1          1          1          1          1          1          1          1          1          1          1          1          1          1          1          1          1          1          1          1          1          1          1          1          1          1          1          1          1          1          1          1          1          1          1          1          1          1          1          1          1          1          1          1          1          1          1          1          1          1          1          1          1          1          1          1          1          1          1          1          1          1          1          1          1          1          1          1          1          1          1          1          1          1          1          1          1          1          1          1          1          1          1          1          1          1          1          1          1          1          1          1          1          1          1          1          1          1          1          1          1          1          1          1          1          1          1          1          1          1          1          1          1          1 </DataArray>
</CellData>
<PointData>
<DataArray type="Float64"                                    Name="u"                                                      NumberOfComponents=" 3" format="ascii">
              0.000001698               0.000000000               0.999999998              -0.000009725              -0.000000000               0.999999998              -0.000015462              -0.000000000               0.999999998              -0.000019043               0.000000000               0.999999998              -0.000021808              -0.000000000               0.999999998              -0.000024536              -0.000000000               0.999999998              -0.000027573              -0.000000000               0.999999998              -0.000030956              -0.000000000               0.999999998              -0.000034764               0.000000000               0.999999998              -0.000039065              -0.000000000               0.999999998              -0.000043852               0.000000000               0.999999998              -0.000049128              -0.000000000               0.999999998              -0.000054912              -0.000000000               0.999999998              -0.000061147              -0.000000000               0.999999998              -0.000067885              -0.000000000               0.999999998              -0.000075162              -0.000000000               0.999999998              -0.000082972               0.000000000               0.999999998               0.000001644               0.000028163               0.999999998              -0.000009407               0.000025335               0.999999998              -0.000014944               0.000024767               0.999999998              -0.000018378               0.000025460               0.999999998              -0.000021109               0.000026945               0.999999998              -0.000023870               0.000028986               0.999999998              -0.000026928               0.000031439               0.999999998              -0.000030413               0.000034137               0.999999998              -0.000034403               0.000037077               0.999999998              -0.000038863               0.000040207               0.999999998              -0.000043818               0.000043523               0.999999998              -0.000049274               0.000047023               0.999999998              -0.000055203               0.000050601               0.999999998              -0.000061597               0.000054289               0.999999998              -0.000068469               0.000058220               0.999999998              -0.000075883               0.000062238               0.999999998              -0.000083840               0.000066274               0.999999998               0.000001449               0.000056014               0.999999998              -0.000008422               0.000050354               0.999999998              -0.000013301               0.000049280               0.999999998              -0.000016450               0.000050773               0.999999998              -0.000019157               0.000053882               0.999999998              -0.000022015               0.000058044               0.999999998              -0.000025335               0.000062920               0.999999998              -0.000029181               0.000068404               0.999999998              -0.000033542               0.000074313               0.999999998              -0.000038430               0.000080625               0.999999998              -0.000043858               0.000087195               0.999999998              -0.000049791               0.000094147               0.999999998              -0.000056216               0.000101257               0.999999998              -0.000063088               0.000108620               0.999999998              -0.000070426               0.000116467               0.999999998              -0.000078277               0.000124715               0.999999998              -0.000086650               0.000132960               0.999999998               0.000001114               0.000083298               0.999999998              -0.000006824               0.000074793               0.999999998              -0.000010725               0.000073396               0.999999998              -0.000013530               0.000075862               0.999999998              -0.000016336               0.000080692               0.999999998              -0.000019557               0.000087065               0.999999998              -0.000023343               0.000094462               0.999999998              -0.000027741               0.000102664               0.999999998              -0.000032805               0.000111574               0.999999998              -0.000038459               0.000121010               0.999999998              -0.000044654               0.000130900               0.999999998              -0.000051336               0.000141266               0.999999998              -0.000058496               0.000151957               0.999999998              -0.000066221               0.000163048               0.999999998              -0.000074456               0.000174866               0.999999998              -0.000083158               0.000187259               0.999999998              -0.000092288               0.000199851               0.999999998               0.000000762               0.000109788               0.999999998              -0.000004592               0.000098482               0.999999998              -0.000007458               0.000096957               0.999999998              -0.000010076               0.000100562               0.999999998              -0.000013153               0.000107252               0.999999998              -0.000016940               0.000115847               0.999999998              -0.000021483               0.000125852               0.999999998              -0.000026814               0.000136914               0.999999998              -0.000032889               0.000148865               0.999999998              -0.000039570               0.000161475               0.999999998              -0.000046775               0.000174608               0.999999998              -0.000054480               0.000188323               0.999999998              -0.000062766               0.000202704               0.999999998              -0.000071615               0.000217606               0.999999998              -0.000080959               0.000233191               0.999999998              -0.000090643               0.000249459               0.999999998              -0.000100553               0.000265887               0.999999998               0.000000425               0.000135193               0.999999998              -0.000001891               0.000121240               0.999999998              -0.000003806               0.000119846               0.999999998              -0.000006497               0.000124823               0.999999998              -0.000010176               0.000133424               0.999999998              -0.000014841               0.000144394               0.999999998              -0.000020495               0.000157013               0.999999998              -0.000026987               0.000170910               0.999999998              -0.000034209               0.000185852               0.999999998              -0.000042030               0.000201586               0.999999998              -0.000050424               0.000218018               0.999999998              -0.000059363               0.000235095               0.999999998              -0.000068844               0.000253023               0.999999998              -0.000078872               0.000271626               0.999999998              -0.000089272               0.000290779               0.999999998              -0.000099863               0.000310367               0.999999998              -0.000110604               0.000330240               0.999999998               0.000000151               0.000159273               0.999999998               0.000001116               0.000143028               0.999999998              -0.000000111               0.000142056               0.999999998              -0.000003208               0.000148497               0.999999998              -0.000007800               0.000159040               0.999999998              -0.000013641               0.000172327               0.999999998              -0.000020533               0.000187604               0.999999998              -0.000028298               0.000204316               0.999999998              -0.000036754               0.000222166               0.999999998              -0.000045861               0.000241022               0.999999998              -0.000055495               0.000260727               0.999999998              -0.000065698               0.000281226               0.999999998              -0.000076363               0.000302784               0.999999998              -0.000087383               0.000325055               0.999999998              -0.000098628               0.000347714               0.999999998              -0.000110050               0.000370691               0.999999998              -0.000121680               0.000394172               0.999999998              -0.000000084               0.000181764               0.999999998               0.000004215               0.000163846               0.999999998               0.000003292               0.000163500               0.999999998              -0.000000560               0.000171346               0.999999998              -0.000006278               0.000183851               0.999999998              -0.000013391               0.000199519               0.999999998              -0.000021625               0.000217408               0.999999998              -0.000030692               0.000236918               0.999999998              -0.000040417               0.000257660               0.999999998              -0.000050710               0.000279718               0.999999998              -0.000061443               0.000302851               0.999999998              -0.000072679               0.000327118               0.999999998              -0.000084330               0.000352420               0.999999998              -0.000096279               0.000378335               0.999999998              -0.000108418               0.000404586               0.999999998              -0.000120822               0.000431274               0.999999998              -0.000133507               0.000458588               0.999999998              -0.000000399               0.000202290               0.999999998               0.000007253               0.000183675               0.999999998               0.000006113               0.000183961               0.999999998               0.000001342               0.000193199               0.999999998              -0.000005638               0.000207668               0.999999998              -0.000014037               0.000225755               0.999999998              -0.000023582               0.000246277               0.999999998              -0.000033871               0.000268597               0.999999998              -0.000044721               0.000292445               0.999999998              -0.000056013               0.000317871               0.999999998              -0.000067753               0.000344759               0.999999998              -0.000080067               0.000372891               0.999999998              -0.000092765               0.000401999               0.999999998              -0.000105587               0.000431769               0.999999998              -0.000118574               0.000462009               0.999999998              -0.000131871               0.000492755               0.999999998              -0.000145380               0.000523951               0.999999998              -0.000001006               0.000221505               0.999999998               0.000009197               0.000204275               0.999999998               0.000009267               0.000202573               0.999999998               0.000005336               0.000209372               0.999999998              -0.000000753               0.000221429               0.999999998              -0.000008218               0.000237160               0.999999998              -0.000016819               0.000255462               0.999999998              -0.000026011               0.000275657               0.999999998              -0.000035622               0.000297363               0.999999998              -0.000045639               0.000320507               0.999999998              -0.000055964               0.000345045               0.999999998              -0.000066770               0.000370905               0.999999998              -0.000077937               0.000397969               0.999999998              -0.000089289               0.000425964               0.999999998              -0.000100590               0.000454617               0.999999998              -0.000111938               0.000483881               0.999999998              -0.000123427               0.000513682               0.999999998              -0.000001361               0.000238884               0.999999998               0.000010223               0.000223984               0.999999998               0.000011509               0.000221383               0.999999998               0.000008636               0.000226270               0.999999998               0.000003601               0.000236199               0.999999998              -0.000002861               0.000249730               0.999999998              -0.000010352               0.000266005               0.999999998              -0.000018409               0.000284248               0.999999998              -0.000026858               0.000304009               0.999999998              -0.000035582               0.000325052               0.999999998              -0.000044678               0.000347405               0.999999998              -0.000053957               0.000371012               0.999999998              -0.000063465               0.000395956               0.999999998              -0.000073124               0.000422011               0.999999998              -0.000082796               0.000448930               0.999999998              -0.000092372               0.000476450               0.999999998              -0.000101916               0.000504547               0.999999998              -0.000001506               0.000254073               0.999999998               0.000010314               0.000242273               0.999999998               0.000012568               0.000239627               0.999999998               0.000010831               0.000243273               0.999999998               0.000006912               0.000251494               0.999999998               0.000001648               0.000263186               0.999999998              -0.000004630               0.000277595               0.999999998              -0.000011457               0.000294115               0.999999998              -0.000018682               0.000312202               0.999999998              -0.000026286               0.000331534               0.999999998              -0.000034046               0.000352016               0.999999998              -0.000041869               0.000373739               0.999999998              -0.000049665               0.000396734               0.999999998              -0.000057618               0.000420886               0.999999998              -0.000065376               0.000446024               0.999999998              -0.000072937               0.000471829               0.999999998              -0.000080212               0.000498258               0.999999998              -0.000001451               0.000266821               0.999999998               0.000009491               0.000258465               0.999999998               0.000012316               0.000256439               0.999999998               0.000011552               0.000259501               0.999999998               0.000008756               0.000266524               0.999999998               0.000004739               0.000276802               0.999999998              -0.000000214               0.000289607               0.999999998              -0.000005771               0.000304645               0.999999998              -0.000011754               0.000321279               0.999999998              -0.000018066               0.000339209               0.999999998              -0.000024525               0.000358284               0.999999998              -0.000030891               0.000378484               0.999999998              -0.000037077               0.000399819               0.999999998              -0.000043106               0.000422410               0.999999998              -0.000048986               0.000446030               0.999999998              -0.000054375               0.000470434               0.999999998              -0.000059164               0.000495447               0.999999998              -0.000001242               0.000276893               0.999999998               0.000007868               0.000271884               0.999999998               0.000010714               0.000270859               0.999999998               0.000010604               0.000273835               0.999999998               0.000008857               0.000280223               0.999999998               0.000005968               0.000289428               0.999999998               0.000002376               0.000301040               0.999999998              -0.000001872               0.000314782               0.999999998              -0.000006479               0.000330330               0.999999998              -0.000011346               0.000347222               0.999999998              -0.000016352               0.000365246               0.999999998              -0.000021253               0.000384428               0.999999998              -0.000025847               0.000404701               0.999999998              -0.000030097               0.000426102               0.999999998              -0.000034023               0.000448543               0.999999998              -0.000037472               0.000471833               0.999999998              -0.000040052               0.000495745               0.999999998              -0.000000902               0.000284168               0.999999998               0.000005596               0.000281893               0.999999998               0.000007903               0.000281974               0.999999998               0.000008115               0.000285139               0.999999998               0.000007127               0.000291223               0.999999998               0.000005320               0.000299844               0.999999998               0.000002987               0.000310711               0.999999998               0.000000170               0.000323575               0.999999998              -0.000003009               0.000338284               0.999999998              -0.000006336               0.000354434               0.999999998              -0.000009612               0.000371852               0.999999998              -0.000012850               0.000390515               0.999999998              -0.000015984               0.000410236               0.999999998              -0.000018769               0.000430925               0.999999998              -0.000021015               0.000452584               0.999999998              -0.000022882               0.000475091               0.999999998              -0.000023849               0.000498312               0.999999998              -0.000000468               0.000288574               0.999999998               0.000002896               0.000288076               0.999999998               0.000004193               0.000288988               0.999999998               0.000004409               0.000292421               0.999999998               0.000004004               0.000298427               0.999999998               0.000003140               0.000306790               0.999999998               0.000001990               0.000317244               0.999999998               0.000000542               0.000329602               0.999999998              -0.000001108               0.000343794               0.999999998              -0.000002765               0.000359566               0.999999998              -0.000004278               0.000376716               0.999999998              -0.000005912               0.000395020               0.999999998              -0.000007661               0.000414385               0.999999998              -0.000008980               0.000434757               0.999999998              -0.000010009               0.000456066               0.999999998              -0.000010738               0.000478229               0.999999998              -0.000010903               0.000501168               0.999999998               0.000000000               0.000290015               0.999999998               0.000000000               0.000290144               0.999999998               0.000000000               0.000291388               0.999999998               0.000000000               0.000294937               0.999999998              -0.000000000               0.000300901               0.999999998              -0.000000000               0.000309201               0.999999998               0.000000000               0.000319600               0.999999998              -0.000000000               0.000331791               0.999999998               0.000000000               0.000345731               0.999999998              -0.000000000               0.000361454               0.999999998              -0.000000000               0.000378560               0.999999998              -0.000000000               0.000396674               0.999999998               0.000000000               0.000415917               0.999999998              -0.000000000               0.000436147               0.999999998              -0.000000000               0.000457398               0.999999998               0.000000000               0.000479545               0.999999998               0.000000000               0.000502401               0.999999998               0.000001698               0.000000000               0.999999998              -0.000009725              -0.000000000               0.999999998              -0.000015462              -0.000000000               0.999999998              -0.000019043               0.000000000               0.999999998              -0.000021808              -0.000000000               0.999999998              -0.000024536              -0.000000000               0.999999998              -0.000027573              -0.000000000               0.999999998              -0.000030956              -0.000000000               0.999999998              -0.000034764               0.000000000               0.999999998              -0.000039065              -0.000000000               0.999999998              -0.000043852               0.000000000               0.999999998              -0.000049128              -0.000000000               0.999999998              -0.000054912              -0.000000000               0.999999998              -0.000061147              -0.000000000               0.999999998              -0.000067885              -0.000000000               0.999999998              -0.000075162              -0.000000000               0.999999998              -0.000082972               0.000000000               0.999999998               0.000001644              -0.000028163               0.999999998              -0.000009407              -0.000025335               0.999999998              -0.000014944              -0.000024767               0.999999998              -0.000018378              -0.000025460               0.999999998              -0.000021109              -0.000026945               0.999999998              -0.000023870              -0.000028986               0.999999998              -0.000026928              -0.000031439               0.999999998              -0.000030413              -0.000034137               0.999999998              -0.000034403              -0.000037077               0.999999998              -0.000038863              -0.000040207               0.999999998              -0.000043818              -0.000043523               0.999999998              -0.000049274              -0.000047023               0.999999998              -0.000055203              -0.000050601               0.999999998              -0.000061597              -0.000054289               0.999999998              -0.000068469              -0.000058220               0.999999998              -0.000075883              -0.000062238               0.999999998              -0.000083840              -0.000066274               0.999999998               0.000001449              -0.000056014               0.999999998              -0.000008422              -0.000050354               0.999999998              -0.000013301              -0.000049280               0.999999998              -0.000016450              -0.000050773               0.999999998              -0.000019157              -0.000053882               0.999999998              -0.000022015              -0.000058044               0.999999998              -0.000025335              -0.000062920               0.999999998              -0.000029181              -0.000068404               0.999999998              -0.000033542              -0.000074313               0.999999998              -0.000038430              -0.000080625               0.999999998              -0.000043858              -0.000087195               0.999999998              -0.000049791              -0.000094147               0.999999998              -0.000056216              -0.000101257               0.999999998              -0.000063088              -0.000108620               0.999999998              -0.000070426              -0.000116467               0.999999998              -0.000078277              -0.000124715               0.999999998              -0.000086650              -0.000132960               0.999999998               0.000001114              -0.000083298               0.999999998              -0.000006824              -0.000074793               0.999999998              -0.000010725              -0.000073396               0.999999998              -0.000013530              -0.000075862               0.999999998              -0.000016336              -0.000080692               0.999999998              -0.000019557              -0.000087065               0.999999998              -0.000023343              -0.000094462               0.999999998              -0.000027741              -0.000102664               0.999999998              -0.000032805              -0.000111574               0.999999998              -0.000038459              -0.000121010               0.999999998              -0.000044654              -0.000130900               0.999999998              -0.000051336              -0.000141266               0.999999998              -0.000058496              -0.000151957               0.999999998              -0.000066221              -0.000163048               0.999999998              -0.000074456              -0.000174866               0.999999998              -0.000083158              -0.000187259               0.999999998              -0.000092288              -0.000199851               0.999999998               0.000000762              -0.000109788               0.999999998              -0.000004592              -0.000098482               0.999999998              -0.000007458              -0.000096957               0.999999998              -0.000010076              -0.000100562               0.999999998              -0.000013153              -0.000107252               0.999999998              -0.000016940              -0.000115847               0.999999998              -0.000021483              -0.000125852               0.999999998              -0.000026814              -0.000136914               0.999999998              -0.000032889              -0.000148865               0.999999998              -0.000039570              -0.000161475               0.999999998              -0.000046775              -0.000174608               0.999999998              -0.000054480              -0.000188323               0.999999998              -0.000062766              -0.000202704               0.999999998              -0.000071615              -0.000217606               0.999999998              -0.000080959              -0.000233191               0.999999998              -0.000090643              -0.000249459               0.999999998              -0.000100553              -0.000265887               0.999999998               0.000000425              -0.000135193               0.999999998              -0.000001891              -0.000121240               0.999999998              -0.000003806              -0.000119846               0.999999998              -0.000006497              -0.000124823               0.999999998              -0.000010176              -0.000133424               0.999999998              -0.000014841              -0.000144394               0.999999998              -0.000020495              -0.000157013               0.999999998              -0.000026987              -0.000170910               0.999999998              -0.000034209              -0.000185852               0.999999998              -0.000042030              -0.000201586               0.999999998              -0.000050424              -0.000218018               0.999999998              -0.000059363              -0.000235095               0.999999998              -0.000068844              -0.000253023               0.999999998              -0.000078872              -0.000271626               0.999999998              -0.000089272              -0.000290779               0.999999998              -0.000099863              -0.000310367               0.999999998              -0.000110604              -0.000330240               0.999999998               0.000000151              -0.000159273               0.999999998               0.000001116              -0.000143028               0.999999998              -0.000000111              -0.000142056               0.999999998              -0.000003208              -0.000148497               0.999999998              -0.000007800              -0.000159040               0.999999998              -0.000013641              -0.000172327               0.999999998              -0.000020533              -0.000187604               0.999999998              -0.000028298              -0.000204316               0.999999998              -0.000036754              -0.000222166               0.999999998              -0.000045861              -0.000241022               0.999999998              -0.000055495              -0.000260727               0.999999998              -0.000065698              -0.000281226               0.999999998              -0.000076363              -0.000302784               0.999999998              -0.000087383              -0.000325055               0.999999998              -0.000098628              -0.000347714               0.999999998              -0.000110050              -0.000370691               0.999999998              -0.000121680              -0.000394172               0.999999998              -0.000000084              -0.000181764               0.999999998               0.000004215              -0.000163846               0.999999998               0.000003292              -0.000163500               0.999999998              -0.000000560              -0.000171346               0.999999998              -0.000006278              -0.000183851               0.999999998              -0.000013391              -0.000199519               0.999999998              -0.000021625              -0.000217408               0.999999998              -0.000030692              -0.000236918               0.999999998              -0.000040417              -0.000257660               0.999999998              -0.000050710              -0.000279718               0.999999998              -0.000061443              -0.000302851               0.999999998              -0.000072679              -0.000327118               0.999999998              -0.000084330              -0.000352420               0.999999998              -0.000096279              -0.000378335               0.999999998              -0.000108418              -0.000404586               0.999999998              -0.000120822              -0.000431274               0.999999998              -0.000133507              -0.000458588               0.999999998              -0.000000399              -0.000202290               0.999999998               0.000007253              -0.000183675               0.999999998               0.000006113              -0.000183961               0.999999998               0.000001342              -0.000193199               0.999999998              -0.000005638              -0.000207668               0.999999998              -0.000014037              -0.000225755               0.999999998              -0.000023582              -0.000246277               0.999999998              -0.000033871              -0.000268597               0.999999998              -0.000044721              -0.000292445               0.999999998              -0.000056013              -0.000317871               0.999999998              -0.000067753              -0.000344759               0.999999998              -0.000080067              -0.000372891               0.999999998              -0.000092765              -0.000401999               0.999999998              -0.000105587              -0.000431769               0.999999998              -0.000118574              -0.000462009               0.999999998              -0.000131871              -0.000492755               0.999999998              -0.000145380              -0.000523951               0.999999998              -0.000001006              -0.000221505               0.999999998               0.000009197              -0.000204275               0.999999998               0.000009267              -0.000202573               0.999999998               0.000005336              -0.000209372               0.999999998              -0.000000753              -0.000221429               0.999999998              -0.000008218              -0.000237160               0.999999998              -0.000016819              -0.000255462               0.999999998              -0.000026011              -0.000275657               0.999999998              -0.000035622              -0.000297363               0.999999998              -0.000045639              -0.000320507               0.999999998              -0.000055964              -0.000345045               0.999999998              -0.000066770              -0.000370905               0.999999998              -0.000077937              -0.000397969               0.999999998              -0.000089289              -0.000425964               0.999999998              -0.000100590              -0.000454617               0.999999998              -0.000111938              -0.000483881               0.999999998              -0.000123427              -0.000513682               0.999999998              -0.000001361              -0.000238884               0.999999998               0.000010223              -0.000223984               0.999999998               0.000011509              -0.000221383               0.999999998               0.000008636              -0.000226270               0.999999998               0.000003601              -0.000236199               0.999999998              -0.000002861              -0.000249730               0.999999998              -0.000010352              -0.000266005               0.999999998              -0.000018409              -0.000284248               0.999999998              -0.000026858              -0.000304009               0.999999998              -0.000035582              -0.000325052               0.999999998              -0.000044678              -0.000347405               0.999999998              -0.000053957              -0.000371012               0.999999998              -0.000063465              -0.000395956               0.999999998              -0.000073124              -0.000422011               0.999999998              -0.000082796              -0.000448930               0.999999998              -0.000092372              -0.000476450               0.999999998              -0.000101916              -0.000504547               0.999999998              -0.000001506              -0.000254073               0.999999998               0.000010314              -0.000242273               0.999999998               0.000012568              -0.000239627               0.999999998               0.000010831              -0.000243273               0.999999998               0.000006912              -0.000251494               0.999999998               0.000001648              -0.000263186               0.999999998              -0.000004630              -0.000277595               0.999999998              -0.000011457              -0.000294115               0.999999998              -0.000018682              -0.000312202               0.999999998              -0.000026286              -0.000331534               0.999999998              -0.000034046              -0.000352016               0.999999998              -0.000041869              -0.000373739               0.999999998              -0.000049665              -0.000396734               0.999999998              -0.000057618              -0.000420886               0.999999998              -0.000065376              -0.000446024               0.999999998              -0.000072937              -0.000471829               0.999999998              -0.000080212              -0.000498258               0.999999998              -0.000001451              -0.000266821               0.999999998               0.000009491              -0.000258465               0.999999998               0.000012316              -0.000256439               0.999999998               0.000011552              -0.000259501               0.999999998               0.000008756              -0.000266524               0.999999998               0.000004739              -0.000276802               0.999999998              -0.000000214              -0.000289607               0.999999998              -0.000005771              -0.000304645               0.999999998              -0.000011754              -0.000321279               0.999999998              -0.000018066              -0.000339209               0.999999998              -0.000024525              -0.000358284               0.999999998              -0.000030891              -0.000378484               0.999999998              -0.000037077              -0.000399819               0.999999998              -0.000043106              -0.000422410               0.999999998              -0.000048986              -0.000446030               0.999999998              -0.000054375              -0.000470434               0.999999998              -0.000059164              -0.000495447               0.999999998              -0.000001242              -0.000276893               0.999999998               0.000007868              -0.000271884               0.999999998               0.000010714              -0.000270859               0.999999998               0.000010604              -0.000273835               0.999999998               0.000008857              -0.000280223               0.999999998               0.000005968              -0.000289428               0.999999998               0.000002376              -0.000301040               0.999999998              -0.000001872              -0.000314782               0.999999998              -0.000006479              -0.000330330               0.999999998              -0.000011346              -0.000347222               0.999999998              -0.000016352              -0.000365246               0.999999998              -0.000021253              -0.000384428               0.999999998              -0.000025847              -0.000404701               0.999999998              -0.000030097              -0.000426102               0.999999998              -0.000034023              -0.000448543               0.999999998              -0.000037472              -0.000471833               0.999999998              -0.000040052              -0.000495745               0.999999998              -0.000000902              -0.000284168               0.999999998               0.000005596              -0.000281893               0.999999998               0.000007903              -0.000281974               0.999999998               0.000008115              -0.000285139               0.999999998               0.000007127              -0.000291223               0.999999998               0.000005320              -0.000299844               0.999999998               0.000002987              -0.000310711               0.999999998               0.000000170              -0.000323575               0.999999998              -0.000003009              -0.000338284               0.999999998              -0.000006336              -0.000354434               0.999999998              -0.000009612              -0.000371852               0.999999998              -0.000012850              -0.000390515               0.999999998              -0.000015984              -0.000410236               0.999999998              -0.000018769              -0.000430925               0.999999998              -0.000021015              -0.000452584               0.999999998              -0.000022882              -0.000475091               0.999999998              -0.000023849              -0.000498312               0.999999998              -0.000000468              -0.000288574               0.999999998               0.000002896              -0.000288076               0.999999998               0.000004193              -0.000288988               0.999999998               0.000004409              -0.000292421               0.999999998               0.000004004              -0.000298427               0.999999998               0.000003140              -0.000306790               0.999999998               0.000001990              -0.000317244               0.999999998               0.000000542              -0.000329602               0.999999998              -0.000001108              -0.000343794               0.999999998              -0.000002765              -0.000359566               0.999999998              -0.000004278              -0.000376716               0.999999998              -0.000005912              -0.000395020               0.999999998              -0.000007661              -0.000414385               0.999999998              -0.000008980              -0.000434757               0.999999998              -0.000010009              -0.000456066               0.999999998              -0.000010738              -0.000478229               0.999999998              -0.000010903              -0.000501168               0.999999998              -0.000000000              -0.000290015               0.999999998               0.000000000              -0.000290144               0.999999998               0.000000000              -0.000291388               0.999999998              -0.000000000              -0.000294937               0.999999998              -0.000000000              -0.000300901               0.999999998              -0.000000000              -0.000309201               0.999999998              -0.000000000              -0.000319600               0.999999998              -0.000000000              -0.000331791               0.999999998              -0.000000000              -0.000345731               0.999999998              -0.000000000              -0.000361454               0.999999998              -0.000000000              -0.000378560               0.999999998               0.000000000              -0.000396674               0.999999998               0.000000000              -0.000415917               0.999999998               0.000000000              -0.000436147               0.999999998               0.000000000              -0.000457398               0.999999998               0.000000000              -0.000479545               0.999999998               0.000000000              -0.000502401               0.999999998              -0.000001698               0.000000000               0.999999998               0.000009725              -0.000000000               0.999999998               0.000015462               0.000000000               0.999999998               0.000019043               0.000000000               0.999999998               0.000021808               0.000000000               0.999999998               0.000024536               0.000000000               0.999999998               0.000027573               0.000000000               0.999999998               0.000030956              -0.000000000               0.999999998               0.000034764               0.000000000               0.999999998               0.000039065               0.000000000               0.999999998               0.000043852               0.000000000               0.999999998               0.000049128               0.000000000               0.999999998               0.000054912               0.000000000               0.999999998               0.000061147               0.000000000               0.999999998               0.000067885              -0.000000000               0.999999998               0.000075162               0.000000000               0.999999998               0.000082972               0.000000000               0.999999998              -0.000001644              -0.000028163               0.999999998               0.000009407              -0.000025335               0.999999998               0.000014944              -0.000024767               0.999999998               0.000018378              -0.000025460               0.999999998               0.000021109              -0.000026945               0.999999998               0.000023870              -0.000028986               0.999999998               0.000026928              -0.000031439               0.999999998               0.000030413              -0.000034137               0.999999998               0.000034403              -0.000037077               0.999999998               0.000038863              -0.000040207               0.999999998               0.000043818              -0.000043523               0.999999998               0.000049274              -0.000047023               0.999999998               0.000055203              -0.000050601               0.999999998               0.000061597              -0.000054289               0.999999998               0.000068469              -0.000058220               0.999999998               0.000075883              -0.000062238               0.999999998               0.000083840              -0.000066274               0.999999998              -0.000001449              -0.000056014               0.999999998               0.000008422              -0.000050354               0.999999998               0.000013301              -0.000049280               0.999999998               0.000016450              -0.000050773               0.999999998               0.000019157              -0.000053882               0.999999998               0.000022015              -0.000058044               0.999999998               0.000025335              -0.000062920               0.999999998               0.000029181              -0.000068404               0.999999998               0.000033542              -0.000074313               0.999999998               0.000038430              -0.000080625               0.999999998               0.000043858              -0.000087195               0.999999998               0.000049791              -0.000094147               0.999999998               0.000056216              -0.000101257               0.999999998               0.000063088              -0.000108620               0.999999998               0.000070426              -0.000116467               0.999999998               0.000078277              -0.000124715               0.999999998               0.000086650              -0.000132960               0.999999998              -0.000001114              -0.000083298               0.999999998               0.000006824              -0.000074793               0.999999998               0.000010725              -0.000073396               0.999999998               0.000013530              -0.000075862               0.999999998               0.000016336              -0.000080692               0.999999998               0.000019557              -0.000087065               0.999999998               0.000023343              -0.000094462               0.999999998               0.000027741              -0.000102664               0.999999998               0.000032805              -0.000111574               0.999999998               0.000038459              -0.000121010               0.999999998               0.000044654              -0.000130900               0.999999998               0.000051336              -0.000141266               0.999999998               0.000058496              -0.000151957               0.999999998               0.000066221              -0.000163048               0.999999998               0.000074456              -0.000174866               0.999999998               0.000083158              -0.000187259               0.999999998               0.000092288              -0.000199851               0.999999998              -0.000000762              -0.000109788               0.999999998               0.000004592              -0.000098482               0.999999998               0.000007458              -0.000096957               0.999999998               0.000010076              -0.000100562               0.999999998               0.000013153              -0.000107252               0.999999998               0.000016940              -0.000115847               0.999999998               0.000021483              -0.000125852               0.999999998               0.000026814              -0.000136914               0.999999998               0.000032889              -0.000148865               0.999999998               0.000039570              -0.000161475               0.999999998               0.000046775              -0.000174608               0.999999998               0.000054480              -0.000188323               0.999999998               0.000062766              -0.000202704               0.999999998               0.000071615              -0.000217606               0.999999998               0.000080959              -0.000233191               0.999999998               0.000090643              -0.000249459               0.999999998               0.000100553              -0.000265887               0.999999998              -0.000000425              -0.000135193               0.999999998               0.000001891              -0.000121240               0.999999998               0.000003806              -0.000119846               0.999999998               0.000006497              -0.000124823               0.999999998               0.000010176              -0.000133424               0.999999998               0.000014841              -0.000144394               0.999999998               0.000020495              -0.000157013               0.999999998               0.000026987              -0.000170910               0.999999998               0.000034209              -0.000185852               0.999999998               0.000042030              -0.000201586               0.999999998               0.000050424              -0.000218018               0.999999998               0.000059363              -0.000235095               0.999999998               0.000068844              -0.000253023               0.999999998               0.000078872              -0.000271626               0.999999998               0.000089272              -0.000290779               0.999999998               0.000099863              -0.000310367               0.999999998               0.000110604              -0.000330240               0.999999998              -0.000000151              -0.000159273               0.999999998              -0.000001116              -0.000143028               0.999999998               0.000000111              -0.000142056               0.999999998               0.000003208              -0.000148497               0.999999998               0.000007800              -0.000159040               0.999999998               0.000013641              -0.000172327               0.999999998               0.000020533              -0.000187604               0.999999998               0.000028298              -0.000204316               0.999999998               0.000036754              -0.000222166               0.999999998               0.000045861              -0.000241022               0.999999998               0.000055495              -0.000260727               0.999999998               0.000065698              -0.000281226               0.999999998               0.000076363              -0.000302784               0.999999998               0.000087383              -0.000325055               0.999999998               0.000098628              -0.000347714               0.999999998               0.000110050              -0.000370691               0.999999998               0.000121680              -0.000394172               0.999999998               0.000000084              -0.000181764               0.999999998              -0.000004215              -0.000163846               0.999999998              -0.000003292              -0.000163500               0.999999998               0.000000560              -0.000171346               0.999999998               0.000006278              -0.000183851               0.999999998               0.000013391              -0.000199519               0.999999998               0.000021625              -0.000217408               0.999999998               0.000030692              -0.000236918               0.999999998               0.000040417              -0.000257660               0.999999998               0.000050710              -0.000279718               0.999999998               0.000061443              -0.000302851               0.999999998               0.000072679              -0.000327118               0.999999998               0.000084330              -0.000352420               0.999999998               0.000096279              -0.000378335               0.999999998               0.000108418              -0.000404586               0.999999998               0.000120822              -0.000431274               0.999999998               0.000133507              -0.000458588               0.999999998               0.000000399              -0.000202290               0.999999998              -0.000007253              -0.000183675               0.999999998              -0.000006113              -0.000183961               0.999999998              -0.000001342              -0.000193199               0.999999998               0.000005638              -0.000207668               0.999999998               0.000014037              -0.000225755               0.999999998               0.000023582              -0.000246277               0.999999998               0.000033871              -0.000268597               0.999999998               0.000044721              -0.000292445               0.999999998               0.000056013              -0.000317871               0.999999998               0.000067753              -0.000344759               0.999999998               0.000080067              -0.000372891               0.999999998               0.000092765              -0.000401999               0.999999998               0.000105587              -0.000431769               0.999999998               0.000118574              -0.000462009               0.999999998               0.000131871              -0.000492755               0.999999998               0.000145380              -0.000523951               0.999999998               0.000001006              -0.000221505               0.999999998              -0.000009197              -0.000204275               0.999999998              -0.000009267              -0.000202573               0.999999998              -0.000005336              -0.000209372               0.999999998               0.000000753              -0.000221429               0.999999998               0.000008218              -0.000237160               0.999999998               0.000016819              -0.000255462               0.999999998               0.000026011              -0.000275657               0.999999998               0.000035622              -0.000297363               0.999999998               0.000045639              -0.000320507               0.999999998               0.000055964              -0.000345045               0.999999998               0.000066770              -0.000370905               0.999999998               0.000077937              -0.000397969               0.999999998               0.000089289              -0.000425964               0.999999998               0.000100590              -0.000454617               0.999999998               0.000111938              -0.000483881               0.999999998               0.000123427              -0.000513682               0.999999998               0.000001361              -0.000238884               0.999999998              -0.000010223              -0.000223984               0.999999998              -0.000011509              -0.000221383               0.999999998              -0.000008636              -0.000226270               0.999999998              -0.000003601              -0.000236199               0.999999998               0.000002861              -0.000249730               0.999999998               0.000010352              -0.000266005               0.999999998               0.000018409              -0.000284248               0.999999998               0.000026858              -0.000304009               0.999999998               0.000035582              -0.000325052               0.999999998               0.000044678              -0.000347405               0.999999998               0.000053957              -0.000371012               0.999999998               0.000063465              -0.000395956               0.999999998               0.000073124              -0.000422011               0.999999998               0.000082796              -0.000448930               0.999999998               0.000092372              -0.000476450               0.999999998               0.000101916              -0.000504547               0.999999998               0.000001506              -0.000254073               0.999999998              -0.000010314              -0.000242273               0.999999998              -0.000012568              -0.000239627               0.999999998              -0.000010831              -0.000243273               0.999999998              -0.000006912              -0.000251494               0.999999998              -0.000001648              -0.000263186               0.999999998               0.000004630              -0.000277595               0.999999998               0.000011457              -0.000294115               0.999999998               0.000018682              -0.000312202               0.999999998               0.000026286              -0.000331534               0.999999998               0.000034046              -0.000352016               0.999999998               0.000041869              -0.000373739               0.999999998               0.000049665              -0.000396734               0.999999998               0.000057618              -0.000420886               0.999999998               0.000065376              -0.000446024               0.999999998               0.000072937              -0.000471829               0.999999998               0.000080212              -0.000498258               0.999999998               0.000001451              -0.000266821               0.999999998              -0.000009491              -0.000258465               0.999999998              -0.000012316              -0.000256439               0.999999998              -0.000011552              -0.000259501               0.999999998              -0.000008756              -0.000266524               0.999999998              -0.000004739              -0.000276802               0.999999998               0.000000214              -0.000289607               0.999999998               0.000005771              -0.000304645               0.999999998               0.000011754              -0.000321279               0.999999998               0.000018066              -0.000339209               0.999999998               0.000024525              -0.000358284               0.999999998               0.000030891              -0.000378484               0.999999998               0.000037077              -0.000399819               0.999999998               0.000043106              -0.000422410               0.999999998               0.000048986              -0.000446030               0.999999998               0.000054375              -0.000470434               0.999999998               0.000059164              -0.000495447               0.999999998               0.000001242              -0.000276893               0.999999998              -0.000007868              -0.000271884               0.999999998              -0.000010714              -0.000270859               0.999999998              -0.000010604              -0.000273835               0.999999998              -0.000008857              -0.000280223               0.999999998              -0.000005968              -0.000289428               0.999999998              -0.000002376              -0.000301040               0.999999998               0.000001872              -0.000314782               0.999999998               0.000006479              -0.000330330               0.999999998               0.000011346              -0.000347222               0.999999998               0.000016352              -0.000365246               0.999999998               0.000021253              -0.000384428               0.999999998               0.000025847              -0.000404701               0.999999998               0.000030097              -0.000426102               0.999999998               0.000034023              -0.000448543               0.999999998               0.000037472              -0.000471833               0.999999998               0.000040052              -0.000495745               0.999999998               0.000000902              -0.000284168               0.999999998              -0.000005596              -0.000281893               0.999999998              -0.000007903              -0.000281974               0.999999998              -0.000008115              -0.000285139               0.999999998              -0.000007127              -0.000291223               0.999999998              -0.000005320              -0.000299844               0.999999998              -0.000002987              -0.000310711               0.999999998              -0.000000170              -0.000323575               0.999999998               0.000003009              -0.000338284               0.999999998               0.000006336              -0.000354434               0.999999998               0.000009612              -0.000371852               0.999999998               0.000012850              -0.000390515               0.999999998               0.000015984              -0.000410236               0.999999998               0.000018769              -0.000430925               0.999999998               0.000021015              -0.000452584               0.999999998               0.000022882              -0.000475091               0.999999998               0.000023849              -0.000498312               0.999999998               0.000000468              -0.000288574               0.999999998              -0.000002896              -0.000288076               0.999999998              -0.000004193              -0.000288988               0.999999998              -0.000004409              -0.000292421               0.999999998              -0.000004004              -0.000298427               0.999999998              -0.000003140              -0.000306790               0.999999998              -0.000001990              -0.000317244               0.999999998              -0.000000542              -0.000329602               0.999999998               0.000001108              -0.000343794               0.999999998               0.000002765              -0.000359566               0.999999998               0.000004278              -0.000376716               0.999999998               0.000005912              -0.000395020               0.999999998               0.000007661              -0.000414385               0.999999998               0.000008980              -0.000434757               0.999999998               0.000010009              -0.000456066               0.999999998               0.000010738              -0.000478229               0.999999998               0.000010903              -0.000501168               0.999999998              -0.000000000              -0.000290015               0.999999998               0.000000000              -0.000290144               0.999999998               0.000000000              -0.000291388               0.999999998              -0.000000000              -0.000294937               0.999999998              -0.000000000              -0.000300901               0.999999998              -0.000000000              -0.000309201               0.999999998              -0.000000000              -0.000319600               0.999999998              -0.000000000              -0.000331791               0.999999998              -0.000000000              -0.000345731               0.999999998              -0.000000000              -0.000361454               0.999999998              -0.000000000              -0.000378560               0.999999998               0.000000000              -0.000396674               0.999999998               0.000000000              -0.000415917               0.999999998               0.000000000              -0.000436147               0.999999998               0.000000000              -0.000457398               0.999999998               0.000000000              -0.000479545               0.999999998               0.000000000              -0.000502401               0.999999998              -0.000001698               0.000000000               0.999999998               0.000009725              -0.000000000               0.999999998               0.000015462               0.000000000               0.999999998               0.000019043               0.000000000               0.999999998               0.000021808               0.000000000               0.999999998               0.000024536               0.000000000               0.999999998               0.000027573               0.000000000               0.999999998               0.000030956              -0.000000000               0.999999998               0.000034764               0.000000000               0.999999998               0.000039065               0.000000000               0.999999998               0.000043852               0.000000000               0.999999998               0.000049128               0.000000000               0.999999998               0.000054912               0.000000000               0.999999998               0.000061147               0.000000000               0.999999998               0.000067885              -0.000000000               0.999999998               0.000075162               0.000000000               0.999999998               0.000082972               0.000000000               0.999999998              -0.000001644               0.000028163               0.999999998               0.000009407               0.000025335               0.999999998               0.000014944               0.000024767               0.999999998               0.000018378               0.000025460               0.999999998               0.000021109               0.000026945               0.999999998               0.000023870               0.000028986               0.999999998               0.000026928               0.000031439               0.999999998               0.000030413               0.000034137               0.999999998               0.000034403               0.000037077               0.999999998               0.000038863               0.000040207               0.999999998               0.000043818               0.000043523               0.999999998               0.000049274               0.000047023               0.999999998               0.000055203               0.000050601               0.999999998               0.000061597               0.000054289               0.999999998               0.000068469               0.000058220               0.999999998               0.000075883               0.000062238               0.999999998               0.000083840               0.000066274               0.999999998              -0.000001449               0.000056014               0.999999998               0.000008422               0.000050354               0.999999998               0.000013301               0.000049280               0.999999998               0.000016450               0.000050773               0.999999998               0.000019157               0.000053882               0.999999998               0.000022015               0.000058044               0.999999998               0.000025335               0.000062920               0.999999998               0.000029181               0.000068404               0.999999998               0.000033542               0.000074313               0.999999998               0.000038430               0.000080625               0.999999998               0.000043858               0.000087195               0.999999998               0.000049791               0.000094147               0.999999998               0.000056216               0.000101257               0.999999998               0.000063088               0.000108620               0.999999998               0.000070426               0.000116467               0.999999998               0.000078277               0.000124715               0.999999998               0.000086650               0.000132960               0.999999998              -0.000001114               0.000083298               0.999999998               0.000006824               0.000074793               0.999999998               0.000010725               0.000073396               0.999999998               0.000013530               0.000075862               0.999999998               0.000016336               0.000080692               0.999999998               0.000019557               0.000087065               0.999999998               0.000023343               0.000094462               0.999999998               0.000027741               0.000102664               0.999999998               0.000032805               0.000111574               0.999999998               0.000038459               0.000121010               0.999999998               0.000044654               0.000130900               0.999999998               0.000051336               0.000141266               0.999999998               0.000058496               0.000151957               0.999999998               0.000066221               0.000163048               0.999999998               0.000074456               0.000174866               0.999999998               0.000083158               0.000187259               0.999999998               0.000092288               0.000199851               0.999999998              -0.000000762               0.000109788               0.999999998               0.000004592               0.000098482               0.999999998               0.000007458               0.000096957               0.999999998               0.000010076               0.000100562               0.999999998               0.000013153               0.000107252               0.999999998               0.000016940               0.000115847               0.999999998               0.000021483               0.000125852               0.999999998               0.000026814               0.000136914               0.999999998               0.000032889               0.000148865               0.999999998               0.000039570               0.000161475               0.999999998               0.000046775               0.000174608               0.999999998               0.000054480               0.000188323               0.999999998               0.000062766               0.000202704               0.999999998               0.000071615               0.000217606               0.999999998               0.000080959               0.000233191               0.999999998               0.000090643               0.000249459               0.999999998               0.000100553               0.000265887               0.999999998              -0.000000425               0.000135193               0.999999998               0.000001891               0.000121240               0.999999998               0.000003806               0.000119846               0.999999998               0.000006497               0.000124823               0.999999998               0.000010176               0.000133424               0.999999998               0.000014841               0.000144394               0.999999998               0.000020495               0.000157013               0.999999998               0.000026987               0.000170910               0.999999998               0.000034209               0.000185852               0.999999998               0.000042030               0.000201586               0.999999998               0.000050424               0.000218018               0.999999998               0.000059363               0.000235095               0.999999998               0.000068844               0.000253023               0.999999998               0.000078872               0.000271626               0.999999998               0.000089272               0.000290779               0.999999998               0.000099863               0.000310367               0.999999998               0.000110604               0.000330240               0.999999998              -0.000000151               0.000159273               0.999999998              -0.000001116               0.000143028               0.999999998               0.000000111               0.000142056               0.999999998               0.000003208               0.000148497               0.999999998               0.000007800               0.000159040               0.999999998               0.000013641               0.000172327               0.999999998               0.000020533               0.000187604               0.999999998               0.000028298               0.000204316               0.999999998               0.000036754               0.000222166               0.999999998               0.000045861               0.000241022               0.999999998               0.000055495               0.000260727               0.999999998               0.000065698               0.000281226               0.999999998               0.000076363               0.000302784               0.999999998               0.000087383               0.000325055               0.999999998               0.000098628               0.000347714               0.999999998               0.000110050               0.000370691               0.999999998               0.000121680               0.000394172               0.999999998               0.000000084               0.000181764               0.999999998              -0.000004215               0.000163846               0.999999998              -0.000003292               0.000163500               0.999999998               0.000000560               0.000171346               0.999999998               0.000006278               0.000183851               0.999999998               0.000013391               0.000199519               0.999999998               0.000021625               0.000217408               0.999999998               0.000030692               0.000236918               0.999999998               0.000040417               0.000257660               0.999999998               0.000050710               0.000279718               0.999999998               0.000061443               0.000302851               0.999999998               0.000072679               0.000327118               0.999999998               0.000084330               0.000352420               0.999999998               0.000096279               0.000378335               0.999999998               0.000108418               0.000404586               0.999999998               0.000120822               0.000431274               0.999999998               0.000133507               0.000458588               0.999999998               0.000000399               0.000202290               0.999999998              -0.000007253               0.000183675               0.999999998              -0.000006113               0.000183961               0.999999998              -0.000001342               0.000193199               0.999999998               0.000005638               0.000207668               0.999999998               0.000014037               0.000225755               0.999999998               0.000023582               0.000246277               0.999999998               0.000033871               0.000268597               0.999999998               0.000044721               0.000292445               0.999999998               0.000056013               0.000317871               0.999999998               0.000067753               0.000344759               0.999999998               0.000080067               0.000372891               0.999999998               0.000092765               0.000401999               0.999999998               0.000105587               0.000431769               0.999999998               0.000118574               0.000462009               0.999999998               0.000131871               0.000492755               0.999999998               0.000145380               0.000523951               0.999999998               0.000001006               0.000221505               0.999999998              -0.000009197               0.000204275               0.999999998              -0.000009267               0.000202573               0.999999998              -0.000005336               0.000209372               0.999999998               0.000000753               0.000221429               0.999999998               0.000008218               0.000237160               0.999999998               0.000016819               0.000255462               0.999999998               0.000026011               0.000275657               0.999999998               0.000035622               0.000297363               0.999999998               0.000045639               0.000320507               0.999999998               0.000055964               0.000345045               0.999999998               0.000066770               0.000370905               0.999999998               0.000077937               0.000397969               0.999999998               0.000089289               0.000425964               0.999999998               0.000100590               0.000454617               0.999999998               0.000111938               0.000483881               0.999999998               0.000123427               0.000513682               0.999999998               0.000001361               0.000238884               0.999999998              -0.000010223               0.000223984               0.999999998              -0.000011509               0.000221383               0.999999998              -0.000008636               0.000226270               0.999999998              -0.000003601               0.000236199               0.999999998               0.000002861               0.000249730               0.999999998               0.000010352               0.000266005               0.999999998               0.000018409               0.000284248               0.999999998               0.000026858               0.000304009               0.999999998               0.000035582               0.000325052               0.999999998               0.000044678               0.000347405               0.999999998               0.000053957               0.000371012               0.999999998               0.000063465               0.000395956               0.999999998               0.000073124               0.000422011               0.999999998               0.000082796               0.000448930               0.999999998               0.000092372               0.000476450               0.999999998               0.000101916               0.000504547               0.999999998               0.000001506               0.000254073               0.999999998              -0.000010314               0.000242273               0.999999998              -0.000012568               0.000239627               0.999999998              -0.000010831               0.000243273               0.999999998              -0.000006912               0.000251494               0.999999998              -0.000001648               0.000263186               0.999999998               0.000004630               0.000277595               0.999999998               0.000011457               0.000294115               0.999999998               0.000018682               0.000312202               0.999999998               0.000026286               0.000331534               0.999999998               0.000034046               0.000352016               0.999999998               0.000041869               0.000373739               0.999999998               0.000049665               0.000396734               0.999999998               0.000057618               0.000420886               0.999999998               0.000065376               0.000446024               0.999999998               0.000072937               0.000471829               0.999999998               0.000080212               0.000498258               0.999999998               0.000001451               0.000266821               0.999999998              -0.000009491               0.000258465               0.999999998              -0.000012316               0.000256439               0.999999998              -0.000011552               0.000259501               0.999999998              -0.000008756               0.000266524               0.999999998              -0.000004739               0.000276802               0.999999998               0.000000214               0.000289607               0.999999998               0.000005771               0.000304645               0.999999998               0.000011754               0.000321279               0.999999998               0.000018066               0.000339209               0.999999998               0.000024525               0.000358284               0.999999998               0.000030891               0.000378484               0.999999998               0.000037077               0.000399819               0.999999998               0.000043106               0.000422410               0.999999998               0.000048986               0.000446030               0.999999998               0.000054375               0.000470434               0.999999998               0.000059164               0.000495447               0.999999998               0.000001242               0.000276893               0.999999998              -0.000007868               0.000271884               0.999999998              -0.000010714               0.000270859               0.999999998              -0.000010604               0.000273835               0.999999998              -0.000008857               0.000280223               0.999999998              -0.000005968               0.000289428               0.999999998              -0.000002376               0.000301040               0.999999998               0.000001872               0.000314782               0.999999998               0.000006479               0.000330330               0.999999998               0.000011346               0.000347222               0.999999998               0.000016352               0.000365246               0.999999998               0.000021253               0.000384428               0.999999998               0.000025847               0.000404701               0.999999998               0.000030097               0.000426102               0.999999998               0.000034023               0.000448543               0.999999998               0.000037472               0.000471833               0.999999998               0.000040052               0.000495745               0.999999998               0.000000902               0.000284168               0.999999998              -0.000005596               0.000281893               0.999999998              -0.000007903               0.000281974               0.999999998              -0.000008115               0.000285139               0.999999998              -0.000007127               0.000291223               0.999999998              -0.000005320               0.000299844               0.999999998              -0.000002987               0.000310711               0.999999998              -0.000000170               0.000323575               0.999999998               0.000003009               0.000338284               0.999999998               0.000006336               0.000354434               0.999999998               0.000009612               0.000371852               0.999999998               0.000012850               0.000390515               0.999999998               0.000015984               0.000410236               0.999999998               0.000018769               0.000430925               0.999999998               0.000021015               0.000452584               0.999999998               0.000022882               0.000475091               0.999999998               0.000023849               0.000498312               0.999999998               0.000000468               0.000288574               0.999999998              -0.000002896               0.000288076               0.999999998              -0.000004193               0.000288988               0.999999998              -0.000004409               0.000292421               0.999999998              -0.000004004               0.000298427               0.999999998              -0.000003140               0.000306790               0.999999998              -0.000001990               0.000317244               0.999999998              -0.000000542               0.000329602               0.999999998               0.000001108               0.000343794               0.999999998               0.000002765               0.000359566               0.999999998               0.000004278               0.000376716               0.999999998               0.000005912               0.000395020               0.999999998               0.000007661               0.000414385               0.999999998               0.000008980               0.000434757               0.999999998               0.000010009               0.000456066               0.999999998               0.000010738               0.000478229               0.999999998               0.000010903               0.000501168               0.999999998               0.000000000               0.000290015               0.999999998               0.000000000               0.000290144               0.999999998               0.000000000               0.000291388               0.999999998               0.000000000               0.000294937               0.999999998              -0.000000000               0.000300901               0.999999998              -0.000000000               0.000309201               0.999999998               0.000000000               0.000319600               0.999999998              -0.000000000               0.000331791               0.999999998               0.000000000               0.000345731               0.999999998              -0.000000000               0.000361454               0.999999998              -0.000000000               0.000378560               0.999999998              -0.000000000               0.000396674               0.999999998               0.000000000               0.000415917               0.999999998              -0.000000000               0.000436147               0.999999998              -0.000000000               0.000457398               0.999999998               0.000000000               0.000479545               0.999999998               0.000000000               0.000502401               0.999999998 </DataArray>
<DataArray type="Float64"                                    Name="defo"                                                      NumberOfComponents=" 3" format="ascii">
              0.000001698               0.000000000               0.999999998              -0.000009725              -0.000000000               0.999999998              -0.000015462              -0.000000000               0.999999998              -0.000019043               0.000000000               0.999999998              -0.000021808              -0.000000000               0.999999998              -0.000024536              -0.000000000               0.999999998              -0.000027573              -0.000000000               0.999999998              -0.000030956              -0.000000000               0.999999998              -0.000034764               0.000000000               0.999999998              -0.000039065              -0.000000000               0.999999998              -0.000043852               0.000000000               0.999999998              -0.000049128              -0.000000000               0.999999998              -0.000054912              -0.000000000               0.999999998              -0.000061147              -0.000000000               0.999999998              -0.000067885              -0.000000000               0.999999998              -0.000075162              -0.000000000               0.999999998              -0.000082972               0.000000000               0.999999998               0.000001644               0.000028163               0.999999998              -0.000009407               0.000025335               0.999999998              -0.000014944               0.000024767               0.999999998              -0.000018378               0.000025460               0.999999998              -0.000021109               0.000026945               0.999999998              -0.000023870               0.000028986               0.999999998              -0.000026928               0.000031439               0.999999998              -0.000030413               0.000034137               0.999999998              -0.000034403               0.000037077               0.999999998              -0.000038863               0.000040207               0.999999998              -0.000043818               0.000043523               0.999999998              -0.000049274               0.000047023               0.999999998              -0.000055203               0.000050601               0.999999998              -0.000061597               0.000054289               0.999999998              -0.000068469               0.000058220               0.999999998              -0.000075883               0.000062238               0.999999998              -0.000083840               0.000066274               0.999999998               0.000001449               0.000056014               0.999999998              -0.000008422               0.000050354               0.999999998              -0.000013301               0.000049280               0.999999998              -0.000016450               0.000050773               0.999999998              -0.000019157               0.000053882               0.999999998              -0.000022015               0.000058044               0.999999998              -0.000025335               0.000062920               0.999999998              -0.000029181               0.000068404               0.999999998              -0.000033542               0.000074313               0.999999998              -0.000038430               0.000080625               0.999999998              -0.000043858               0.000087195               0.999999998              -0.000049791               0.000094147               0.999999998              -0.000056216               0.000101257               0.999999998              -0.000063088               0.000108620               0.999999998              -0.000070426               0.000116467               0.999999998              -0.000078277               0.000124715               0.999999998              -0.000086650               0.000132960               0.999999998               0.000001114               0.000083298               0.999999998              -0.000006824               0.000074793               0.999999998              -0.000010725               0.000073396               0.999999998              -0.000013530               0.000075862               0.999999998              -0.000016336               0.000080692               0.999999998              -0.000019557               0.000087065               0.999999998              -0.000023343               0.000094462               0.999999998              -0.000027741               0.000102664               0.999999998              -0.000032805               0.000111574               0.999999998              -0.000038459               0.000121010               0.999999998              -0.000044654               0.000130900               0.999999998              -0.000051336               0.000141266               0.999999998              -0.000058496               0.000151957               0.999999998              -0.000066221               0.000163048               0.999999998              -0.000074456               0.000174866               0.999999998              -0.000083158               0.000187259               0.999999998              -0.000092288               0.000199851               0.999999998               0.000000762               0.000109788               0.999999998              -0.000004592               0.000098482               0.999999998              -0.000007458               0.000096957               0.999999998              -0.000010076               0.000100562               0.999999998              -0.000013153               0.000107252               0.999999998              -0.000016940               0.000115847               0.999999998              -0.000021483               0.000125852               0.999999998              -0.000026814               0.000136914               0.999999998              -0.000032889               0.000148865               0.999999998              -0.000039570               0.000161475               0.999999998              -0.000046775               0.000174608               0.999999998              -0.000054480               0.000188323               0.999999998              -0.000062766               0.000202704               0.999999998              -0.000071615               0.000217606               0.999999998              -0.000080959               0.000233191               0.999999998              -0.000090643               0.000249459               0.999999998              -0.000100553               0.000265887               0.999999998               0.000000425               0.000135193               0.999999998              -0.000001891               0.000121240               0.999999998              -0.000003806               0.000119846               0.999999998              -0.000006497               0.000124823               0.999999998              -0.000010176               0.000133424               0.999999998              -0.000014841               0.000144394               0.999999998              -0.000020495               0.000157013               0.999999998              -0.000026987               0.000170910               0.999999998              -0.000034209               0.000185852               0.999999998              -0.000042030               0.000201586               0.999999998              -0.000050424               0.000218018               0.999999998              -0.000059363               0.000235095               0.999999998              -0.000068844               0.000253023               0.999999998              -0.000078872               0.000271626               0.999999998              -0.000089272               0.000290779               0.999999998              -0.000099863               0.000310367               0.999999998              -0.000110604               0.000330240               0.999999998               0.000000151               0.000159273               0.999999998               0.000001116               0.000143028               0.999999998              -0.000000111               0.000142056               0.999999998              -0.000003208               0.000148497               0.999999998              -0.000007800               0.000159040               0.999999998              -0.000013641               0.000172327               0.999999998              -0.000020533               0.000187604               0.999999998              -0.000028298               0.000204316               0.999999998              -0.000036754               0.000222166               0.999999998              -0.000045861               0.000241022               0.999999998              -0.000055495               0.000260727               0.999999998              -0.000065698               0.000281226               0.999999998              -0.000076363               0.000302784               0.999999998              -0.000087383               0.000325055               0.999999998              -0.000098628               0.000347714               0.999999998              -0.000110050               0.000370691               0.999999998              -0.000121680               0.000394172               0.999999998              -0.000000084               0.000181764               0.999999998               0.000004215               0.000163846               0.999999998               0.000003292               0.000163500               0.999999998              -0.000000560               0.000171346               0.999999998              -0.000006278               0.000183851               0.999999998              -0.000013391               0.000199519               0.999999998              -0.000021625               0.000217408               0.999999998              -0.000030692               0.000236918               0.999999998              -0.000040417               0.000257660               0.999999998              -0.000050710               0.000279718               0.999999998              -0.000061443               0.000302851               0.999999998              -0.000072679               0.000327118               0.999999998              -0.000084330               0.000352420               0.999999998              -0.000096279               0.000378335               0.999999998              -0.000108418               0.000404586               0.999999998              -0.000120822               0.000431274               0.999999998              -0.000133507               0.000458588               0.999999998              -0.000000399               0.000202290               0.999999998               0.000007253               0.000183675               0.999999998               0.000006113               0.000183961               0.999999998               0.000001342               0.000193199               0.999999998              -0.000005638               0.000207668               0.999999998              -0.000014037               0.000225755               0.999999998              -0.000023582               0.000246277               0.999999998              -0.000033871               0.000268597               0.999999998              -0.000044721               0.000292445               0.999999998              -0.000056013               0.000317871               0.999999998              -0.000067753               0.000344759               0.999999998              -0.000080067               0.000372891               0.999999998              -0.000092765               0.000401999               0.999999998              -0.000105587               0.000431769               0.999999998              -0.000118574               0.000462009               0.999999998              -0.000131871               0.000492755               0.999999998              -0.000145380               0.000523951               0.999999998              -0.000001006               0.000221505               0.999999998               0.000009197               0.000204275               0.999999998               0.000009267               0.000202573               0.999999998               0.000005336               0.000209372               0.999999998              -0.000000753               0.000221429               0.999999998              -0.000008218               0.000237160               0.999999998              -0.000016819               0.000255462               0.999999998              -0.000026011               0.000275657               0.999999998              -0.000035622               0.000297363               0.999999998              -0.000045639               0.000320507               0.999999998              -0.000055964               0.000345045               0.999999998              -0.000066770               0.000370905               0.999999998              -0.000077937               0.000397969               0.999999998              -0.000089289               0.000425964               0.999999998              -0.000100590               0.000454617               0.999999998              -0.000111938               0.000483881               0.999999998              -0.000123427               0.000513682               0.999999998              -0.000001361               0.000238884               0.999999998               0.000010223               0.000223984               0.999999998               0.000011509               0.000221383               0.999999998               0.000008636               0.000226270               0.999999998               0.000003601               0.000236199               0.999999998              -0.000002861               0.000249730               0.999999998              -0.000010352               0.000266005               0.999999998              -0.000018409               0.000284248               0.999999998              -0.000026858               0.000304009               0.999999998              -0.000035582               0.000325052               0.999999998              -0.000044678               0.000347405               0.999999998              -0.000053957               0.000371012               0.999999998              -0.000063465               0.000395956               0.999999998              -0.000073124               0.000422011               0.999999998              -0.000082796               0.000448930               0.999999998              -0.000092372               0.000476450               0.999999998              -0.000101916               0.000504547               0.999999998              -0.000001506               0.000254073               0.999999998               0.000010314               0.000242273               0.999999998               0.000012568               0.000239627               0.999999998               0.000010831               0.000243273               0.999999998               0.000006912               0.000251494               0.999999998               0.000001648               0.000263186               0.999999998              -0.000004630               0.000277595               0.999999998              -0.000011457               0.000294115               0.999999998              -0.000018682               0.000312202               0.999999998              -0.000026286               0.000331534               0.999999998              -0.000034046               0.000352016               0.999999998              -0.000041869               0.000373739               0.999999998              -0.000049665               0.000396734               0.999999998              -0.000057618               0.000420886               0.999999998              -0.000065376               0.000446024               0.999999998              -0.000072937               0.000471829               0.999999998              -0.000080212               0.000498258               0.999999998              -0.000001451               0.000266821               0.999999998               0.000009491               0.000258465               0.999999998               0.000012316               0.000256439               0.999999998               0.000011552               0.000259501               0.999999998               0.000008756               0.000266524               0.999999998               0.000004739               0.000276802               0.999999998              -0.000000214               0.000289607               0.999999998              -0.000005771               0.000304645               0.999999998              -0.000011754               0.000321279               0.999999998              -0.000018066               0.000339209               0.999999998              -0.000024525               0.000358284               0.999999998              -0.000030891               0.000378484               0.999999998              -0.000037077               0.000399819               0.999999998              -0.000043106               0.000422410               0.999999998              -0.000048986               0.000446030               0.999999998              -0.000054375               0.000470434               0.999999998              -0.000059164               0.000495447               0.999999998              -0.000001242               0.000276893               0.999999998               0.000007868               0.000271884               0.999999998               0.000010714               0.000270859               0.999999998               0.000010604               0.000273835               0.999999998               0.000008857               0.000280223               0.999999998               0.000005968               0.000289428               0.999999998               0.000002376               0.000301040               0.999999998              -0.000001872               0.000314782               0.999999998              -0.000006479               0.000330330               0.999999998              -0.000011346               0.000347222               0.999999998              -0.000016352               0.000365246               0.999999998              -0.000021253               0.000384428               0.999999998              -0.000025847               0.000404701               0.999999998              -0.000030097               0.000426102               0.999999998              -0.000034023               0.000448543               0.999999998              -0.000037472               0.000471833               0.999999998              -0.000040052               0.000495745               0.999999998              -0.000000902               0.000284168               0.999999998               0.000005596               0.000281893               0.999999998               0.000007903               0.000281974               0.999999998               0.000008115               0.000285139               0.999999998               0.000007127               0.000291223               0.999999998               0.000005320               0.000299844               0.999999998               0.000002987               0.000310711               0.999999998               0.000000170               0.000323575               0.999999998              -0.000003009               0.000338284               0.999999998              -0.000006336               0.000354434               0.999999998              -0.000009612               0.000371852               0.999999998              -0.000012850               0.000390515               0.999999998              -0.000015984               0.000410236               0.999999998              -0.000018769               0.000430925               0.999999998              -0.000021015               0.000452584               0.999999998              -0.000022882               0.000475091               0.999999998              -0.000023849               0.000498312               0.999999998              -0.000000468               0.000288574               0.999999998               0.000002896               0.000288076               0.999999998               0.000004193               0.000288988               0.999999998               0.000004409               0.000292421               0.999999998               0.000004004               0.000298427               0.999999998               0.000003140               0.000306790               0.999999998               0.000001990               0.000317244               0.999999998               0.000000542               0.000329602               0.999999998              -0.000001108               0.000343794               0.999999998              -0.000002765               0.000359566               0.999999998              -0.000004278               0.000376716               0.999999998              -0.000005912               0.000395020               0.999999998              -0.000007661               0.000414385               0.999999998              -0.000008980               0.000434757               0.999999998              -0.000010009               0.000456066               0.999999998              -0.000010738               0.000478229               0.999999998              -0.000010903               0.000501168               0.999999998               0.000000000               0.000290015               0.999999998               0.000000000               0.000290144               0.999999998               0.000000000               0.000291388               0.999999998               0.000000000               0.000294937               0.999999998              -0.000000000               0.000300901               0.999999998              -0.000000000               0.000309201               0.999999998               0.000000000               0.000319600               0.999999998              -0.000000000               0.000331791               0.999999998               0.000000000               0.000345731               0.999999998              -0.000000000               0.000361454               0.999999998              -0.000000000               0.000378560               0.999999998              -0.000000000               0.000396674               0.999999998               0.000000000               0.000415917               0.999999998              -0.000000000               0.000436147               0.999999998              -0.000000000               0.000457398               0.999999998               0.000000000               0.000479545               0.999999998               0.000000000               0.000502401               0.999999998               0.000001698               0.000000000               0.999999998              -0.000009725              -0.000000000               0.999999998              -0.000015462              -0.000000000               0.999999998              -0.000019043               0.000000000               0.999999998              -0.000021808              -0.000000000               0.999999998              -0.000024536              -0.000000000               0.999999998              -0.000027573              -0.000000000               0.999999998              -0.000030956              -0.000000000               0.999999998              -0.000034764               0.000000000               0.999999998              -0.000039065              -0.000000000               0.999999998              -0.000043852               0.000000000               0.999999998              -0.000049128              -0.000000000               0.999999998              -0.000054912              -0.000000000               0.999999998              -0.000061147              -0.000000000               0.999999998              -0.000067885              -0.000000000               0.999999998              -0.000075162              -0.000000000               0.999999998              -0.000082972               0.000000000               0.999999998               0.000001644              -0.000028163               0.999999998              -0.000009407              -0.000025335               0.999999998              -0.000014944              -0.000024767               0.999999998              -0.000018378              -0.000025460               0.999999998              -0.000021109              -0.000026945               0.999999998              -0.000023870              -0.000028986               0.999999998              -0.000026928              -0.000031439               0.999999998              -0.000030413              -0.000034137               0.999999998              -0.000034403              -0.000037077               0.999999998              -0.000038863              -0.000040207               0.999999998              -0.000043818              -0.000043523               0.999999998              -0.000049274              -0.000047023               0.999999998              -0.000055203              -0.000050601               0.999999998              -0.000061597              -0.000054289               0.999999998              -0.000068469              -0.000058220               0.999999998              -0.000075883              -0.000062238               0.999999998              -0.000083840              -0.000066274               0.999999998               0.000001449              -0.000056014               0.999999998              -0.000008422              -0.000050354               0.999999998              -0.000013301              -0.000049280               0.999999998              -0.000016450              -0.000050773               0.999999998              -0.000019157              -0.000053882               0.999999998              -0.000022015              -0.000058044               0.999999998              -0.000025335              -0.000062920               0.999999998              -0.000029181              -0.000068404               0.999999998              -0.000033542              -0.000074313               0.999999998              -0.000038430              -0.000080625               0.999999998              -0.000043858              -0.000087195               0.999999998              -0.000049791              -0.000094147               0.999999998              -0.000056216              -0.000101257               0.999999998              -0.000063088              -0.000108620               0.999999998              -0.000070426              -0.000116467               0.999999998              -0.000078277              -0.000124715               0.999999998              -0.000086650              -0.000132960               0.999999998               0.000001114              -0.000083298               0.999999998              -0.000006824              -0.000074793               0.999999998              -0.000010725              -0.000073396               0.999999998              -0.000013530              -0.000075862               0.999999998              -0.000016336              -0.000080692               0.999999998              -0.000019557              -0.000087065               0.999999998              -0.000023343              -0.000094462               0.999999998              -0.000027741              -0.000102664               0.999999998              -0.000032805              -0.000111574               0.999999998              -0.000038459              -0.000121010               0.999999998              -0.000044654              -0.000130900               0.999999998              -0.000051336              -0.000141266               0.999999998              -0.000058496              -0.000151957               0.999999998              -0.000066221              -0.000163048               0.999999998              -0.000074456              -0.000174866               0.999999998              -0.000083158              -0.000187259               0.999999998              -0.000092288              -0.000199851               0.999999998               0.000000762              -0.000109788               0.999999998              -0.000004592              -0.000098482               0.999999998              -0.000007458              -0.000096957               0.999999998              -0.000010076              -0.000100562               0.999999998              -0.000013153              -0.000107252               0.999999998              -0.000016940              -0.000115847               0.999999998              -0.000021483              -0.000125852               0.999999998              -0.000026814              -0.000136914               0.999999998              -0.000032889              -0.000148865               0.999999998              -0.000039570              -0.000161475               0.999999998              -0.000046775              -0.000174608               0.999999998              -0.000054480              -0.000188323               0.999999998              -0.000062766              -0.000202704               0.999999998              -0.000071615              -0.000217606               0.999999998              -0.000080959              -0.000233191               0.999999998              -0.000090643              -0.000249459               0.999999998              -0.000100553              -0.000265887               0.999999998               0.000000425              -0.000135193               0.999999998              -0.000001891              -0.000121240               0.999999998              -0.000003806              -0.000119846               0.999999998              -0.000006497              -0.000124823               0.999999998              -0.000010176              -0.000133424               0.999999998              -0.000014841              -0.000144394               0.999999998              -0.000020495              -0.000157013               0.999999998              -0.000026987              -0.000170910               0.999999998              -0.000034209              -0.000185852               0.999999998              -0.000042030              -0.000201586               0.999999998              -0.000050424              -0.000218018               0.999999998              -0.000059363              -0.000235095               0.999999998              -0.000068844              -0.000253023               0.999999998              -0.000078872              -0.000271626               0.999999998              -0.000089272              -0.000290779               0.999999998              -0.000099863              -0.000310367               0.999999998              -0.000110604              -0.000330240               0.999999998               0.000000151              -0.000159273               0.999999998               0.000001116              -0.000143028               0.999999998              -0.000000111              -0.000142056               0.999999998              -0.000003208              -0.000148497               0.999999998              -0.000007800              -0.000159040               0.999999998              -0.000013641              -0.000172327               0.999999998              -0.000020533              -0.000187604               0.999999998              -0.000028298              -0.000204316               0.999999998              -0.000036754              -0.000222166               0.999999998              -0.000045861              -0.000241022               0.999999998              -0.000055495              -0.000260727               0.999999998              -0.000065698              -0.000281226               0.999999998              -0.000076363              -0.000302784               0.999999998              -0.000087383              -0.000325055               0.999999998              -0.000098628              -0.000347714               0.999999998              -0.000110050              -0.000370691               0.999999998              -0.000121680              -0.000394172               0.999999998              -0.000000084              -0.000181764               0.999999998               0.000004215              -0.000163846               0.999999998               0.000003292              -0.000163500               0.999999998              -0.000000560              -0.000171346               0.999999998              -0.000006278              -0.000183851               0.999999998              -0.000013391              -0.000199519               0.999999998              -0.000021625              -0.000217408               0.999999998              -0.000030692              -0.000236918               0.999999998              -0.000040417              -0.000257660               0.999999998              -0.000050710              -0.000279718               0.999999998              -0.000061443              -0.000302851               0.999999998              -0.000072679              -0.000327118               0.999999998              -0.000084330              -0.000352420               0.999999998              -0.000096279              -0.000378335               0.999999998              -0.000108418              -0.000404586               0.999999998              -0.000120822              -0.000431274               0.999999998              -0.000133507              -0.000458588               0.999999998              -0.000000399              -0.000202290               0.999999998               0.000007253              -0.000183675               0.999999998               0.000006113              -0.000183961               0.999999998               0.000001342              -0.000193199               0.999999998              -0.000005638              -0.000207668               0.999999998              -0.000014037              -0.000225755               0.999999998              -0.000023582              -0.000246277               0.999999998              -0.000033871              -0.000268597               0.999999998              -0.000044721              -0.000292445               0.999999998              -0.000056013              -0.000317871               0.999999998              -0.000067753              -0.000344759               0.999999998              -0.000080067              -0.000372891               0.999999998              -0.000092765              -0.000401999               0.999999998              -0.000105587              -0.000431769               0.999999998              -0.000118574              -0.000462009               0.999999998              -0.000131871              -0.000492755               0.999999998              -0.000145380              -0.000523951               0.999999998              -0.000001006              -0.000221505               0.999999998               0.000009197              -0.000204275               0.999999998               0.000009267              -0.000202573               0.999999998               0.000005336              -0.000209372               0.999999998              -0.000000753              -0.000221429               0.999999998              -0.000008218              -0.000237160               0.999999998              -0.000016819              -0.000255462               0.999999998              -0.000026011              -0.000275657               0.999999998              -0.000035622              -0.000297363               0.999999998              -0.000045639              -0.000320507               0.999999998              -0.000055964              -0.000345045               0.999999998              -0.000066770              -0.000370905               0.999999998              -0.000077937              -0.000397969               0.999999998              -0.000089289              -0.000425964               0.999999998              -0.000100590              -0.000454617               0.999999998              -0.000111938              -0.000483881               0.999999998              -0.000123427              -0.000513682               0.999999998              -0.000001361              -0.000238884               0.999999998               0.000010223              -0.000223984               0.999999998               0.000011509              -0.000221383               0.999999998               0.000008636              -0.000226270               0.999999998               0.000003601              -0.000236199               0.999999998              -0.000002861              -0.000249730               0.999999998              -0.000010352              -0.000266005               0.999999998              -0.000018409              -0.000284248               0.999999998              -0.000026858              -0.000304009               0.999999998              -0.000035582              -0.000325052               0.999999998              -0.000044678              -0.000347405               0.999999998              -0.000053957              -0.000371012               0.999999998              -0.000063465              -0.000395956               0.999999998              -0.000073124              -0.000422011               0.999999998              -0.000082796              -0.000448930               0.999999998              -0.000092372              -0.000476450               0.999999998              -0.000101916              -0.000504547               0.999999998              -0.000001506              -0.000254073               0.999999998               0.000010314              -0.000242273               0.999999998               0.000012568              -0.000239627               0.999999998               0.000010831              -0.000243273               0.999999998               0.000006912              -0.000251494               0.999999998               0.000001648              -0.000263186               0.999999998              -0.000004630              -0.000277595               0.999999998              -0.000011457              -0.000294115               0.999999998              -0.000018682              -0.000312202               0.999999998              -0.000026286              -0.000331534               0.999999998              -0.000034046              -0.000352016               0.999999998              -0.000041869              -0.000373739               0.999999998              -0.000049665              -0.000396734               0.999999998              -0.000057618              -0.000420886               0.999999998              -0.000065376              -0.000446024               0.999999998              -0.000072937              -0.000471829               0.999999998              -0.000080212              -0.000498258               0.999999998              -0.000001451              -0.000266821               0.999999998               0.000009491              -0.000258465               0.999999998               0.000012316              -0.000256439               0.999999998               0.000011552              -0.000259501               0.999999998               0.000008756              -0.000266524               0.999999998               0.000004739              -0.000276802               0.999999998              -0.000000214              -0.000289607               0.999999998              -0.000005771              -0.000304645               0.999999998              -0.000011754              -0.000321279               0.999999998              -0.000018066              -0.000339209               0.999999998              -0.000024525              -0.000358284               0.999999998              -0.000030891              -0.000378484               0.999999998              -0.000037077              -0.000399819               0.999999998              -0.000043106              -0.000422410               0.999999998              -0.000048986              -0.000446030               0.999999998              -0.000054375              -0.000470434               0.999999998              -0.000059164              -0.000495447               0.999999998              -0.000001242              -0.000276893               0.999999998               0.000007868              -0.000271884               0.999999998               0.000010714              -0.000270859               0.999999998               0.000010604              -0.000273835               0.999999998               0.000008857              -0.000280223               0.999999998               0.000005968              -0.000289428               0.999999998               0.000002376              -0.000301040               0.999999998              -0.000001872              -0.000314782               0.999999998              -0.000006479              -0.000330330               0.999999998              -0.000011346              -0.000347222               0.999999998              -0.000016352              -0.000365246               0.999999998              -0.000021253              -0.000384428               0.999999998              -0.000025847              -0.000404701               0.999999998              -0.000030097              -0.000426102               0.999999998              -0.000034023              -0.000448543               0.999999998              -0.000037472              -0.000471833               0.999999998              -0.000040052              -0.000495745               0.999999998              -0.000000902              -0.000284168               0.999999998               0.000005596              -0.000281893               0.999999998               0.000007903              -0.000281974               0.999999998               0.000008115              -0.000285139               0.999999998               0.000007127              -0.000291223               0.999999998               0.000005320              -0.000299844               0.999999998               0.000002987              -0.000310711               0.999999998               0.000000170              -0.000323575               0.999999998              -0.000003009              -0.000338284               0.999999998              -0.000006336              -0.000354434               0.999999998              -0.000009612              -0.000371852               0.999999998              -0.000012850              -0.000390515               0.999999998              -0.000015984              -0.000410236               0.999999998              -0.000018769              -0.000430925               0.999999998              -0.000021015              -0.000452584               0.999999998              -0.000022882              -0.000475091               0.999999998              -0.000023849              -0.000498312               0.999999998              -0.000000468              -0.000288574               0.999999998               0.000002896              -0.000288076               0.999999998               0.000004193              -0.000288988               0.999999998               0.000004409              -0.000292421               0.999999998               0.000004004              -0.000298427               0.999999998               0.000003140              -0.000306790               0.999999998               0.000001990              -0.000317244               0.999999998               0.000000542              -0.000329602               0.999999998              -0.000001108              -0.000343794               0.999999998              -0.000002765              -0.000359566               0.999999998              -0.000004278              -0.000376716               0.999999998              -0.000005912              -0.000395020               0.999999998              -0.000007661              -0.000414385               0.999999998              -0.000008980              -0.000434757               0.999999998              -0.000010009              -0.000456066               0.999999998              -0.000010738              -0.000478229               0.999999998              -0.000010903              -0.000501168               0.999999998              -0.000000000              -0.000290015               0.999999998               0.000000000              -0.000290144               0.999999998               0.000000000              -0.000291388               0.999999998              -0.000000000              -0.000294937               0.999999998              -0.000000000              -0.000300901               0.999999998              -0.000000000              -0.000309201               0.999999998              -0.000000000              -0.000319600               0.999999998              -0.000000000              -0.000331791               0.999999998              -0.000000000              -0.000345731               0.999999998              -0.000000000              -0.000361454               0.999999998              -0.000000000              -0.000378560               0.999999998               0.000000000              -0.000396674               0.999999998               0.000000000              -0.000415917               0.999999998               0.000000000              -0.000436147               0.999999998               0.000000000              -0.000457398               0.999999998               0.000000000              -0.000479545               0.999999998               0.000000000              -0.000502401               0.999999998              -0.000001698               0.000000000               0.999999998               0.000009725              -0.000000000               0.999999998               0.000015462               0.000000000               0.999999998               0.000019043               0.000000000               0.999999998               0.000021808               0.000000000               0.999999998               0.000024536               0.000000000               0.999999998               0.000027573               0.000000000               0.999999998               0.000030956              -0.000000000               0.999999998               0.000034764               0.000000000               0.999999998               0.000039065               0.000000000               0.999999998               0.000043852               0.000000000               0.999999998               0.000049128               0.000000000               0.999999998               0.000054912               0.000000000               0.999999998               0.000061147               0.000000000               0.999999998               0.000067885              -0.000000000               0.999999998               0.000075162               0.000000000               0.999999998               0.000082972               0.000000000               0.999999998              -0.000001644              -0.000028163               0.999999998               0.000009407              -0.000025335               0.999999998               0.000014944              -0.000024767               0.999999998               0.000018378              -0.000025460               0.999999998               0.000021109              -0.000026945               0.999999998               0.000023870              -0.000028986               0.999999998               0.000026928              -0.000031439               0.999999998               0.000030413              -0.000034137               0.999999998               0.000034403              -0.000037077               0.999999998               0.000038863              -0.000040207               0.999999998               0.000043818              -0.000043523               0.999999998               0.000049274              -0.000047023               0.999999998               0.000055203              -0.000050601               0.999999998               0.000061597              -0.000054289               0.999999998               0.000068469              -0.000058220               0.999999998               0.000075883              -0.000062238               0.999999998               0.000083840              -0.000066274               0.999999998              -0.000001449              -0.000056014               0.999999998               0.000008422              -0.000050354               0.999999998               0.000013301              -0.000049280               0.999999998               0.000016450              -0.000050773               0.999999998               0.000019157              -0.000053882               0.999999998               0.000022015              -0.000058044               0.999999998               0.000025335              -0.000062920               0.999999998               0.000029181              -0.000068404               0.999999998               0.000033542              -0.000074313               0.999999998               0.000038430              -0.000080625               0.999999998               0.000043858              -0.000087195               0.999999998               0.000049791              -0.000094147               0.999999998               0.000056216              -0.000101257               0.999999998               0.000063088              -0.000108620               0.999999998               0.000070426              -0.000116467               0.999999998               0.000078277              -0.000124715               0.999999998               0.000086650              -0.000132960               0.999999998              -0.000001114              -0.000083298               0.999999998               0.000006824              -0.000074793               0.999999998               0.000010725              -0.000073396               0.999999998               0.000013530              -0.000075862               0.999999998               0.000016336              -0.000080692               0.999999998               0.000019557              -0.000087065               0.999999998               0.000023343              -0.000094462               0.999999998               0.000027741              -0.000102664               0.999999998               0.000032805              -0.000111574               0.999999998               0.000038459              -0.000121010               0.999999998               0.000044654              -0.000130900               0.999999998               0.000051336              -0.000141266               0.999999998               0.000058496              -0.000151957               0.999999998               0.000066221              -0.000163048               0.999999998               0.000074456              -0.000174866               0.999999998               0.000083158              -0.000187259               0.999999998               0.000092288              -0.000199851               0.999999998              -0.000000762              -0.000109788               0.999999998               0.000004592              -0.000098482               0.999999998               0.000007458              -0.000096957               0.999999998               0.000010076              -0.000100562               0.999999998               0.000013153              -0.000107252               0.999999998               0.000016940              -0.000115847               0.999999998               0.000021483              -0.000125852               0.999999998               0.000026814              -0.000136914               0.999999998               0.000032889              -0.000148865               0.999999998               0.000039570              -0.000161475               0.999999998               0.000046775              -0.000174608               0.999999998               0.000054480              -0.000188323               0.999999998               0.000062766              -0.000202704               0.999999998               0.000071615              -0.000217606               0.999999998               0.000080959              -0.000233191               0.999999998               0.000090643              -0.000249459               0.999999998               0.000100553              -0.000265887               0.999999998              -0.000000425              -0.000135193               0.999999998               0.000001891              -0.000121240               0.999999998               0.000003806              -0.000119846               0.999999998               0.000006497              -0.000124823               0.999999998               0.000010176              -0.000133424               0.999999998               0.000014841              -0.000144394               0.999999998               0.000020495              -0.000157013               0.999999998               0.000026987              -0.000170910               0.999999998               0.000034209              -0.000185852               0.999999998               0.000042030              -0.000201586               0.999999998               0.000050424              -0.000218018               0.999999998               0.000059363              -0.000235095               0.999999998               0.000068844              -0.000253023               0.999999998               0.000078872              -0.000271626               0.999999998               0.000089272              -0.000290779               0.999999998               0.000099863              -0.000310367               0.999999998               0.000110604              -0.000330240               0.999999998              -0.000000151              -0.000159273               0.999999998              -0.000001116              -0.000143028               0.999999998               0.000000111              -0.000142056               0.999999998               0.000003208              -0.000148497               0.999999998               0.000007800              -0.000159040               0.999999998               0.000013641              -0.000172327               0.999999998               0.000020533              -0.000187604               0.999999998               0.000028298              -0.000204316               0.999999998               0.000036754              -0.000222166               0.999999998               0.000045861              -0.000241022               0.999999998               0.000055495              -0.000260727               0.999999998               0.000065698              -0.000281226               0.999999998               0.000076363              -0.000302784               0.999999998               0.000087383              -0.000325055               0.999999998               0.000098628              -0.000347714               0.999999998               0.000110050              -0.000370691               0.999999998               0.000121680              -0.000394172               0.999999998               0.000000084              -0.000181764               0.999999998              -0.000004215              -0.000163846               0.999999998              -0.000003292              -0.000163500               0.999999998               0.000000560              -0.000171346               0.999999998               0.000006278              -0.000183851               0.999999998               0.000013391              -0.000199519               0.999999998               0.000021625              -0.000217408               0.999999998               0.000030692              -0.000236918               0.999999998               0.000040417              -0.000257660               0.999999998               0.000050710              -0.000279718               0.999999998               0.000061443              -0.000302851               0.999999998               0.000072679              -0.000327118               0.999999998               0.000084330              -0.000352420               0.999999998               0.000096279              -0.000378335               0.999999998               0.000108418              -0.000404586               0.999999998               0.000120822              -0.000431274               0.999999998               0.000133507              -0.000458588               0.999999998               0.000000399              -0.000202290               0.999999998              -0.000007253              -0.000183675               0.999999998              -0.000006113              -0.000183961               0.999999998              -0.000001342              -0.000193199               0.999999998               0.000005638              -0.000207668               0.999999998               0.000014037              -0.000225755               0.999999998               0.000023582              -0.000246277               0.999999998               0.000033871              -0.000268597               0.999999998               0.000044721              -0.000292445               0.999999998               0.000056013              -0.000317871               0.999999998               0.000067753              -0.000344759               0.999999998               0.000080067              -0.000372891               0.999999998               0.000092765              -0.000401999               0.999999998               0.000105587              -0.000431769               0.999999998               0.000118574              -0.000462009               0.999999998               0.000131871              -0.000492755               0.999999998               0.000145380              -0.000523951               0.999999998               0.000001006              -0.000221505               0.999999998              -0.000009197              -0.000204275               0.999999998              -0.000009267              -0.000202573               0.999999998              -0.000005336              -0.000209372               0.999999998               0.000000753              -0.000221429               0.999999998               0.000008218              -0.000237160               0.999999998               0.000016819              -0.000255462               0.999999998               0.000026011              -0.000275657               0.999999998               0.000035622              -0.000297363               0.999999998               0.000045639              -0.000320507               0.999999998               0.000055964              -0.000345045               0.999999998               0.000066770              -0.000370905               0.999999998               0.000077937              -0.000397969               0.999999998               0.000089289              -0.000425964               0.999999998               0.000100590              -0.000454617               0.999999998               0.000111938              -0.000483881               0.999999998               0.000123427              -0.000513682               0.999999998               0.000001361              -0.000238884               0.999999998              -0.000010223              -0.000223984               0.999999998              -0.000011509              -0.000221383               0.999999998              -0.000008636              -0.000226270               0.999999998              -0.000003601              -0.000236199               0.999999998               0.000002861              -0.000249730               0.999999998               0.000010352              -0.000266005               0.999999998               0.000018409              -0.000284248               0.999999998               0.000026858              -0.000304009               0.999999998               0.000035582              -0.000325052               0.999999998               0.000044678              -0.000347405               0.999999998               0.000053957              -0.000371012               0.999999998               0.000063465              -0.000395956               0.999999998               0.000073124              -0.000422011               0.999999998               0.000082796              -0.000448930               0.999999998               0.000092372              -0.000476450               0.999999998               0.000101916              -0.000504547               0.999999998               0.000001506              -0.000254073               0.999999998              -0.000010314              -0.000242273               0.999999998              -0.000012568              -0.000239627               0.999999998              -0.000010831              -0.000243273               0.999999998              -0.000006912              -0.000251494               0.999999998              -0.000001648              -0.000263186               0.999999998               0.000004630              -0.000277595               0.999999998               0.000011457              -0.000294115               0.999999998               0.000018682              -0.000312202               0.999999998               0.000026286              -0.000331534               0.999999998               0.000034046              -0.000352016               0.999999998               0.000041869              -0.000373739               0.999999998               0.000049665              -0.000396734               0.999999998               0.000057618              -0.000420886               0.999999998               0.000065376              -0.000446024               0.999999998               0.000072937              -0.000471829               0.999999998               0.000080212              -0.000498258               0.999999998               0.000001451              -0.000266821               0.999999998              -0.000009491              -0.000258465               0.999999998              -0.000012316              -0.000256439               0.999999998              -0.000011552              -0.000259501               0.999999998              -0.000008756              -0.000266524               0.999999998              -0.000004739              -0.000276802               0.999999998               0.000000214              -0.000289607               0.999999998               0.000005771              -0.000304645               0.999999998               0.000011754              -0.000321279               0.999999998               0.000018066              -0.000339209               0.999999998               0.000024525              -0.000358284               0.999999998               0.000030891              -0.000378484               0.999999998               0.000037077              -0.000399819               0.999999998               0.000043106              -0.000422410               0.999999998               0.000048986              -0.000446030               0.999999998               0.000054375              -0.000470434               0.999999998               0.000059164              -0.000495447               0.999999998               0.000001242              -0.000276893               0.999999998              -0.000007868              -0.000271884               0.999999998              -0.000010714              -0.000270859               0.999999998              -0.000010604              -0.000273835               0.999999998              -0.000008857              -0.000280223               0.999999998              -0.000005968              -0.000289428               0.999999998              -0.000002376              -0.000301040               0.999999998               0.000001872              -0.000314782               0.999999998               0.000006479              -0.000330330               0.999999998               0.000011346              -0.000347222               0.999999998               0.000016352              -0.000365246               0.999999998               0.000021253              -0.000384428               0.999999998               0.000025847              -0.000404701               0.999999998               0.000030097              -0.000426102               0.999999998               0.000034023              -0.000448543               0.999999998               0.000037472              -0.000471833               0.999999998               0.000040052              -0.000495745               0.999999998               0.000000902              -0.000284168               0.999999998              -0.000005596              -0.000281893               0.999999998              -0.000007903              -0.000281974               0.999999998              -0.000008115              -0.000285139               0.999999998              -0.000007127              -0.000291223               0.999999998              -0.000005320              -0.000299844               0.999999998              -0.000002987              -0.000310711               0.999999998              -0.000000170              -0.000323575               0.999999998               0.000003009              -0.000338284               0.999999998               0.000006336              -0.000354434               0.999999998               0.000009612              -0.000371852               0.999999998               0.000012850              -0.000390515               0.999999998               0.000015984              -0.000410236               0.999999998               0.000018769              -0.000430925               0.999999998               0.000021015              -0.000452584               0.999999998               0.000022882              -0.000475091               0.999999998               0.000023849              -0.000498312               0.999999998               0.000000468              -0.000288574               0.999999998              -0.000002896              -0.000288076               0.999999998              -0.000004193              -0.000288988               0.999999998              -0.000004409              -0.000292421               0.999999998              -0.000004004              -0.000298427               0.999999998              -0.000003140              -0.000306790               0.999999998              -0.000001990              -0.000317244               0.999999998              -0.000000542              -0.000329602               0.999999998               0.000001108              -0.000343794               0.999999998               0.000002765              -0.000359566               0.999999998               0.000004278              -0.000376716               0.999999998               0.000005912              -0.000395020               0.999999998               0.000007661              -0.000414385               0.999999998               0.000008980              -0.000434757               0.999999998               0.000010009              -0.000456066               0.999999998               0.000010738              -0.000478229               0.999999998               0.000010903              -0.000501168               0.999999998              -0.000000000              -0.000290015               0.999999998               0.000000000              -0.000290144               0.999999998               0.000000000              -0.000291388               0.999999998              -0.000000000              -0.000294937               0.999999998              -0.000000000              -0.000300901               0.999999998              -0.000000000              -0.000309201               0.999999998              -0.000000000              -0.000319600               0.999999998              -0.000000000              -0.000331791               0.999999998              -0.000000000              -0.000345731               0.999999998              -0.000000000              -0.000361454               0.999999998              -0.000000000              -0.000378560               0.999999998               0.000000000              -0.000396674               0.999999998               0.000000000              -0.000415917               0.999999998               0.000000000              -0.000436147               0.999999998               0.000000000              -0.000457398               0.999999998               0.000000000              -0.000479545               0.999999998               0.000000000              -0.000502401               0.999999998              -0.000001698               0.000000000               0.999999998               0.000009725              -0.000000000               0.999999998               0.000015462               0.000000000               0.999999998               0.000019043               0.000000000               0.999999998               0.000021808               0.000000000               0.999999998               0.000024536               0.000000000               0.999999998               0.000027573               0.000000000               0.999999998               0.000030956              -0.000000000               0.999999998               0.000034764               0.000000000               0.999999998               0.000039065               0.000000000               0.999999998               0.000043852               0.000000000               0.999999998               0.000049128               0.000000000               0.999999998               0.000054912               0.000000000               0.999999998               0.000061147               0.000000000               0.999999998               0.000067885              -0.000000000               0.999999998               0.000075162               0.000000000               0.999999998               0.000082972               0.000000000               0.999999998              -0.000001644               0.000028163               0.999999998               0.000009407               0.000025335               0.999999998               0.000014944               0.000024767               0.999999998               0.000018378               0.000025460               0.999999998               0.000021109               0.000026945               0.999999998               0.000023870               0.000028986               0.999999998               0.000026928               0.000031439               0.999999998               0.000030413               0.000034137               0.999999998               0.000034403               0.000037077               0.999999998               0.000038863               0.000040207               0.999999998               0.000043818               0.000043523               0.999999998               0.000049274               0.000047023               0.999999998               0.000055203               0.000050601               0.999999998               0.000061597               0.000054289               0.999999998               0.000068469               0.000058220               0.999999998               0.000075883               0.000062238               0.999999998               0.000083840               0.000066274               0.999999998              -0.000001449               0.000056014               0.999999998               0.000008422               0.000050354               0.999999998               0.000013301               0.000049280               0.999999998               0.000016450               0.000050773               0.999999998               0.000019157               0.000053882               0.999999998               0.000022015               0.000058044               0.999999998               0.000025335               0.000062920               0.999999998               0.000029181               0.000068404               0.999999998               0.000033542               0.000074313               0.999999998               0.000038430               0.000080625               0.999999998               0.000043858               0.000087195               0.999999998               0.000049791               0.000094147               0.999999998               0.000056216               0.000101257               0.999999998               0.000063088               0.000108620               0.999999998               0.000070426               0.000116467               0.999999998               0.000078277               0.000124715               0.999999998               0.000086650               0.000132960               0.999999998              -0.000001114               0.000083298               0.999999998               0.000006824               0.000074793               0.999999998               0.000010725               0.000073396               0.999999998               0.000013530               0.000075862               0.999999998               0.000016336               0.000080692               0.999999998               0.000019557               0.000087065               0.999999998               0.000023343               0.000094462               0.999999998               0.000027741               0.000102664               0.999999998               0.000032805               0.000111574               0.999999998               0.000038459               0.000121010               0.999999998               0.000044654               0.000130900               0.999999998               0.000051336               0.000141266               0.999999998               0.000058496               0.000151957               0.999999998               0.000066221               0.000163048               0.999999998               0.000074456               0.000174866               0.999999998               0.000083158               0.000187259               0.999999998               0.000092288               0.000199851               0.999999998              -0.000000762               0.000109788               0.999999998               0.000004592               0.000098482               0.999999998               0.000007458               0.000096957               0.999999998               0.000010076               0.000100562               0.999999998               0.000013153               0.000107252               0.999999998               0.000016940               0.000115847               0.999999998               0.000021483               0.000125852               0.999999998               0.000026814               0.000136914               0.999999998               0.000032889               0.000148865               0.999999998               0.000039570               0.000161475               0.999999998               0.000046775               0.000174608               0.999999998               0.000054480               0.000188323               0.999999998               0.000062766               0.000202704               0.999999998               0.000071615               0.000217606               0.999999998               0.000080959               0.000233191               0.999999998               0.000090643               0.000249459               0.999999998               0.000100553               0.000265887               0.999999998              -0.000000425               0.000135193               0.999999998               0.000001891               0.000121240               0.999999998               0.000003806               0.000119846               0.999999998               0.000006497               0.000124823               0.999999998               0.000010176               0.000133424               0.999999998               0.000014841               0.000144394               0.999999998               0.000020495               0.000157013               0.999999998               0.000026987               0.000170910               0.999999998               0.000034209               0.000185852               0.999999998               0.000042030               0.000201586               0.999999998               0.000050424               0.000218018               0.999999998               0.000059363               0.000235095               0.999999998               0.000068844               0.000253023               0.999999998               0.000078872               0.000271626               0.999999998               0.000089272               0.000290779               0.999999998               0.000099863               0.000310367               0.999999998               0.000110604               0.000330240               0.999999998              -0.000000151               0.000159273               0.999999998              -0.000001116               0.000143028               0.999999998               0.000000111               0.000142056               0.999999998               0.000003208               0.000148497               0.999999998               0.000007800               0.000159040               0.999999998               0.000013641               0.000172327               0.999999998               0.000020533               0.000187604               0.999999998               0.000028298               0.000204316               0.999999998               0.000036754               0.000222166               0.999999998               0.000045861               0.000241022               0.999999998               0.000055495               0.000260727               0.999999998               0.000065698               0.000281226               0.999999998               0.000076363               0.000302784               0.999999998               0.000087383               0.000325055               0.999999998               0.000098628               0.000347714               0.999999998               0.000110050               0.000370691               0.999999998               0.000121680               0.000394172               0.999999998               0.000000084               0.000181764               0.999999998              -0.000004215               0.000163846               0.999999998              -0.000003292               0.000163500               0.999999998               0.000000560               0.000171346               0.999999998               0.000006278               0.000183851               0.999999998               0.000013391               0.000199519               0.999999998               0.000021625               0.000217408               0.999999998               0.000030692               0.000236918               0.999999998               0.000040417               0.000257660               0.999999998               0.000050710               0.000279718               0.999999998               0.000061443               0.000302851               0.999999998               0.000072679               0.000327118               0.999999998               0.000084330               0.000352420               0.999999998               0.000096279               0.000378335               0.999999998               0.000108418               0.000404586               0.999999998               0.000120822               0.000431274               0.999999998               0.000133507               0.000458588               0.999999998               0.000000399               0.000202290               0.999999998              -0.000007253               0.000183675               0.999999998              -0.000006113               0.000183961               0.999999998              -0.000001342               0.000193199               0.999999998               0.000005638               0.000207668               0.999999998               0.000014037               0.000225755               0.999999998               0.000023582               0.000246277               0.999999998               0.000033871               0.000268597               0.999999998               0.000044721               0.000292445               0.999999998               0.000056013               0.000317871               0.999999998               0.000067753               0.000344759               0.999999998               0.000080067               0.000372891               0.999999998               0.000092765               0.000401999               0.999999998               0.000105587               0.000431769               0.999999998               0.000118574               0.000462009               0.999999998               0.000131871               0.000492755               0.999999998               0.000145380               0.000523951               0.999999998               0.000001006               0.000221505               0.999999998              -0.000009197               0.000204275               0.999999998              -0.000009267               0.000202573               0.999999998              -0.000005336               0.000209372               0.999999998               0.000000753               0.000221429               0.999999998               0.000008218               0.000237160               0.999999998               0.000016819               0.000255462               0.999999998               0.000026011               0.000275657               0.999999998               0.000035622               0.000297363               0.999999998               0.000045639               0.000320507               0.999999998               0.000055964               0.000345045               0.999999998               0.000066770               0.000370905               0.999999998               0.000077937               0.000397969               0.999999998               0.000089289               0.000425964               0.999999998               0.000100590               0.000454617               0.999999998               0.000111938               0.000483881               0.999999998               0.000123427               0.000513682               0.999999998               0.000001361               0.000238884               0.999999998              -0.000010223               0.000223984               0.999999998              -0.000011509               0.000221383               0.999999998              -0.000008636               0.000226270               0.999999998              -0.000003601               0.000236199               0.999999998               0.000002861               0.000249730               0.999999998               0.000010352               0.000266005               0.999999998               0.000018409               0.000284248               0.999999998               0.000026858               0.000304009               0.999999998               0.000035582               0.000325052               0.999999998               0.000044678               0.000347405               0.999999998               0.000053957               0.000371012               0.999999998               0.000063465               0.000395956               0.999999998               0.000073124               0.000422011               0.999999998               0.000082796               0.000448930               0.999999998               0.000092372               0.000476450               0.999999998               0.000101916               0.000504547               0.999999998               0.000001506               0.000254073               0.999999998              -0.000010314               0.000242273               0.999999998              -0.000012568               0.000239627               0.999999998              -0.000010831               0.000243273               0.999999998              -0.000006912               0.000251494               0.999999998              -0.000001648               0.000263186               0.999999998               0.000004630               0.000277595               0.999999998               0.000011457               0.000294115               0.999999998               0.000018682               0.000312202               0.999999998               0.000026286               0.000331534               0.999999998               0.000034046               0.000352016               0.999999998               0.000041869               0.000373739               0.999999998               0.000049665               0.000396734               0.999999998               0.000057618               0.000420886               0.999999998               0.000065376               0.000446024               0.999999998               0.000072937               0.000471829               0.999999998               0.000080212               0.000498258               0.999999998               0.000001451               0.000266821               0.999999998              -0.000009491               0.000258465               0.999999998              -0.000012316               0.000256439               0.999999998              -0.000011552               0.000259501               0.999999998              -0.000008756               0.000266524               0.999999998              -0.000004739               0.000276802               0.999999998               0.000000214               0.000289607               0.999999998               0.000005771               0.000304645               0.999999998               0.000011754               0.000321279               0.999999998               0.000018066               0.000339209               0.999999998               0.000024525               0.000358284               0.999999998               0.000030891               0.000378484               0.999999998               0.000037077               0.000399819               0.999999998               0.000043106               0.000422410               0.999999998               0.000048986               0.000446030               0.999999998               0.000054375               0.000470434               0.999999998               0.000059164               0.000495447               0.999999998               0.000001242               0.000276893               0.999999998              -0.000007868               0.000271884               0.999999998              -0.000010714               0.000270859               0.999999998              -0.000010604               0.000273835               0.999999998              -0.000008857               0.000280223               0.999999998              -0.000005968               0.000289428               0.999999998              -0.000002376               0.000301040               0.999999998               0.000001872               0.000314782               0.999999998               0.000006479               0.000330330               0.999999998               0.000011346               0.000347222               0.999999998               0.000016352               0.000365246               0.999999998               0.000021253               0.000384428               0.999999998               0.000025847               0.000404701               0.999999998               0.000030097               0.000426102               0.999999998               0.000034023               0.000448543               0.999999998               0.000037472               0.000471833               0.999999998               0.000040052               0.000495745               0.999999998               0.000000902               0.000284168               0.999999998              -0.000005596               0.000281893               0.999999998              -0.000007903               0.000281974               0.999999998              -0.000008115               0.000285139               0.999999998              -0.000007127               0.000291223               0.999999998              -0.000005320               0.000299844               0.999999998              -0.000002987               0.000310711               0.999999998              -0.000000170               0.000323575               0.999999998               0.000003009               0.000338284               0.999999998               0.000006336               0.000354434               0.999999998               0.000009612               0.000371852               0.999999998               0.000012850               0.000390515               0.999999998               0.000015984               0.000410236               0.999999998               0.000018769               0.000430925               0.999999998               0.000021015               0.000452584               0.999999998               0.000022882               0.000475091               0.999999998               0.000023849               0.000498312               0.999999998               0.000000468               0.000288574               0.999999998              -0.000002896               0.000288076               0.999999998              -0.000004193               0.000288988               0.999999998              -0.000004409               0.000292421               0.999999998              -0.000004004               0.000298427               0.999999998              -0.000003140               0.000306790               0.999999998              -0.000001990               0.000317244               0.999999998              -0.000000542               0.000329602               0.999999998               0.000001108               0.000343794               0.999999998               0.000002765               0.000359566               0.999999998               0.000004278               0.000376716               0.999999998               0.000005912               0.000395020               0.999999998               0.000007661               0.000414385               0.999999998               0.000008980               0.000434757               0.999999998               0.000010009               0.000456066               0.999999998               0.000010738               0.000478229               0.999999998               0.000010903               0.000501168               0.999999998               0.000000000               0.000290015               0.999999998               0.000000000               0.000290144               0.999999998               0.000000000               0.000291388               0.999999998               0.000000000               0.000294937               0.999999998              -0.000000000               0.000300901               0.999999998              -0.000000000               0.000309201               0.999999998               0.000000000               0.000319600               0.999999998              -0.000000000               0.000331791               0.999999998               0.000000000               0.000345731               0.999999998              -0.000000000               0.000361454               0.999999998              -0.000000000               0.000378560               0.999999998              -0.000000000               0.000396674               0.999999998               0.000000000               0.000415917               0.999999998              -0.000000000               0.000436147               0.999999998              -0.000000000               0.000457398               0.999999998               0.000000000               0.000479545               0.999999998               0.000000000               0.000502401               0.999999998 </DataArray>
<DataArray type="Float64"                                    Name="stress"                                                      NumberOfComponents="10" format="ascii">
              0.000454800               0.005296693              -0.000000000              -0.000491535               0.001929392               0.001437856               0.000000000               0.000000000               0.000000000               0.000000000               0.000504526               0.004409971              -0.000000000              -0.000362048               0.001590658               0.001228610               0.000000000               0.000000000               0.000000000               0.000000000               0.000701194               0.003694893               0.000000000              -0.000198913               0.001297923               0.001099010               0.000000000               0.000000000               0.000000000               0.000000000               0.000734285               0.003301401              -0.000000000              -0.000137318               0.001146229               0.001008911               0.000000000               0.000000000               0.000000000               0.000000000               0.000701706               0.003071162              -0.000000000              -0.000120755               0.001063962               0.000943207               0.000000000               0.000000000               0.000000000               0.000000000               0.000637940               0.002931285               0.000000000              -0.000127183               0.001019480               0.000892297               0.000000000               0.000000000               0.000000000               0.000000000               0.000571055               0.002847907               0.000000000              -0.000141842               0.000996574               0.000854731               0.000000000               0.000000000               0.000000000               0.000000000               0.000506671               0.002797090               0.000000000              -0.000159634               0.000985565               0.000825931               0.000000000               0.000000000               0.000000000               0.000000000               0.000443159               0.002767850              -0.000000000              -0.000179796               0.000982540               0.000802743               0.000000000               0.000000000               0.000000000               0.000000000               0.000382468               0.002753666              -0.000000000              -0.000200782               0.000984807               0.000784025               0.000000000               0.000000000               0.000000000               0.000000000               0.000325062               0.002751012              -0.000000000              -0.000221978               0.000990988               0.000769010               0.000000000               0.000000000               0.000000000               0.000000000               0.000269786               0.002756332              -0.000000000              -0.000243371               0.000999892               0.000756521               0.000000000               0.000000000               0.000000000               0.000000000               0.000217863               0.002765184              -0.000000000              -0.000263949               0.001009702               0.000745753               0.000000000               0.000000000               0.000000000               0.000000000               0.000167085               0.002777745              -0.000000000              -0.000284561               0.001020759               0.000736199               0.000000000               0.000000000               0.000000000               0.000000000               0.000112980               0.002795186              -0.000000000              -0.000307030               0.001034063               0.000727033               0.000000000               0.000000000               0.000000000               0.000000000               0.000056550               0.002812697              -0.000000000              -0.000330380               0.001047683               0.000717303               0.000000000               0.000000000               0.000000000               0.000000000               0.000030818               0.002827042              -0.000000000              -0.000341823               0.001056279               0.000714456               0.000000000               0.000000000               0.000000000               0.000000000               0.000483716               0.005209325              -0.000408890              -0.000469771               0.001893015               0.001423244               0.000000000               0.000000000               0.000000000               0.000000000               0.000514881               0.004347063              -0.000270205              -0.000350302               0.001565774               0.001215472               0.000000000               0.000000000               0.000000000               0.000000000               0.000693298               0.003658599              -0.000124829              -0.000197338               0.001285300               0.001087962               0.000000000               0.000000000               0.000000000               0.000000000               0.000718391               0.003281582              -0.000054000              -0.000140801               0.001140784               0.000999983               0.000000000               0.000000000               0.000000000               0.000000000               0.000682020               0.003062343              -0.000018201              -0.000127035               0.001063116               0.000936081               0.000000000               0.000000000               0.000000000               0.000000000               0.000618561               0.002928210               0.000000546              -0.000134066               0.001020749               0.000886683               0.000000000               0.000000000               0.000000000               0.000000000               0.000550618               0.002845510               0.000009265              -0.000149207               0.000998229               0.000849023               0.000000000               0.000000000               0.000000000               0.000000000               0.000484600               0.002796503               0.000012051              -0.000167837               0.000988104               0.000820267               0.000000000               0.000000000               0.000000000               0.000000000               0.000422507               0.002768884               0.000012641              -0.000187670               0.000985509               0.000797839               0.000000000               0.000000000               0.000000000               0.000000000               0.000364484               0.002755965               0.000012016              -0.000207814               0.000987917               0.000780103               0.000000000               0.000000000               0.000000000               0.000000000               0.000308163               0.002751791               0.000011590              -0.000228412               0.000993392               0.000764980               0.000000000               0.000000000               0.000000000               0.000000000               0.000255393               0.002755943               0.000009672              -0.000248720               0.001001545               0.000752825               0.000000000               0.000000000               0.000000000               0.000000000               0.000205913               0.002764030               0.000007106              -0.000268286               0.001010763               0.000742477               0.000000000               0.000000000               0.000000000               0.000000000               0.000157572               0.002776555               0.000008761              -0.000287979               0.001021502               0.000733523               0.000000000               0.000000000               0.000000000               0.000000000               0.000106445               0.002795193               0.000010973              -0.000309481               0.001034882               0.000725401               0.000000000               0.000000000               0.000000000               0.000000000               0.000052792               0.002816992               0.000008585              -0.000332326               0.001049763               0.000717437               0.000000000               0.000000000               0.000000000               0.000000000               0.000028599               0.002834087               0.000005640              -0.000343535               0.001059198               0.000715663               0.000000000               0.000000000               0.000000000               0.000000000               0.000570455               0.004963791              -0.000777437              -0.000406553               0.001790098               0.001383545               0.000000000               0.000000000               0.000000000               0.000000000               0.000548705               0.004171666              -0.000513389              -0.000315693               0.001495773               0.001180079               0.000000000               0.000000000               0.000000000               0.000000000               0.000670317               0.003560437              -0.000237793              -0.000193686               0.001251362               0.001057677               0.000000000               0.000000000               0.000000000               0.000000000               0.000669645               0.003226550              -0.000106778              -0.000152201               0.001126240               0.000974038               0.000000000               0.000000000               0.000000000               0.000000000               0.000625111               0.003032730              -0.000042510              -0.000144674               0.001059124               0.000914450               0.000000000               0.000000000               0.000000000               0.000000000               0.000560945               0.002912725              -0.000011395              -0.000153736               0.001022144               0.000868408               0.000000000               0.000000000               0.000000000               0.000000000               0.000492216               0.002835508               0.000003987              -0.000169857               0.001001779               0.000831922               0.000000000               0.000000000               0.000000000               0.000000000               0.000428417               0.002789186               0.000011060              -0.000187991               0.000992383               0.000804392               0.000000000               0.000000000               0.000000000               0.000000000               0.000370952               0.002764262               0.000013019              -0.000206425               0.000990220               0.000783795               0.000000000               0.000000000               0.000000000               0.000000000               0.000317113               0.002752004               0.000011547              -0.000225082               0.000992353               0.000767271               0.000000000               0.000000000               0.000000000               0.000000000               0.000266249               0.002748162               0.000010660              -0.000243676               0.000997270               0.000753594               0.000000000               0.000000000               0.000000000               0.000000000               0.000218915               0.002751383               0.000008699              -0.000261829               0.001004395               0.000742566               0.000000000               0.000000000               0.000000000               0.000000000               0.000174131               0.002759793               0.000005378              -0.000279674               0.001013147               0.000733472               0.000000000               0.000000000               0.000000000               0.000000000               0.000131537               0.002774130               0.000008973              -0.000297439               0.001023847               0.000726408               0.000000000               0.000000000               0.000000000               0.000000000               0.000088354               0.002795681               0.000015302              -0.000316327               0.001037326               0.000721000               0.000000000               0.000000000               0.000000000               0.000000000               0.000043860               0.002822532               0.000012768              -0.000336368               0.001052957               0.000716589               0.000000000               0.000000000               0.000000000               0.000000000               0.000025161               0.002844391               0.000006789              -0.000346113               0.001063492               0.000717379               0.000000000               0.000000000               0.000000000               0.000000000               0.000694064               0.004592526              -0.001070503              -0.000313792               0.001635424               0.001321632               0.000000000               0.000000000               0.000000000               0.000000000               0.000594014               0.003909375              -0.000708988              -0.000265916               0.001391751               0.001125834               0.000000000               0.000000000               0.000000000               0.000000000               0.000632451               0.003416079              -0.000335301              -0.000189841               0.001201962               0.001012121               0.000000000               0.000000000               0.000000000               0.000000000               0.000596148               0.003142716              -0.000162317              -0.000169284               0.001103989               0.000934706               0.000000000               0.000000000               0.000000000               0.000000000               0.000538321               0.002980308              -0.000078448              -0.000170668               0.001050315               0.000879648               0.000000000               0.000000000               0.000000000               0.000000000               0.000475250               0.002877786              -0.000038233              -0.000181504               0.001019754               0.000838250               0.000000000               0.000000000               0.000000000               0.000000000               0.000413854               0.002814091              -0.000018900              -0.000196565               0.001003543               0.000806977               0.000000000               0.000000000               0.000000000               0.000000000               0.000355158               0.002774728              -0.000009281              -0.000213656               0.000996119               0.000782463               0.000000000               0.000000000               0.000000000               0.000000000               0.000303353               0.002753786              -0.000006478              -0.000230465               0.000994741               0.000764276               0.000000000               0.000000000               0.000000000               0.000000000               0.000258597               0.002743706              -0.000007597              -0.000245989               0.000996556               0.000750567               0.000000000               0.000000000               0.000000000               0.000000000               0.000218088               0.002741286              -0.000007436              -0.000260877               0.001000712               0.000739835               0.000000000               0.000000000               0.000000000               0.000000000               0.000179231               0.002744770              -0.000007414              -0.000275884               0.001006876               0.000730992               0.000000000               0.000000000               0.000000000               0.000000000               0.000138640               0.002756178              -0.000009177              -0.000292532               0.001016227               0.000723696               0.000000000               0.000000000               0.000000000               0.000000000               0.000098470               0.002772146              -0.000003610              -0.000309591               0.001027237               0.000717645               0.000000000               0.000000000               0.000000000               0.000000000               0.000062869               0.002791330               0.000006767              -0.000325339               0.001038880               0.000713541               0.000000000               0.000000000               0.000000000               0.000000000               0.000030345               0.002813275               0.000008366              -0.000340279               0.001051175               0.000710896               0.000000000               0.000000000               0.000000000               0.000000000               0.000017724               0.002830978               0.000004239              -0.000347225               0.001059392               0.000712167               0.000000000               0.000000000               0.000000000               0.000000000               0.000822187               0.004126395              -0.001269355              -0.000207480               0.001444611               0.001237131               0.000000000               0.000000000               0.000000000               0.000000000               0.000632058               0.003584031              -0.000848105              -0.000210982               0.001264992               0.001054010               0.000000000               0.000000000               0.000000000               0.000000000               0.000576066               0.003238948              -0.000416249              -0.000188843               0.001142586               0.000953743               0.000000000               0.000000000               0.000000000               0.000000000               0.000510332               0.003041043              -0.000221953              -0.000188755               0.001076589               0.000887834               0.000000000               0.000000000               0.000000000               0.000000000               0.000446251               0.002916119              -0.000128448              -0.000197170               0.001037753               0.000840583               0.000000000               0.000000000               0.000000000               0.000000000               0.000386685               0.002835367              -0.000082348              -0.000209413               0.001014917               0.000805504               0.000000000               0.000000000               0.000000000               0.000000000               0.000333058               0.002785221              -0.000059421              -0.000223255               0.001002816               0.000779561               0.000000000               0.000000000               0.000000000               0.000000000               0.000283260               0.002754875              -0.000047345              -0.000238137               0.000997661               0.000759525               0.000000000               0.000000000               0.000000000               0.000000000               0.000240730               0.002737858              -0.000041201              -0.000251958               0.000996596               0.000744638               0.000000000               0.000000000               0.000000000               0.000000000               0.000206101               0.002730294              -0.000039375              -0.000263998               0.000998088               0.000734090               0.000000000               0.000000000               0.000000000               0.000000000               0.000174703               0.002729162              -0.000037208              -0.000275631               0.001001589               0.000725958               0.000000000               0.000000000               0.000000000               0.000000000               0.000140209               0.002731927              -0.000031730              -0.000288912               0.001006937               0.000718025               0.000000000               0.000000000               0.000000000               0.000000000               0.000102392               0.002742190              -0.000027174              -0.000304376               0.001015513               0.000711137               0.000000000               0.000000000               0.000000000               0.000000000               0.000067191               0.002755991              -0.000020163              -0.000319302               0.001025088               0.000705787               0.000000000               0.000000000               0.000000000               0.000000000               0.000039394               0.002766614              -0.000007068              -0.000331053               0.001032546               0.000701493               0.000000000               0.000000000               0.000000000               0.000000000               0.000018806               0.002774333               0.000000226              -0.000339738               0.001038015               0.000698276               0.000000000               0.000000000               0.000000000               0.000000000               0.000011652               0.002780965              -0.000000660              -0.000343250               0.001041396               0.000698145               0.000000000               0.000000000               0.000000000               0.000000000               0.000927251               0.003604718              -0.001372906              -0.000102872               0.001235851               0.001132979               0.000000000               0.000000000               0.000000000               0.000000000               0.000655897               0.003229715              -0.000933444              -0.000157753               0.001129145               0.000971392               0.000000000               0.000000000               0.000000000               0.000000000               0.000512055               0.003053398              -0.000483750              -0.000189654               0.001081007               0.000891353               0.000000000               0.000000000               0.000000000               0.000000000               0.000424173               0.002932131              -0.000285804              -0.000207451               0.001046518               0.000839067               0.000000000               0.000000000               0.000000000               0.000000000               0.000361028               0.002843656              -0.000189218              -0.000220071               0.001021233               0.000801162               0.000000000               0.000000000               0.000000000               0.000000000               0.000308921               0.002784556              -0.000138956              -0.000232224               0.001005584               0.000773360               0.000000000               0.000000000               0.000000000               0.000000000               0.000264274               0.002746706              -0.000111240              -0.000244235               0.000996971               0.000752736               0.000000000               0.000000000               0.000000000               0.000000000               0.000226078               0.002722210              -0.000093007              -0.000255496               0.000992560               0.000737063               0.000000000               0.000000000               0.000000000               0.000000000               0.000192751               0.002706331              -0.000080014              -0.000266009               0.000990771               0.000724762               0.000000000               0.000000000               0.000000000               0.000000000               0.000164664               0.002700178              -0.000071841              -0.000275772               0.000991974               0.000716202               0.000000000               0.000000000               0.000000000               0.000000000               0.000137010               0.002701094              -0.000065177              -0.000286257               0.000995775               0.000709518               0.000000000               0.000000000               0.000000000               0.000000000               0.000107808               0.002706641              -0.000053883              -0.000297901               0.001001505               0.000703604               0.000000000               0.000000000               0.000000000               0.000000000               0.000075690               0.002716883              -0.000040923              -0.000311226               0.001009361               0.000698135               0.000000000               0.000000000               0.000000000               0.000000000               0.000046595               0.002727781              -0.000030534              -0.000323499               0.001017084               0.000693586               0.000000000               0.000000000               0.000000000               0.000000000               0.000026607               0.002733227              -0.000018734              -0.000331675               0.001021625               0.000689950               0.000000000               0.000000000               0.000000000               0.000000000               0.000012073               0.002733243              -0.000008214              -0.000337127               0.001023448               0.000686321               0.000000000               0.000000000               0.000000000               0.000000000               0.000007576               0.002736450              -0.000005442              -0.000339215               0.001025212               0.000685998               0.000000000               0.000000000               0.000000000               0.000000000               0.000994077               0.003072360              -0.001389057              -0.000011268               0.001027865               0.001016597               0.000000000               0.000000000               0.000000000               0.000000000               0.000663818               0.002880528              -0.000972471              -0.000111135               0.000997211               0.000886076               0.000000000               0.000000000               0.000000000               0.000000000               0.000450890               0.002872110              -0.000543336              -0.000189930               0.001020670               0.000830740               0.000000000               0.000000000               0.000000000               0.000000000               0.000350317               0.002815456              -0.000352354              -0.000220563               0.001011997               0.000791434               0.000000000               0.000000000               0.000000000               0.000000000               0.000291103               0.002760810              -0.000253981              -0.000235937               0.000998907               0.000762969               0.000000000               0.000000000               0.000000000               0.000000000               0.000248447               0.002722468              -0.000196587              -0.000247140               0.000989861               0.000742720               0.000000000               0.000000000               0.000000000               0.000000000               0.000214003               0.002696826              -0.000160902              -0.000256851               0.000984550               0.000727699               0.000000000               0.000000000               0.000000000               0.000000000               0.000185677               0.002678571              -0.000135971              -0.000265192               0.000981245               0.000716054               0.000000000               0.000000000               0.000000000               0.000000000               0.000158754               0.002665779              -0.000114667              -0.000273689               0.000979814               0.000706125               0.000000000               0.000000000               0.000000000               0.000000000               0.000135330               0.002665008              -0.000097452              -0.000282377               0.000982453               0.000700076               0.000000000               0.000000000               0.000000000               0.000000000               0.000109875               0.002672329              -0.000082642              -0.000292837               0.000988380               0.000695543               0.000000000               0.000000000               0.000000000               0.000000000               0.000083953               0.002687841              -0.000063899              -0.000304497               0.000997437               0.000692940               0.000000000               0.000000000               0.000000000               0.000000000               0.000061684               0.002704903              -0.000045018              -0.000314981               0.001006619               0.000691638               0.000000000               0.000000000               0.000000000               0.000000000               0.000043211               0.002717011              -0.000033495              -0.000323422               0.001013468               0.000690047               0.000000000               0.000000000               0.000000000               0.000000000               0.000028590               0.002723694              -0.000024626              -0.000329740               0.001017802               0.000688063               0.000000000               0.000000000               0.000000000               0.000000000               0.000015295               0.002729610              -0.000013616              -0.000335465               0.001021683               0.000686218               0.000000000               0.000000000               0.000000000               0.000000000               0.000011654               0.002737329              -0.000008850              -0.000337795               0.001025032               0.000687237               0.000000000               0.000000000               0.000000000               0.000000000               0.001023949               0.002561880              -0.001329734               0.000063744               0.000832703               0.000896447               0.000000000               0.000000000               0.000000000               0.000000000               0.000656616               0.002552646              -0.000973767              -0.000072851               0.000875157               0.000802306               0.000000000               0.000000000               0.000000000               0.000000000               0.000397682               0.002691489              -0.000596843              -0.000187305               0.000959589               0.000772284               0.000000000               0.000000000               0.000000000               0.000000000               0.000295462               0.002692228              -0.000415882              -0.000225730               0.000972644               0.000746914               0.000000000               0.000000000               0.000000000               0.000000000               0.000245114               0.002673240              -0.000313065              -0.000242237               0.000971817               0.000729580               0.000000000               0.000000000               0.000000000               0.000000000               0.000210040               0.002657767              -0.000247665              -0.000253455               0.000970399               0.000716943               0.000000000               0.000000000               0.000000000               0.000000000               0.000182730               0.002643635              -0.000203413              -0.000261930               0.000968513               0.000706583               0.000000000               0.000000000               0.000000000               0.000000000               0.000160839               0.002633560              -0.000170189              -0.000268880               0.000967471               0.000698591               0.000000000               0.000000000               0.000000000               0.000000000               0.000139986               0.002632287              -0.000139165              -0.000276540               0.000969600               0.000693060               0.000000000               0.000000000               0.000000000               0.000000000               0.000120903               0.002643923              -0.000110216              -0.000285151               0.000976349               0.000691198               0.000000000               0.000000000               0.000000000               0.000000000               0.000099553               0.002665759              -0.000086014              -0.000295887               0.000987206               0.000691320               0.000000000               0.000000000               0.000000000               0.000000000               0.000077642               0.002691943              -0.000062868              -0.000307376               0.000999764               0.000692388               0.000000000               0.000000000               0.000000000               0.000000000               0.000061842               0.002713520              -0.000044431              -0.000315998               0.001009830               0.000693832               0.000000000               0.000000000               0.000000000               0.000000000               0.000049999               0.002730063              -0.000034539              -0.000322508               0.001017514               0.000695007               0.000000000               0.000000000               0.000000000               0.000000000               0.000036042               0.002744471              -0.000027272              -0.000329542               0.001024662               0.000695120               0.000000000               0.000000000               0.000000000               0.000000000               0.000019101               0.002758326              -0.000016186              -0.000337627               0.001031975               0.000694348               0.000000000               0.000000000               0.000000000               0.000000000               0.000012395               0.002767661              -0.000010277              -0.000341309               0.001036314               0.000695006               0.000000000               0.000000000               0.000000000               0.000000000               0.001030700               0.002110104              -0.001217846               0.000122747               0.000662445               0.000785192               0.000000000               0.000000000               0.000000000               0.000000000               0.000653993               0.002255391              -0.000955889              -0.000036678               0.000764015               0.000727338               0.000000000               0.000000000               0.000000000               0.000000000               0.000370454               0.002521245              -0.000656025              -0.000176235               0.000899152               0.000722916               0.000000000               0.000000000               0.000000000               0.000000000               0.000271660               0.002582333              -0.000483640              -0.000220919               0.000934409               0.000713490               0.000000000               0.000000000               0.000000000               0.000000000               0.000225592               0.002601462              -0.000373951              -0.000240585               0.000947341               0.000706755               0.000000000               0.000000000               0.000000000               0.000000000               0.000195917               0.002608741              -0.000299809              -0.000252623               0.000953779               0.000701156               0.000000000               0.000000000               0.000000000               0.000000000               0.000174089               0.002608182              -0.000247288              -0.000260739               0.000956298               0.000695559               0.000000000               0.000000000               0.000000000               0.000000000               0.000156391               0.002609794              -0.000203579              -0.000267577               0.000959115               0.000691538               0.000000000               0.000000000               0.000000000               0.000000000               0.000140537               0.002623967              -0.000163280              -0.000275294               0.000966411               0.000691118               0.000000000               0.000000000               0.000000000               0.000000000               0.000126242               0.002650062              -0.000125548              -0.000283916               0.000977984               0.000694068               0.000000000               0.000000000               0.000000000               0.000000000               0.000108069               0.002681347              -0.000095460              -0.000294642               0.000991987               0.000697346               0.000000000               0.000000000               0.000000000               0.000000000               0.000090089               0.002712034              -0.000071762              -0.000305220               0.001005742               0.000700522               0.000000000               0.000000000               0.000000000               0.000000000               0.000079578               0.002739009              -0.000052246              -0.000312534               0.001017172               0.000704638               0.000000000               0.000000000               0.000000000               0.000000000               0.000070873               0.002761646              -0.000038037              -0.000318628               0.001026749               0.000708121               0.000000000               0.000000000               0.000000000               0.000000000               0.000054658               0.002784019              -0.000027561              -0.000327505               0.001037165               0.000709661               0.000000000               0.000000000               0.000000000               0.000000000               0.000033305               0.002806706              -0.000017229              -0.000338348               0.001048342               0.000709994               0.000000000               0.000000000               0.000000000               0.000000000               0.000019342               0.002815903              -0.000010547              -0.000344734               0.001053536               0.000708802               0.000000000               0.000000000               0.000000000               0.000000000               0.001001221               0.001665408              -0.001078538               0.000167279               0.000499370               0.000666649               0.000000000               0.000000000               0.000000000               0.000000000               0.000666194               0.001905479              -0.000929788               0.000011636               0.000631274               0.000642911               0.000000000               0.000000000               0.000000000               0.000000000               0.000384631               0.002265367              -0.000728295              -0.000138935               0.000801426               0.000662492               0.000000000               0.000000000               0.000000000               0.000000000               0.000285537               0.002400651              -0.000568711              -0.000193005               0.000864544               0.000671539               0.000000000               0.000000000               0.000000000               0.000000000               0.000237160               0.002469292              -0.000452773              -0.000219726               0.000896331               0.000676605               0.000000000               0.000000000               0.000000000               0.000000000               0.000208081               0.002510754              -0.000370399              -0.000235813               0.000915514               0.000679701               0.000000000               0.000000000               0.000000000               0.000000000               0.000187143               0.002537105              -0.000308635              -0.000246959               0.000928013               0.000681054               0.000000000               0.000000000               0.000000000               0.000000000               0.000169761               0.002556855              -0.000255740              -0.000255946               0.000937592               0.000681646               0.000000000               0.000000000               0.000000000               0.000000000               0.000154269               0.002581053              -0.000210217              -0.000264780               0.000948602               0.000683822               0.000000000               0.000000000               0.000000000               0.000000000               0.000141710               0.002614363              -0.000168903              -0.000273654               0.000962664               0.000689010               0.000000000               0.000000000               0.000000000               0.000000000               0.000130853               0.002654553              -0.000134356              -0.000282749               0.000979092               0.000696343               0.000000000               0.000000000               0.000000000               0.000000000               0.000116845               0.002698907              -0.000105032              -0.000293546               0.000997475               0.000703929               0.000000000               0.000000000               0.000000000               0.000000000               0.000102992               0.002742538              -0.000078581              -0.000304194               0.001015568               0.000711374               0.000000000               0.000000000               0.000000000               0.000000000               0.000089184               0.002776683              -0.000054126              -0.000313640               0.001030099               0.000716458               0.000000000               0.000000000               0.000000000               0.000000000               0.000072769               0.002806311              -0.000033001              -0.000323500               0.001043261               0.000719761               0.000000000               0.000000000               0.000000000               0.000000000               0.000050687               0.002834130              -0.000015727              -0.000335258               0.001056453               0.000721195               0.000000000               0.000000000               0.000000000               0.000000000               0.000030993               0.002841820              -0.000004886              -0.000343604               0.001061799               0.000718194               0.000000000               0.000000000               0.000000000               0.000000000               0.000918204               0.001242563              -0.000913816               0.000189003               0.000351182               0.000540185               0.000000000               0.000000000               0.000000000               0.000000000               0.000679839               0.001551859              -0.000879322               0.000060956               0.000496962               0.000557918               0.000000000               0.000000000               0.000000000               0.000000000               0.000435763               0.001976869              -0.000782756              -0.000083698               0.000686849               0.000603151               0.000000000               0.000000000               0.000000000               0.000000000               0.000334044               0.002182144              -0.000649833              -0.000147502               0.000776541               0.000629039               0.000000000               0.000000000               0.000000000               0.000000000               0.000279775               0.002302985              -0.000536635              -0.000182957               0.000828640               0.000645682               0.000000000               0.000000000               0.000000000               0.000000000               0.000245058               0.002387086              -0.000448872              -0.000206489               0.000864517               0.000658028               0.000000000               0.000000000               0.000000000               0.000000000               0.000219476               0.002448435              -0.000378565              -0.000223750               0.000890720               0.000666970               0.000000000               0.000000000               0.000000000               0.000000000               0.000199570               0.002492136              -0.000320198              -0.000236678               0.000909596               0.000672919               0.000000000               0.000000000               0.000000000               0.000000000               0.000183736               0.002528124              -0.000271985              -0.000247114               0.000925071               0.000677957               0.000000000               0.000000000               0.000000000               0.000000000               0.000172725               0.002568227              -0.000230428              -0.000256256               0.000941486               0.000685230               0.000000000               0.000000000               0.000000000               0.000000000               0.000163509               0.002616910              -0.000191321              -0.000265797               0.000960894               0.000695097               0.000000000               0.000000000               0.000000000               0.000000000               0.000151425               0.002675964              -0.000153273              -0.000277710               0.000984549               0.000706839               0.000000000               0.000000000               0.000000000               0.000000000               0.000135190               0.002736307              -0.000118741              -0.000291341               0.001009207               0.000717866               0.000000000               0.000000000               0.000000000               0.000000000               0.000116811               0.002784509              -0.000086213              -0.000304259               0.001029580               0.000725321               0.000000000               0.000000000               0.000000000               0.000000000               0.000093688               0.002816888              -0.000054557              -0.000316977               0.001044612               0.000727635               0.000000000               0.000000000               0.000000000               0.000000000               0.000064698               0.002839362              -0.000025195              -0.000330658               0.001056664               0.000726006               0.000000000               0.000000000               0.000000000               0.000000000               0.000039154               0.002842735              -0.000007210              -0.000340658               0.001061122               0.000720463               0.000000000               0.000000000               0.000000000               0.000000000               0.000785549               0.000864533              -0.000728896               0.000186512               0.000226004               0.000412516               0.000000000               0.000000000               0.000000000               0.000000000               0.000672177               0.001206610              -0.000789290               0.000101238               0.000368453               0.000469691               0.000000000               0.000000000               0.000000000               0.000000000               0.000501258               0.001654232              -0.000785583              -0.000018808               0.000557674               0.000538866               0.000000000               0.000000000               0.000000000               0.000000000               0.000411192               0.001912906              -0.000691420              -0.000084917               0.000665934               0.000581017               0.000000000               0.000000000               0.000000000               0.000000000               0.000354469               0.002085687              -0.000592147              -0.000127785               0.000737817               0.000610032               0.000000000               0.000000000               0.000000000               0.000000000               0.000311366               0.002213755              -0.000506615              -0.000159957               0.000791230               0.000631273               0.000000000               0.000000000               0.000000000               0.000000000               0.000278210               0.002312735              -0.000433645              -0.000184763               0.000832491               0.000647728               0.000000000               0.000000000               0.000000000               0.000000000               0.000254002               0.002389102              -0.000373365              -0.000203387               0.000864155               0.000660768               0.000000000               0.000000000               0.000000000               0.000000000               0.000233825               0.002445273              -0.000325875              -0.000217974               0.000887741               0.000669767               0.000000000               0.000000000               0.000000000               0.000000000               0.000219508               0.002497873              -0.000284748              -0.000229918               0.000909255               0.000679337               0.000000000               0.000000000               0.000000000               0.000000000               0.000207924               0.002558756              -0.000242692              -0.000241873               0.000933534               0.000691662               0.000000000               0.000000000               0.000000000               0.000000000               0.000196862               0.002631666              -0.000199666              -0.000255134               0.000962258               0.000707124               0.000000000               0.000000000               0.000000000               0.000000000               0.000180577               0.002705843              -0.000159918              -0.000270513               0.000992110               0.000721596               0.000000000               0.000000000               0.000000000               0.000000000               0.000158526               0.002770957              -0.000121582              -0.000286922               0.001019284               0.000732362               0.000000000               0.000000000               0.000000000               0.000000000               0.000128863               0.002814857              -0.000081143              -0.000303533               0.001039454               0.000735921               0.000000000               0.000000000               0.000000000               0.000000000               0.000089370               0.002842622              -0.000040597              -0.000321813               0.001054802               0.000732989               0.000000000               0.000000000               0.000000000               0.000000000               0.000054892               0.002846611              -0.000015390              -0.000335241               0.001060608               0.000725367               0.000000000               0.000000000               0.000000000               0.000000000               0.000620117               0.000553824              -0.000540911               0.000163314               0.000130168               0.000293482               0.000000000               0.000000000               0.000000000               0.000000000               0.000644052               0.000888207              -0.000663985               0.000130492               0.000252568               0.000383060               0.000000000               0.000000000               0.000000000               0.000000000               0.000572009               0.001321726              -0.000729321               0.000049286               0.000424142               0.000473428               0.000000000               0.000000000               0.000000000               0.000000000               0.000510250               0.001615060              -0.000676340              -0.000010540               0.000541861               0.000531321               0.000000000               0.000000000               0.000000000               0.000000000               0.000456062               0.001830711              -0.000599233              -0.000057816               0.000629503               0.000571687               0.000000000               0.000000000               0.000000000               0.000000000               0.000409178               0.001996370              -0.000523871              -0.000096105               0.000697485               0.000601380               0.000000000               0.000000000               0.000000000               0.000000000               0.000367847               0.002132730              -0.000456480              -0.000128649               0.000753786               0.000625137               0.000000000               0.000000000               0.000000000               0.000000000               0.000337386               0.002245330              -0.000399412              -0.000154146               0.000799818               0.000645672               0.000000000               0.000000000               0.000000000               0.000000000               0.000308899               0.002329267              -0.000353768              -0.000175321               0.000834855               0.000659534               0.000000000               0.000000000               0.000000000               0.000000000               0.000283056               0.002401190              -0.000313738              -0.000194002               0.000865056               0.000671054               0.000000000               0.000000000               0.000000000               0.000000000               0.000264479               0.002476193              -0.000272688              -0.000210344               0.000895504               0.000685160               0.000000000               0.000000000               0.000000000               0.000000000               0.000249905               0.002558429              -0.000229091              -0.000226089               0.000928164               0.000702075               0.000000000               0.000000000               0.000000000               0.000000000               0.000234927               0.002648368              -0.000186275              -0.000242948               0.000963763               0.000720815               0.000000000               0.000000000               0.000000000               0.000000000               0.000213130               0.002733446              -0.000145439              -0.000261756               0.000998392               0.000736635               0.000000000               0.000000000               0.000000000               0.000000000               0.000184162               0.002796469              -0.000101873              -0.000280497               0.001025646               0.000745149               0.000000000               0.000000000               0.000000000               0.000000000               0.000146095               0.002838438              -0.000052855              -0.000300018               0.001046143               0.000746124               0.000000000               0.000000000               0.000000000               0.000000000               0.000111125               0.002846781              -0.000023046              -0.000314175               0.001053643               0.000739468               0.000000000               0.000000000               0.000000000               0.000000000               0.000447178               0.000323023              -0.000366906               0.000127313               0.000065235               0.000192548               0.000000000               0.000000000               0.000000000               0.000000000               0.000602502               0.000618489              -0.000512074               0.000148625               0.000156619               0.000305244               0.000000000               0.000000000               0.000000000               0.000000000               0.000638166               0.001010679              -0.000612991               0.000112976               0.000299231               0.000412207               0.000000000               0.000000000               0.000000000               0.000000000               0.000615127               0.001320707              -0.000592796               0.000065583               0.000418370               0.000483953               0.000000000               0.000000000               0.000000000               0.000000000               0.000570977               0.001563733              -0.000541266               0.000018649               0.000515023               0.000533672               0.000000000               0.000000000               0.000000000               0.000000000               0.000522848               0.001759745              -0.000483245              -0.000023901               0.000594543               0.000570642               0.000000000               0.000000000               0.000000000               0.000000000               0.000475979               0.001929250              -0.000429111              -0.000062664               0.000663965               0.000601301               0.000000000               0.000000000               0.000000000               0.000000000               0.000436169               0.002077969              -0.000381112              -0.000096183               0.000724710               0.000628528               0.000000000               0.000000000               0.000000000               0.000000000               0.000399240               0.002197334              -0.000339924              -0.000124952               0.000774088               0.000649136               0.000000000               0.000000000               0.000000000               0.000000000               0.000360870               0.002291455              -0.000303728              -0.000151105               0.000814179               0.000663074               0.000000000               0.000000000               0.000000000               0.000000000               0.000327836               0.002384127              -0.000267750              -0.000175077               0.000853060               0.000677983               0.000000000               0.000000000               0.000000000               0.000000000               0.000305671               0.002481854              -0.000230258              -0.000195605               0.000892478               0.000696873               0.000000000               0.000000000               0.000000000               0.000000000               0.000291816               0.002582509              -0.000191373              -0.000213382               0.000931955               0.000718573               0.000000000               0.000000000               0.000000000               0.000000000               0.000277511               0.002679912              -0.000151489              -0.000230922               0.000970269               0.000739347               0.000000000               0.000000000               0.000000000               0.000000000               0.000255973               0.002760601              -0.000109901              -0.000249085               0.001003220               0.000754135               0.000000000               0.000000000               0.000000000               0.000000000               0.000231293               0.002820589              -0.000060616              -0.000265838               0.001028800               0.000762961               0.000000000               0.000000000               0.000000000               0.000000000               0.000207682               0.002839290              -0.000030135              -0.000277030               0.001038764               0.000761734               0.000000000               0.000000000               0.000000000               0.000000000               0.000292584               0.000168503              -0.000220462               0.000088655               0.000026615               0.000115270               0.000000000               0.000000000               0.000000000               0.000000000               0.000557684               0.000415980              -0.000345178               0.000157132               0.000086281               0.000243413               0.000000000               0.000000000               0.000000000               0.000000000               0.000690479               0.000757362              -0.000442266               0.000164258               0.000197699               0.000361957               0.000000000               0.000000000               0.000000000               0.000000000               0.000704906               0.001066719              -0.000442285               0.000130998               0.000311903               0.000442902               0.000000000               0.000000000               0.000000000               0.000000000               0.000675043               0.001327327              -0.000412981               0.000087224               0.000413363               0.000500587               0.000000000               0.000000000               0.000000000               0.000000000               0.000628117               0.001547440              -0.000375631               0.000042113               0.000501770               0.000543883               0.000000000               0.000000000               0.000000000               0.000000000               0.000578145               0.001740323              -0.000338859              -0.000000736               0.000580347               0.000579611               0.000000000               0.000000000               0.000000000               0.000000000               0.000530566               0.001915547              -0.000305560              -0.000040481               0.000652003               0.000611522               0.000000000               0.000000000               0.000000000               0.000000000               0.000485341               0.002065120              -0.000273952              -0.000076137               0.000713746               0.000637609               0.000000000               0.000000000               0.000000000               0.000000000               0.000438166               0.002187462              -0.000243307              -0.000109120               0.000765520               0.000656400               0.000000000               0.000000000               0.000000000               0.000000000               0.000395228               0.002302574              -0.000215976              -0.000139611               0.000814054               0.000674443               0.000000000               0.000000000               0.000000000               0.000000000               0.000366318               0.002413173              -0.000191771              -0.000164277               0.000859142               0.000694865               0.000000000               0.000000000               0.000000000               0.000000000               0.000351620               0.002517578              -0.000163581              -0.000182839               0.000900131               0.000717291               0.000000000               0.000000000               0.000000000               0.000000000               0.000342186               0.002619234              -0.000129105              -0.000199084               0.000939431               0.000740347               0.000000000               0.000000000               0.000000000               0.000000000               0.000335651               0.002713565              -0.000095478              -0.000213326               0.000975621               0.000762295               0.000000000               0.000000000               0.000000000               0.000000000               0.000332295               0.002794639              -0.000055747              -0.000224719               0.001006443               0.000781725               0.000000000               0.000000000               0.000000000               0.000000000               0.000328126               0.002829319              -0.000030698              -0.000230617               0.001019969               0.000789352               0.000000000               0.000000000               0.000000000               0.000000000               0.000185235               0.000081170              -0.000101055               0.000059316               0.000007284               0.000066600               0.000000000               0.000000000               0.000000000               0.000000000               0.000521626               0.000291096              -0.000172459               0.000159221               0.000043957               0.000203178               0.000000000               0.000000000               0.000000000               0.000000000               0.000724030               0.000593009              -0.000231287               0.000197383               0.000131873               0.000329256               0.000000000               0.000000000               0.000000000               0.000000000               0.000768373               0.000895740              -0.000236503               0.000176171               0.000239853               0.000416024               0.000000000               0.000000000               0.000000000               0.000000000               0.000750490               0.001165280              -0.000223842               0.000135773               0.000343165               0.000478938               0.000000000               0.000000000               0.000000000               0.000000000               0.000706155               0.001399136              -0.000206442               0.000089915               0.000436402               0.000526317               0.000000000               0.000000000               0.000000000               0.000000000               0.000652425               0.001603553              -0.000189039               0.000044215               0.000519774               0.000563989               0.000000000               0.000000000               0.000000000               0.000000000               0.000597122               0.001791675              -0.000172188              -0.000000039               0.000597232               0.000597193               0.000000000               0.000000000               0.000000000               0.000000000               0.000543944               0.001963875              -0.000153626              -0.000041505               0.000668454               0.000626948               0.000000000               0.000000000               0.000000000               0.000000000               0.000495241               0.002113277              -0.000135064              -0.000078444               0.000730567               0.000652122               0.000000000               0.000000000               0.000000000               0.000000000               0.000453348               0.002240393              -0.000121344              -0.000110043               0.000783471               0.000673428               0.000000000               0.000000000               0.000000000               0.000000000               0.000419293               0.002353831              -0.000111862              -0.000136994               0.000830267               0.000693273               0.000000000               0.000000000               0.000000000               0.000000000               0.000396384               0.002462967              -0.000095193              -0.000159227               0.000874056               0.000714830               0.000000000               0.000000000               0.000000000               0.000000000               0.000388520               0.002570972              -0.000073238              -0.000175676               0.000915541               0.000739865               0.000000000               0.000000000               0.000000000               0.000000000               0.000395885               0.002676531              -0.000054977              -0.000186109               0.000954205               0.000768096               0.000000000               0.000000000               0.000000000               0.000000000               0.000414570               0.002774490              -0.000032937              -0.000191347               0.000988603               0.000797256               0.000000000               0.000000000               0.000000000               0.000000000               0.000430212               0.002821690              -0.000019241              -0.000191381               0.001004348               0.000812967               0.000000000               0.000000000               0.000000000               0.000000000               0.000147430               0.000053900              -0.000000000               0.000048548               0.000001784               0.000050332               0.000000000               0.000000000               0.000000000               0.000000000               0.000507928               0.000249884               0.000000000               0.000159236               0.000030215               0.000189451               0.000000000               0.000000000               0.000000000               0.000000000               0.000735903               0.000536822               0.000000000               0.000208859               0.000109319               0.000318178               0.000000000               0.000000000               0.000000000               0.000000000               0.000792237               0.000834700               0.000000000               0.000192750               0.000213981               0.000406730               0.000000000               0.000000000               0.000000000               0.000000000               0.000780633               0.001107405               0.000000000               0.000154310               0.000317695               0.000472005               0.000000000               0.000000000               0.000000000               0.000000000               0.000738044               0.001348391               0.000000000               0.000108217               0.000413387               0.000521604               0.000000000               0.000000000               0.000000000               0.000000000               0.000681553               0.001555428               0.000000000               0.000061153               0.000498086               0.000559240               0.000000000               0.000000000               0.000000000               0.000000000               0.000619278               0.001742488              -0.000000000               0.000014418               0.000576018               0.000590436               0.000000000               0.000000000               0.000000000               0.000000000               0.000562836               0.001925027               0.000000000              -0.000029565               0.000651524               0.000621959               0.000000000               0.000000000               0.000000000               0.000000000               0.000516830               0.002088307              -0.000000000              -0.000067227               0.000718504               0.000651277               0.000000000               0.000000000               0.000000000               0.000000000               0.000477503               0.002215716              -0.000000000              -0.000097901               0.000771198               0.000673298               0.000000000               0.000000000               0.000000000               0.000000000               0.000439616               0.002328108              -0.000000000              -0.000126157               0.000818081               0.000691923               0.000000000               0.000000000               0.000000000               0.000000000               0.000409288               0.002439262              -0.000000000              -0.000151424               0.000863554               0.000712130               0.000000000               0.000000000               0.000000000               0.000000000               0.000403174               0.002552133              -0.000000000              -0.000167826               0.000906645               0.000738819               0.000000000               0.000000000               0.000000000               0.000000000               0.000416836               0.002665243              -0.000000000              -0.000176842               0.000947353               0.000770511               0.000000000               0.000000000               0.000000000               0.000000000               0.000444902               0.002768013              -0.000000000              -0.000179163               0.000982383               0.000803220               0.000000000               0.000000000               0.000000000               0.000000000               0.000468575               0.002817563               0.000000000              -0.000176479               0.000998005               0.000821526               0.000000000               0.000000000               0.000000000               0.000000000               0.000000000               0.000000000               0.000000000               0.000000000               0.000000000               0.000000000               0.000000000               0.000000000               0.000000000               0.000000000               0.000000000               0.000000000               0.000000000               0.000000000               0.000000000               0.000000000               0.000000000               0.000000000               0.000000000               0.000000000               0.000000000               0.000000000               0.000000000               0.000000000               0.000000000               0.000000000               0.000000000               0.000000000               0.000000000               0.000000000               0.000000000               0.000000000               0.000000000               0.000000000               0.000000000               0.000000000               0.000000000               0.000000000               0.000000000               0.000000000               0.000000000               0.000000000               0.000000000               0.000000000               0.000000000               0.000000000               0.000000000               0.000000000               0.000000000               0.000000000               0.000000000               0.000000000               0.000000000               0.000000000               0.000000000               0.000000000               0.000000000               0.000000000               0.000000000               0.000000000               0.000000000               0.000000000               0.000000000               0.000000000               0.000000000               0.000000000               0.000000000               0.000000000               0.000000000               0.000000000               0.000000000               0.000000000               0.000000000               0.000000000               0.000000000               0.000000000               0.000000000               0.000000000               0.000000000               0.000000000               0.000000000               0.000000000               0.000000000               0.000000000               0.000000000               0.000000000               0.000000000               0.000000000               0.000000000               0.000000000               0.000000000               0.000000000               0.000000000               0.000000000               0.000000000               0.000000000               0.000000000               0.000000000               0.000000000               0.000000000               0.000000000               0.000000000               0.000000000               0.000000000               0.000000000               0.000000000               0.000000000               0.000000000               0.000000000               0.000000000               0.000000000               0.000000000               0.000000000               0.000000000               0.000000000               0.000000000               0.000000000               0.000000000               0.000000000               0.000000000               0.000000000               0.000000000               0.000000000               0.000000000               0.000000000               0.000000000               0.000000000               0.000000000               0.000000000               0.000000000               0.000000000               0.000000000               0.000000000               0.000000000               0.000000000               0.000000000               0.000000000               0.000000000               0.000000000               0.000000000               0.000000000               0.000000000               0.000000000               0.000000000               0.000000000               0.000000000               0.000000000               0.000000000               0.000000000               0.000000000               0.000000000               0.000000000               0.000000000               0.000000000               0.000000000               0.000000000               0.000000000               0.000000000               0.000000000               0.000000000               0.000000000               0.000000000               0.000000000               0.000000000               0.000000000               0.000000000               0.000000000               0.000000000               0.000000000               0.000000000               0.000483716               0.005209325               0.000408890              -0.000469771               0.001893015               0.001423244               0.000000000               0.000000000               0.000000000               0.000000000               0.000514881               0.004347063               0.000270205              -0.000350302               0.001565774               0.001215472               0.000000000               0.000000000               0.000000000               0.000000000               0.000693298               0.003658599               0.000124829              -0.000197338               0.001285300               0.001087962               0.000000000               0.000000000               0.000000000               0.000000000               0.000718391               0.003281582               0.000054000              -0.000140801               0.001140784               0.000999983               0.000000000               0.000000000               0.000000000               0.000000000               0.000682020               0.003062343               0.000018201              -0.000127035               0.001063116               0.000936081               0.000000000               0.000000000               0.000000000               0.000000000               0.000618561               0.002928210              -0.000000546              -0.000134066               0.001020749               0.000886683               0.000000000               0.000000000               0.000000000               0.000000000               0.000550618               0.002845510              -0.000009265              -0.000149207               0.000998229               0.000849023               0.000000000               0.000000000               0.000000000               0.000000000               0.000484600               0.002796503              -0.000012051              -0.000167837               0.000988104               0.000820267               0.000000000               0.000000000               0.000000000               0.000000000               0.000422507               0.002768884              -0.000012641              -0.000187670               0.000985509               0.000797839               0.000000000               0.000000000               0.000000000               0.000000000               0.000364484               0.002755965              -0.000012016              -0.000207814               0.000987917               0.000780103               0.000000000               0.000000000               0.000000000               0.000000000               0.000308163               0.002751791              -0.000011590              -0.000228412               0.000993392               0.000764980               0.000000000               0.000000000               0.000000000               0.000000000               0.000255393               0.002755943              -0.000009672              -0.000248720               0.001001545               0.000752825               0.000000000               0.000000000               0.000000000               0.000000000               0.000205913               0.002764030              -0.000007106              -0.000268286               0.001010763               0.000742477               0.000000000               0.000000000               0.000000000               0.000000000               0.000157572               0.002776555              -0.000008761              -0.000287979               0.001021502               0.000733523               0.000000000               0.000000000               0.000000000               0.000000000               0.000106445               0.002795193              -0.000010973              -0.000309481               0.001034882               0.000725401               0.000000000               0.000000000               0.000000000               0.000000000               0.000052792               0.002816992              -0.000008585              -0.000332326               0.001049763               0.000717437               0.000000000               0.000000000               0.000000000               0.000000000               0.000028599               0.002834087              -0.000005640              -0.000343535               0.001059198               0.000715663               0.000000000               0.000000000               0.000000000               0.000000000               0.000570455               0.004963791               0.000777437              -0.000406553               0.001790098               0.001383545               0.000000000               0.000000000               0.000000000               0.000000000               0.000548705               0.004171666               0.000513389              -0.000315693               0.001495773               0.001180079               0.000000000               0.000000000               0.000000000               0.000000000               0.000670317               0.003560437               0.000237793              -0.000193686               0.001251362               0.001057677               0.000000000               0.000000000               0.000000000               0.000000000               0.000669645               0.003226550               0.000106778              -0.000152201               0.001126240               0.000974038               0.000000000               0.000000000               0.000000000               0.000000000               0.000625111               0.003032730               0.000042510              -0.000144674               0.001059124               0.000914450               0.000000000               0.000000000               0.000000000               0.000000000               0.000560945               0.002912725               0.000011395              -0.000153736               0.001022144               0.000868408               0.000000000               0.000000000               0.000000000               0.000000000               0.000492216               0.002835508              -0.000003987              -0.000169857               0.001001779               0.000831922               0.000000000               0.000000000               0.000000000               0.000000000               0.000428417               0.002789186              -0.000011060              -0.000187991               0.000992383               0.000804392               0.000000000               0.000000000               0.000000000               0.000000000               0.000370952               0.002764262              -0.000013019              -0.000206425               0.000990220               0.000783795               0.000000000               0.000000000               0.000000000               0.000000000               0.000317113               0.002752004              -0.000011547              -0.000225082               0.000992353               0.000767271               0.000000000               0.000000000               0.000000000               0.000000000               0.000266249               0.002748162              -0.000010660              -0.000243676               0.000997270               0.000753594               0.000000000               0.000000000               0.000000000               0.000000000               0.000218915               0.002751383              -0.000008699              -0.000261829               0.001004395               0.000742566               0.000000000               0.000000000               0.000000000               0.000000000               0.000174131               0.002759793              -0.000005378              -0.000279674               0.001013147               0.000733472               0.000000000               0.000000000               0.000000000               0.000000000               0.000131537               0.002774130              -0.000008973              -0.000297439               0.001023847               0.000726408               0.000000000               0.000000000               0.000000000               0.000000000               0.000088354               0.002795681              -0.000015302              -0.000316327               0.001037326               0.000721000               0.000000000               0.000000000               0.000000000               0.000000000               0.000043860               0.002822532              -0.000012768              -0.000336368               0.001052957               0.000716589               0.000000000               0.000000000               0.000000000               0.000000000               0.000025161               0.002844391              -0.000006789              -0.000346113               0.001063492               0.000717379               0.000000000               0.000000000               0.000000000               0.000000000               0.000694064               0.004592526               0.001070503              -0.000313792               0.001635424               0.001321632               0.000000000               0.000000000               0.000000000               0.000000000               0.000594014               0.003909375               0.000708988              -0.000265916               0.001391751               0.001125834               0.000000000               0.000000000               0.000000000               0.000000000               0.000632451               0.003416079               0.000335301              -0.000189841               0.001201962               0.001012121               0.000000000               0.000000000               0.000000000               0.000000000               0.000596148               0.003142716               0.000162317              -0.000169284               0.001103989               0.000934706               0.000000000               0.000000000               0.000000000               0.000000000               0.000538321               0.002980308               0.000078448              -0.000170668               0.001050315               0.000879648               0.000000000               0.000000000               0.000000000               0.000000000               0.000475250               0.002877786               0.000038233              -0.000181504               0.001019754               0.000838250               0.000000000               0.000000000               0.000000000               0.000000000               0.000413854               0.002814091               0.000018900              -0.000196565               0.001003543               0.000806977               0.000000000               0.000000000               0.000000000               0.000000000               0.000355158               0.002774728               0.000009281              -0.000213656               0.000996119               0.000782463               0.000000000               0.000000000               0.000000000               0.000000000               0.000303353               0.002753786               0.000006478              -0.000230465               0.000994741               0.000764276               0.000000000               0.000000000               0.000000000               0.000000000               0.000258597               0.002743706               0.000007597              -0.000245989               0.000996556               0.000750567               0.000000000               0.000000000               0.000000000               0.000000000               0.000218088               0.002741286               0.000007436              -0.000260877               0.001000712               0.000739835               0.000000000               0.000000000               0.000000000               0.000000000               0.000179231               0.002744770               0.000007414              -0.000275884               0.001006876               0.000730992               0.000000000               0.000000000               0.000000000               0.000000000               0.000138640               0.002756178               0.000009177              -0.000292532               0.001016227               0.000723696               0.000000000               0.000000000               0.000000000               0.000000000               0.000098470               0.002772146               0.000003610              -0.000309591               0.001027237               0.000717645               0.000000000               0.000000000               0.000000000               0.000000000               0.000062869               0.002791330              -0.000006767              -0.000325339               0.001038880               0.000713541               0.000000000               0.000000000               0.000000000               0.000000000               0.000030345               0.002813275              -0.000008366              -0.000340279               0.001051175               0.000710896               0.000000000               0.000000000               0.000000000               0.000000000               0.000017724               0.002830978              -0.000004239              -0.000347225               0.001059392               0.000712167               0.000000000               0.000000000               0.000000000               0.000000000               0.000822187               0.004126395               0.001269355              -0.000207480               0.001444611               0.001237131               0.000000000               0.000000000               0.000000000               0.000000000               0.000632058               0.003584031               0.000848105              -0.000210982               0.001264992               0.001054010               0.000000000               0.000000000               0.000000000               0.000000000               0.000576066               0.003238948               0.000416249              -0.000188843               0.001142586               0.000953743               0.000000000               0.000000000               0.000000000               0.000000000               0.000510332               0.003041043               0.000221953              -0.000188755               0.001076589               0.000887834               0.000000000               0.000000000               0.000000000               0.000000000               0.000446251               0.002916119               0.000128448              -0.000197170               0.001037753               0.000840583               0.000000000               0.000000000               0.000000000               0.000000000               0.000386685               0.002835367               0.000082348              -0.000209413               0.001014917               0.000805504               0.000000000               0.000000000               0.000000000               0.000000000               0.000333058               0.002785221               0.000059421              -0.000223255               0.001002816               0.000779561               0.000000000               0.000000000               0.000000000               0.000000000               0.000283260               0.002754875               0.000047345              -0.000238137               0.000997661               0.000759525               0.000000000               0.000000000               0.000000000               0.000000000               0.000240730               0.002737858               0.000041201              -0.000251958               0.000996596               0.000744638               0.000000000               0.000000000               0.000000000               0.000000000               0.000206101               0.002730294               0.000039375              -0.000263998               0.000998088               0.000734090               0.000000000               0.000000000               0.000000000               0.000000000               0.000174703               0.002729162               0.000037208              -0.000275631               0.001001589               0.000725958               0.000000000               0.000000000               0.000000000               0.000000000               0.000140209               0.002731927               0.000031730              -0.000288912               0.001006937               0.000718025               0.000000000               0.000000000               0.000000000               0.000000000               0.000102392               0.002742190               0.000027174              -0.000304376               0.001015513               0.000711137               0.000000000               0.000000000               0.000000000               0.000000000               0.000067191               0.002755991               0.000020163              -0.000319302               0.001025088               0.000705787               0.000000000               0.000000000               0.000000000               0.000000000               0.000039394               0.002766614               0.000007068              -0.000331053               0.001032546               0.000701493               0.000000000               0.000000000               0.000000000               0.000000000               0.000018806               0.002774333              -0.000000226              -0.000339738               0.001038015               0.000698276               0.000000000               0.000000000               0.000000000               0.000000000               0.000011652               0.002780965               0.000000660              -0.000343250               0.001041396               0.000698145               0.000000000               0.000000000               0.000000000               0.000000000               0.000927251               0.003604718               0.001372906              -0.000102872               0.001235851               0.001132979               0.000000000               0.000000000               0.000000000               0.000000000               0.000655897               0.003229715               0.000933444              -0.000157753               0.001129145               0.000971392               0.000000000               0.000000000               0.000000000               0.000000000               0.000512055               0.003053398               0.000483750              -0.000189654               0.001081007               0.000891353               0.000000000               0.000000000               0.000000000               0.000000000               0.000424173               0.002932131               0.000285804              -0.000207451               0.001046518               0.000839067               0.000000000               0.000000000               0.000000000               0.000000000               0.000361028               0.002843656               0.000189218              -0.000220071               0.001021233               0.000801162               0.000000000               0.000000000               0.000000000               0.000000000               0.000308921               0.002784556               0.000138956              -0.000232224               0.001005584               0.000773360               0.000000000               0.000000000               0.000000000               0.000000000               0.000264274               0.002746706               0.000111240              -0.000244235               0.000996971               0.000752736               0.000000000               0.000000000               0.000000000               0.000000000               0.000226078               0.002722210               0.000093007              -0.000255496               0.000992560               0.000737063               0.000000000               0.000000000               0.000000000               0.000000000               0.000192751               0.002706331               0.000080014              -0.000266009               0.000990771               0.000724762               0.000000000               0.000000000               0.000000000               0.000000000               0.000164664               0.002700178               0.000071841              -0.000275772               0.000991974               0.000716202               0.000000000               0.000000000               0.000000000               0.000000000               0.000137010               0.002701094               0.000065177              -0.000286257               0.000995775               0.000709518               0.000000000               0.000000000               0.000000000               0.000000000               0.000107808               0.002706641               0.000053883              -0.000297901               0.001001505               0.000703604               0.000000000               0.000000000               0.000000000               0.000000000               0.000075690               0.002716883               0.000040923              -0.000311226               0.001009361               0.000698135               0.000000000               0.000000000               0.000000000               0.000000000               0.000046595               0.002727781               0.000030534              -0.000323499               0.001017084               0.000693586               0.000000000               0.000000000               0.000000000               0.000000000               0.000026607               0.002733227               0.000018734              -0.000331675               0.001021625               0.000689950               0.000000000               0.000000000               0.000000000               0.000000000               0.000012073               0.002733243               0.000008214              -0.000337127               0.001023448               0.000686321               0.000000000               0.000000000               0.000000000               0.000000000               0.000007576               0.002736450               0.000005442              -0.000339215               0.001025212               0.000685998               0.000000000               0.000000000               0.000000000               0.000000000               0.000994077               0.003072360               0.001389057              -0.000011268               0.001027865               0.001016597               0.000000000               0.000000000               0.000000000               0.000000000               0.000663818               0.002880528               0.000972471              -0.000111135               0.000997211               0.000886076               0.000000000               0.000000000               0.000000000               0.000000000               0.000450890               0.002872110               0.000543336              -0.000189930               0.001020670               0.000830740               0.000000000               0.000000000               0.000000000               0.000000000               0.000350317               0.002815456               0.000352354              -0.000220563               0.001011997               0.000791434               0.000000000               0.000000000               0.000000000               0.000000000               0.000291103               0.002760810               0.000253981              -0.000235937               0.000998907               0.000762969               0.000000000               0.000000000               0.000000000               0.000000000               0.000248447               0.002722468               0.000196587              -0.000247140               0.000989861               0.000742720               0.000000000               0.000000000               0.000000000               0.000000000               0.000214003               0.002696826               0.000160902              -0.000256851               0.000984550               0.000727699               0.000000000               0.000000000               0.000000000               0.000000000               0.000185677               0.002678571               0.000135971              -0.000265192               0.000981245               0.000716054               0.000000000               0.000000000               0.000000000               0.000000000               0.000158754               0.002665779               0.000114667              -0.000273689               0.000979814               0.000706125               0.000000000               0.000000000               0.000000000               0.000000000               0.000135330               0.002665008               0.000097452              -0.000282377               0.000982453               0.000700076               0.000000000               0.000000000               0.000000000               0.000000000               0.000109875               0.002672329               0.000082642              -0.000292837               0.000988380               0.000695543               0.000000000               0.000000000               0.000000000               0.000000000               0.000083953               0.002687841               0.000063899              -0.000304497               0.000997437               0.000692940               0.000000000               0.000000000               0.000000000               0.000000000               0.000061684               0.002704903               0.000045018              -0.000314981               0.001006619               0.000691638               0.000000000               0.000000000               0.000000000               0.000000000               0.000043211               0.002717011               0.000033495              -0.000323422               0.001013468               0.000690047               0.000000000               0.000000000               0.000000000               0.000000000               0.000028590               0.002723694               0.000024626              -0.000329740               0.001017802               0.000688063               0.000000000               0.000000000               0.000000000               0.000000000               0.000015295               0.002729610               0.000013616              -0.000335465               0.001021683               0.000686218               0.000000000               0.000000000               0.000000000               0.000000000               0.000011654               0.002737329               0.000008850              -0.000337795               0.001025032               0.000687237               0.000000000               0.000000000               0.000000000               0.000000000               0.001023949               0.002561880               0.001329734               0.000063744               0.000832703               0.000896447               0.000000000               0.000000000               0.000000000               0.000000000               0.000656616               0.002552646               0.000973767              -0.000072851               0.000875157               0.000802306               0.000000000               0.000000000               0.000000000               0.000000000               0.000397682               0.002691489               0.000596843              -0.000187305               0.000959589               0.000772284               0.000000000               0.000000000               0.000000000               0.000000000               0.000295462               0.002692228               0.000415882              -0.000225730               0.000972644               0.000746914               0.000000000               0.000000000               0.000000000               0.000000000               0.000245114               0.002673240               0.000313065              -0.000242237               0.000971817               0.000729580               0.000000000               0.000000000               0.000000000               0.000000000               0.000210040               0.002657767               0.000247665              -0.000253455               0.000970399               0.000716943               0.000000000               0.000000000               0.000000000               0.000000000               0.000182730               0.002643635               0.000203413              -0.000261930               0.000968513               0.000706583               0.000000000               0.000000000               0.000000000               0.000000000               0.000160839               0.002633560               0.000170189              -0.000268880               0.000967471               0.000698591               0.000000000               0.000000000               0.000000000               0.000000000               0.000139986               0.002632287               0.000139165              -0.000276540               0.000969600               0.000693060               0.000000000               0.000000000               0.000000000               0.000000000               0.000120903               0.002643923               0.000110216              -0.000285151               0.000976349               0.000691198               0.000000000               0.000000000               0.000000000               0.000000000               0.000099553               0.002665759               0.000086014              -0.000295887               0.000987206               0.000691320               0.000000000               0.000000000               0.000000000               0.000000000               0.000077642               0.002691943               0.000062868              -0.000307376               0.000999764               0.000692388               0.000000000               0.000000000               0.000000000               0.000000000               0.000061842               0.002713520               0.000044431              -0.000315998               0.001009830               0.000693832               0.000000000               0.000000000               0.000000000               0.000000000               0.000049999               0.002730063               0.000034539              -0.000322508               0.001017514               0.000695007               0.000000000               0.000000000               0.000000000               0.000000000               0.000036042               0.002744471               0.000027272              -0.000329542               0.001024662               0.000695120               0.000000000               0.000000000               0.000000000               0.000000000               0.000019101               0.002758326               0.000016186              -0.000337627               0.001031975               0.000694348               0.000000000               0.000000000               0.000000000               0.000000000               0.000012395               0.002767661               0.000010277              -0.000341309               0.001036314               0.000695006               0.000000000               0.000000000               0.000000000               0.000000000               0.001030700               0.002110104               0.001217846               0.000122747               0.000662445               0.000785192               0.000000000               0.000000000               0.000000000               0.000000000               0.000653993               0.002255391               0.000955889              -0.000036678               0.000764015               0.000727338               0.000000000               0.000000000               0.000000000               0.000000000               0.000370454               0.002521245               0.000656025              -0.000176235               0.000899152               0.000722916               0.000000000               0.000000000               0.000000000               0.000000000               0.000271660               0.002582333               0.000483640              -0.000220919               0.000934409               0.000713490               0.000000000               0.000000000               0.000000000               0.000000000               0.000225592               0.002601462               0.000373951              -0.000240585               0.000947341               0.000706755               0.000000000               0.000000000               0.000000000               0.000000000               0.000195917               0.002608741               0.000299809              -0.000252623               0.000953779               0.000701156               0.000000000               0.000000000               0.000000000               0.000000000               0.000174089               0.002608182               0.000247288              -0.000260739               0.000956298               0.000695559               0.000000000               0.000000000               0.000000000               0.000000000               0.000156391               0.002609794               0.000203579              -0.000267577               0.000959115               0.000691538               0.000000000               0.000000000               0.000000000               0.000000000               0.000140537               0.002623967               0.000163280              -0.000275294               0.000966411               0.000691118               0.000000000               0.000000000               0.000000000               0.000000000               0.000126242               0.002650062               0.000125548              -0.000283916               0.000977984               0.000694068               0.000000000               0.000000000               0.000000000               0.000000000               0.000108069               0.002681347               0.000095460              -0.000294642               0.000991987               0.000697346               0.000000000               0.000000000               0.000000000               0.000000000               0.000090089               0.002712034               0.000071762              -0.000305220               0.001005742               0.000700522               0.000000000               0.000000000               0.000000000               0.000000000               0.000079578               0.002739009               0.000052246              -0.000312534               0.001017172               0.000704638               0.000000000               0.000000000               0.000000000               0.000000000               0.000070873               0.002761646               0.000038037              -0.000318628               0.001026749               0.000708121               0.000000000               0.000000000               0.000000000               0.000000000               0.000054658               0.002784019               0.000027561              -0.000327505               0.001037165               0.000709661               0.000000000               0.000000000               0.000000000               0.000000000               0.000033305               0.002806706               0.000017229              -0.000338348               0.001048342               0.000709994               0.000000000               0.000000000               0.000000000               0.000000000               0.000019342               0.002815903               0.000010547              -0.000344734               0.001053536               0.000708802               0.000000000               0.000000000               0.000000000               0.000000000               0.001001221               0.001665408               0.001078538               0.000167279               0.000499370               0.000666649               0.000000000               0.000000000               0.000000000               0.000000000               0.000666194               0.001905479               0.000929788               0.000011636               0.000631274               0.000642911               0.000000000               0.000000000               0.000000000               0.000000000               0.000384631               0.002265367               0.000728295              -0.000138935               0.000801426               0.000662492               0.000000000               0.000000000               0.000000000               0.000000000               0.000285537               0.002400651               0.000568711              -0.000193005               0.000864544               0.000671539               0.000000000               0.000000000               0.000000000               0.000000000               0.000237160               0.002469292               0.000452773              -0.000219726               0.000896331               0.000676605               0.000000000               0.000000000               0.000000000               0.000000000               0.000208081               0.002510754               0.000370399              -0.000235813               0.000915514               0.000679701               0.000000000               0.000000000               0.000000000               0.000000000               0.000187143               0.002537105               0.000308635              -0.000246959               0.000928013               0.000681054               0.000000000               0.000000000               0.000000000               0.000000000               0.000169761               0.002556855               0.000255740              -0.000255946               0.000937592               0.000681646               0.000000000               0.000000000               0.000000000               0.000000000               0.000154269               0.002581053               0.000210217              -0.000264780               0.000948602               0.000683822               0.000000000               0.000000000               0.000000000               0.000000000               0.000141710               0.002614363               0.000168903              -0.000273654               0.000962664               0.000689010               0.000000000               0.000000000               0.000000000               0.000000000               0.000130853               0.002654553               0.000134356              -0.000282749               0.000979092               0.000696343               0.000000000               0.000000000               0.000000000               0.000000000               0.000116845               0.002698907               0.000105032              -0.000293546               0.000997475               0.000703929               0.000000000               0.000000000               0.000000000               0.000000000               0.000102992               0.002742538               0.000078581              -0.000304194               0.001015568               0.000711374               0.000000000               0.000000000               0.000000000               0.000000000               0.000089184               0.002776683               0.000054126              -0.000313640               0.001030099               0.000716458               0.000000000               0.000000000               0.000000000               0.000000000               0.000072769               0.002806311               0.000033001              -0.000323500               0.001043261               0.000719761               0.000000000               0.000000000               0.000000000               0.000000000               0.000050687               0.002834130               0.000015727              -0.000335258               0.001056453               0.000721195               0.000000000               0.000000000               0.000000000               0.000000000               0.000030993               0.002841820               0.000004886              -0.000343604               0.001061799               0.000718194               0.000000000               0.000000000               0.000000000               0.000000000               0.000918204               0.001242563               0.000913816               0.000189003               0.000351182               0.000540185               0.000000000               0.000000000               0.000000000               0.000000000               0.000679839               0.001551859               0.000879322               0.000060956               0.000496962               0.000557918               0.000000000               0.000000000               0.000000000               0.000000000               0.000435763               0.001976869               0.000782756              -0.000083698               0.000686849               0.000603151               0.000000000               0.000000000               0.000000000               0.000000000               0.000334044               0.002182144               0.000649833              -0.000147502               0.000776541               0.000629039               0.000000000               0.000000000               0.000000000               0.000000000               0.000279775               0.002302985               0.000536635              -0.000182957               0.000828640               0.000645682               0.000000000               0.000000000               0.000000000               0.000000000               0.000245058               0.002387086               0.000448872              -0.000206489               0.000864517               0.000658028               0.000000000               0.000000000               0.000000000               0.000000000               0.000219476               0.002448435               0.000378565              -0.000223750               0.000890720               0.000666970               0.000000000               0.000000000               0.000000000               0.000000000               0.000199570               0.002492136               0.000320198              -0.000236678               0.000909596               0.000672919               0.000000000               0.000000000               0.000000000               0.000000000               0.000183736               0.002528124               0.000271985              -0.000247114               0.000925071               0.000677957               0.000000000               0.000000000               0.000000000               0.000000000               0.000172725               0.002568227               0.000230428              -0.000256256               0.000941486               0.000685230               0.000000000               0.000000000               0.000000000               0.000000000               0.000163509               0.002616910               0.000191321              -0.000265797               0.000960894               0.000695097               0.000000000               0.000000000               0.000000000               0.000000000               0.000151425               0.002675964               0.000153273              -0.000277710               0.000984549               0.000706839               0.000000000               0.000000000               0.000000000               0.000000000               0.000135190               0.002736307               0.000118741              -0.000291341               0.001009207               0.000717866               0.000000000               0.000000000               0.000000000               0.000000000               0.000116811               0.002784509               0.000086213              -0.000304259               0.001029580               0.000725321               0.000000000               0.000000000               0.000000000               0.000000000               0.000093688               0.002816888               0.000054557              -0.000316977               0.001044612               0.000727635               0.000000000               0.000000000               0.000000000               0.000000000               0.000064698               0.002839362               0.000025195              -0.000330658               0.001056664               0.000726006               0.000000000               0.000000000               0.000000000               0.000000000               0.000039154               0.002842735               0.000007210              -0.000340658               0.001061122               0.000720463               0.000000000               0.000000000               0.000000000               0.000000000               0.000785549               0.000864533               0.000728896               0.000186512               0.000226004               0.000412516               0.000000000               0.000000000               0.000000000               0.000000000               0.000672177               0.001206610               0.000789290               0.000101238               0.000368453               0.000469691               0.000000000               0.000000000               0.000000000               0.000000000               0.000501258               0.001654232               0.000785583              -0.000018808               0.000557674               0.000538866               0.000000000               0.000000000               0.000000000               0.000000000               0.000411192               0.001912906               0.000691420              -0.000084917               0.000665934               0.000581017               0.000000000               0.000000000               0.000000000               0.000000000               0.000354469               0.002085687               0.000592147              -0.000127785               0.000737817               0.000610032               0.000000000               0.000000000               0.000000000               0.000000000               0.000311366               0.002213755               0.000506615              -0.000159957               0.000791230               0.000631273               0.000000000               0.000000000               0.000000000               0.000000000               0.000278210               0.002312735               0.000433645              -0.000184763               0.000832491               0.000647728               0.000000000               0.000000000               0.000000000               0.000000000               0.000254002               0.002389102               0.000373365              -0.000203387               0.000864155               0.000660768               0.000000000               0.000000000               0.000000000               0.000000000               0.000233825               0.002445273               0.000325875              -0.000217974               0.000887741               0.000669767               0.000000000               0.000000000               0.000000000               0.000000000               0.000219508               0.002497873               0.000284748              -0.000229918               0.000909255               0.000679337               0.000000000               0.000000000               0.000000000               0.000000000               0.000207924               0.002558756               0.000242692              -0.000241873               0.000933534               0.000691662               0.000000000               0.000000000               0.000000000               0.000000000               0.000196862               0.002631666               0.000199666              -0.000255134               0.000962258               0.000707124               0.000000000               0.000000000               0.000000000               0.000000000               0.000180577               0.002705843               0.000159918              -0.000270513               0.000992110               0.000721596               0.000000000               0.000000000               0.000000000               0.000000000               0.000158526               0.002770957               0.000121582              -0.000286922               0.001019284               0.000732362               0.000000000               0.000000000               0.000000000               0.000000000               0.000128863               0.002814857               0.000081143              -0.000303533               0.001039454               0.000735921               0.000000000               0.000000000               0.000000000               0.000000000               0.000089370               0.002842622               0.000040597              -0.000321813               0.001054802               0.000732989               0.000000000               0.000000000               0.000000000               0.000000000               0.000054892               0.002846611               0.000015390              -0.000335241               0.001060608               0.000725367               0.000000000               0.000000000               0.000000000               0.000000000               0.000620117               0.000553824               0.000540911               0.000163314               0.000130168               0.000293482               0.000000000               0.000000000               0.000000000               0.000000000               0.000644052               0.000888207               0.000663985               0.000130492               0.000252568               0.000383060               0.000000000               0.000000000               0.000000000               0.000000000               0.000572009               0.001321726               0.000729321               0.000049286               0.000424142               0.000473428               0.000000000               0.000000000               0.000000000               0.000000000               0.000510250               0.001615060               0.000676340              -0.000010540               0.000541861               0.000531321               0.000000000               0.000000000               0.000000000               0.000000000               0.000456062               0.001830711               0.000599233              -0.000057816               0.000629503               0.000571687               0.000000000               0.000000000               0.000000000               0.000000000               0.000409178               0.001996370               0.000523871              -0.000096105               0.000697485               0.000601380               0.000000000               0.000000000               0.000000000               0.000000000               0.000367847               0.002132730               0.000456480              -0.000128649               0.000753786               0.000625137               0.000000000               0.000000000               0.000000000               0.000000000               0.000337386               0.002245330               0.000399412              -0.000154146               0.000799818               0.000645672               0.000000000               0.000000000               0.000000000               0.000000000               0.000308899               0.002329267               0.000353768              -0.000175321               0.000834855               0.000659534               0.000000000               0.000000000               0.000000000               0.000000000               0.000283056               0.002401190               0.000313738              -0.000194002               0.000865056               0.000671054               0.000000000               0.000000000               0.000000000               0.000000000               0.000264479               0.002476193               0.000272688              -0.000210344               0.000895504               0.000685160               0.000000000               0.000000000               0.000000000               0.000000000               0.000249905               0.002558429               0.000229091              -0.000226089               0.000928164               0.000702075               0.000000000               0.000000000               0.000000000               0.000000000               0.000234927               0.002648368               0.000186275              -0.000242948               0.000963763               0.000720815               0.000000000               0.000000000               0.000000000               0.000000000               0.000213130               0.002733446               0.000145439              -0.000261756               0.000998392               0.000736635               0.000000000               0.000000000               0.000000000               0.000000000               0.000184162               0.002796469               0.000101873              -0.000280497               0.001025646               0.000745149               0.000000000               0.000000000               0.000000000               0.000000000               0.000146095               0.002838438               0.000052855              -0.000300018               0.001046143               0.000746124               0.000000000               0.000000000               0.000000000               0.000000000               0.000111125               0.002846781               0.000023046              -0.000314175               0.001053643               0.000739468               0.000000000               0.000000000               0.000000000               0.000000000               0.000447178               0.000323023               0.000366906               0.000127313               0.000065235               0.000192548               0.000000000               0.000000000               0.000000000               0.000000000               0.000602502               0.000618489               0.000512074               0.000148625               0.000156619               0.000305244               0.000000000               0.000000000               0.000000000               0.000000000               0.000638166               0.001010679               0.000612991               0.000112976               0.000299231               0.000412207               0.000000000               0.000000000               0.000000000               0.000000000               0.000615127               0.001320707               0.000592796               0.000065583               0.000418370               0.000483953               0.000000000               0.000000000               0.000000000               0.000000000               0.000570977               0.001563733               0.000541266               0.000018649               0.000515023               0.000533672               0.000000000               0.000000000               0.000000000               0.000000000               0.000522848               0.001759745               0.000483245              -0.000023901               0.000594543               0.000570642               0.000000000               0.000000000               0.000000000               0.000000000               0.000475979               0.001929250               0.000429111              -0.000062664               0.000663965               0.000601301               0.000000000               0.000000000               0.000000000               0.000000000               0.000436169               0.002077969               0.000381112              -0.000096183               0.000724710               0.000628528               0.000000000               0.000000000               0.000000000               0.000000000               0.000399240               0.002197334               0.000339924              -0.000124952               0.000774088               0.000649136               0.000000000               0.000000000               0.000000000               0.000000000               0.000360870               0.002291455               0.000303728              -0.000151105               0.000814179               0.000663074               0.000000000               0.000000000               0.000000000               0.000000000               0.000327836               0.002384127               0.000267750              -0.000175077               0.000853060               0.000677983               0.000000000               0.000000000               0.000000000               0.000000000               0.000305671               0.002481854               0.000230258              -0.000195605               0.000892478               0.000696873               0.000000000               0.000000000               0.000000000               0.000000000               0.000291816               0.002582509               0.000191373              -0.000213382               0.000931955               0.000718573               0.000000000               0.000000000               0.000000000               0.000000000               0.000277511               0.002679912               0.000151489              -0.000230922               0.000970269               0.000739347               0.000000000               0.000000000               0.000000000               0.000000000               0.000255973               0.002760601               0.000109901              -0.000249085               0.001003220               0.000754135               0.000000000               0.000000000               0.000000000               0.000000000               0.000231293               0.002820589               0.000060616              -0.000265838               0.001028800               0.000762961               0.000000000               0.000000000               0.000000000               0.000000000               0.000207682               0.002839290               0.000030135              -0.000277030               0.001038764               0.000761734               0.000000000               0.000000000               0.000000000               0.000000000               0.000292584               0.000168503               0.000220462               0.000088655               0.000026615               0.000115270               0.000000000               0.000000000               0.000000000               0.000000000               0.000557684               0.000415980               0.000345178               0.000157132               0.000086281               0.000243413               0.000000000               0.000000000               0.000000000               0.000000000               0.000690479               0.000757362               0.000442266               0.000164258               0.000197699               0.000361957               0.000000000               0.000000000               0.000000000               0.000000000               0.000704906               0.001066719               0.000442285               0.000130998               0.000311903               0.000442902               0.000000000               0.000000000               0.000000000               0.000000000               0.000675043               0.001327327               0.000412981               0.000087224               0.000413363               0.000500587               0.000000000               0.000000000               0.000000000               0.000000000               0.000628117               0.001547440               0.000375631               0.000042113               0.000501770               0.000543883               0.000000000               0.000000000               0.000000000               0.000000000               0.000578145               0.001740323               0.000338859              -0.000000736               0.000580347               0.000579611               0.000000000               0.000000000               0.000000000               0.000000000               0.000530566               0.001915547               0.000305560              -0.000040481               0.000652003               0.000611522               0.000000000               0.000000000               0.000000000               0.000000000               0.000485341               0.002065120               0.000273952              -0.000076137               0.000713746               0.000637609               0.000000000               0.000000000               0.000000000               0.000000000               0.000438166               0.002187462               0.000243307              -0.000109120               0.000765520               0.000656400               0.000000000               0.000000000               0.000000000               0.000000000               0.000395228               0.002302574               0.000215976              -0.000139611               0.000814054               0.000674443               0.000000000               0.000000000               0.000000000               0.000000000               0.000366318               0.002413173               0.000191771              -0.000164277               0.000859142               0.000694865               0.000000000               0.000000000               0.000000000               0.000000000               0.000351620               0.002517578               0.000163581              -0.000182839               0.000900131               0.000717291               0.000000000               0.000000000               0.000000000               0.000000000               0.000342186               0.002619234               0.000129105              -0.000199084               0.000939431               0.000740347               0.000000000               0.000000000               0.000000000               0.000000000               0.000335651               0.002713565               0.000095478              -0.000213326               0.000975621               0.000762295               0.000000000               0.000000000               0.000000000               0.000000000               0.000332295               0.002794639               0.000055747              -0.000224719               0.001006443               0.000781725               0.000000000               0.000000000               0.000000000               0.000000000               0.000328126               0.002829319               0.000030698              -0.000230617               0.001019969               0.000789352               0.000000000               0.000000000               0.000000000               0.000000000               0.000185235               0.000081170               0.000101055               0.000059316               0.000007284               0.000066600               0.000000000               0.000000000               0.000000000               0.000000000               0.000521626               0.000291096               0.000172459               0.000159221               0.000043957               0.000203178               0.000000000               0.000000000               0.000000000               0.000000000               0.000724030               0.000593009               0.000231287               0.000197383               0.000131873               0.000329256               0.000000000               0.000000000               0.000000000               0.000000000               0.000768373               0.000895740               0.000236503               0.000176171               0.000239853               0.000416024               0.000000000               0.000000000               0.000000000               0.000000000               0.000750490               0.001165280               0.000223842               0.000135773               0.000343165               0.000478938               0.000000000               0.000000000               0.000000000               0.000000000               0.000706155               0.001399136               0.000206442               0.000089915               0.000436402               0.000526317               0.000000000               0.000000000               0.000000000               0.000000000               0.000652425               0.001603553               0.000189039               0.000044215               0.000519774               0.000563989               0.000000000               0.000000000               0.000000000               0.000000000               0.000597122               0.001791675               0.000172188              -0.000000039               0.000597232               0.000597193               0.000000000               0.000000000               0.000000000               0.000000000               0.000543944               0.001963875               0.000153626              -0.000041505               0.000668454               0.000626948               0.000000000               0.000000000               0.000000000               0.000000000               0.000495241               0.002113277               0.000135064              -0.000078444               0.000730567               0.000652122               0.000000000               0.000000000               0.000000000               0.000000000               0.000453348               0.002240393               0.000121344              -0.000110043               0.000783471               0.000673428               0.000000000               0.000000000               0.000000000               0.000000000               0.000419293               0.002353831               0.000111862              -0.000136994               0.000830267               0.000693273               0.000000000               0.000000000               0.000000000               0.000000000               0.000396384               0.002462967               0.000095193              -0.000159227               0.000874056               0.000714830               0.000000000               0.000000000               0.000000000               0.000000000               0.000388520               0.002570972               0.000073238              -0.000175676               0.000915541               0.000739865               0.000000000               0.000000000               0.000000000               0.000000000               0.000395885               0.002676531               0.000054977              -0.000186109               0.000954205               0.000768096               0.000000000               0.000000000               0.000000000               0.000000000               0.000414570               0.002774490               0.000032937              -0.000191347               0.000988603               0.000797256               0.000000000               0.000000000               0.000000000               0.000000000               0.000430212               0.002821690               0.000019241              -0.000191381               0.001004348               0.000812967               0.000000000               0.000000000               0.000000000               0.000000000               0.000147430               0.000053900              -0.000000000               0.000048548               0.000001784               0.000050332               0.000000000               0.000000000               0.000000000               0.000000000               0.000507928               0.000249884              -0.000000000               0.000159236               0.000030215               0.000189451               0.000000000               0.000000000               0.000000000               0.000000000               0.000735903               0.000536822               0.000000000               0.000208859               0.000109319               0.000318178               0.000000000               0.000000000               0.000000000               0.000000000               0.000792237               0.000834700               0.000000000               0.000192750               0.000213981               0.000406730               0.000000000               0.000000000               0.000000000               0.000000000               0.000780633               0.001107405               0.000000000               0.000154310               0.000317695               0.000472005               0.000000000               0.000000000               0.000000000               0.000000000               0.000738044               0.001348391               0.000000000               0.000108217               0.000413387               0.000521604               0.000000000               0.000000000               0.000000000               0.000000000               0.000681553               0.001555428               0.000000000               0.000061153               0.000498086               0.000559240               0.000000000               0.000000000               0.000000000               0.000000000               0.000619278               0.001742488              -0.000000000               0.000014418               0.000576018               0.000590436               0.000000000               0.000000000               0.000000000               0.000000000               0.000562836               0.001925027               0.000000000              -0.000029565               0.000651524               0.000621959               0.000000000               0.000000000               0.000000000               0.000000000               0.000516830               0.002088307               0.000000000              -0.000067227               0.000718504               0.000651277               0.000000000               0.000000000               0.000000000               0.000000000               0.000477503               0.002215716               0.000000000              -0.000097901               0.000771198               0.000673298               0.000000000               0.000000000               0.000000000               0.000000000               0.000439616               0.002328108               0.000000000              -0.000126157               0.000818081               0.000691923               0.000000000               0.000000000               0.000000000               0.000000000               0.000409288               0.002439262               0.000000000              -0.000151424               0.000863554               0.000712130               0.000000000               0.000000000               0.000000000               0.000000000               0.000403174               0.002552133               0.000000000              -0.000167826               0.000906645               0.000738819               0.000000000               0.000000000               0.000000000               0.000000000               0.000416836               0.002665243               0.000000000              -0.000176842               0.000947353               0.000770511               0.000000000               0.000000000               0.000000000               0.000000000               0.000444902               0.002768013               0.000000000              -0.000179163               0.000982383               0.000803220               0.000000000               0.000000000               0.000000000               0.000000000               0.000468575               0.002817563               0.000000000              -0.000176479               0.000998005               0.000821526               0.000000000               0.000000000               0.000000000               0.000000000               0.000454800               0.005296693               0.000000000              -0.000491535               0.001929392               0.001437856               0.000000000               0.000000000               0.000000000               0.000000000               0.000504526               0.004409971              -0.000000000              -0.000362048               0.001590658               0.001228610               0.000000000               0.000000000               0.000000000               0.000000000               0.000701194               0.003694893               0.000000000              -0.000198913               0.001297923               0.001099010               0.000000000               0.000000000               0.000000000               0.000000000               0.000734285               0.003301401               0.000000000              -0.000137318               0.001146229               0.001008911               0.000000000               0.000000000               0.000000000               0.000000000               0.000701706               0.003071162               0.000000000              -0.000120755               0.001063962               0.000943207               0.000000000               0.000000000               0.000000000               0.000000000               0.000637940               0.002931285               0.000000000              -0.000127183               0.001019480               0.000892297               0.000000000               0.000000000               0.000000000               0.000000000               0.000571055               0.002847907               0.000000000              -0.000141842               0.000996574               0.000854731               0.000000000               0.000000000               0.000000000               0.000000000               0.000506671               0.002797090               0.000000000              -0.000159634               0.000985565               0.000825931               0.000000000               0.000000000               0.000000000               0.000000000               0.000443159               0.002767850               0.000000000              -0.000179796               0.000982540               0.000802743               0.000000000               0.000000000               0.000000000               0.000000000               0.000382468               0.002753666               0.000000000              -0.000200782               0.000984807               0.000784025               0.000000000               0.000000000               0.000000000               0.000000000               0.000325062               0.002751012              -0.000000000              -0.000221978               0.000990988               0.000769010               0.000000000               0.000000000               0.000000000               0.000000000               0.000269786               0.002756332              -0.000000000              -0.000243371               0.000999892               0.000756521               0.000000000               0.000000000               0.000000000               0.000000000               0.000217863               0.002765184              -0.000000000              -0.000263949               0.001009702               0.000745753               0.000000000               0.000000000               0.000000000               0.000000000               0.000167085               0.002777745               0.000000000              -0.000284561               0.001020759               0.000736199               0.000000000               0.000000000               0.000000000               0.000000000               0.000112980               0.002795186               0.000000000              -0.000307030               0.001034063               0.000727033               0.000000000               0.000000000               0.000000000               0.000000000               0.000056550               0.002812697              -0.000000000              -0.000330380               0.001047683               0.000717303               0.000000000               0.000000000               0.000000000               0.000000000               0.000030818               0.002827042              -0.000000000              -0.000341823               0.001056279               0.000714456               0.000000000               0.000000000               0.000000000               0.000000000               0.000483716               0.005209325              -0.000408890              -0.000469771               0.001893015               0.001423244               0.000000000               0.000000000               0.000000000               0.000000000               0.000514881               0.004347063              -0.000270205              -0.000350302               0.001565774               0.001215472               0.000000000               0.000000000               0.000000000               0.000000000               0.000693298               0.003658599              -0.000124829              -0.000197338               0.001285300               0.001087962               0.000000000               0.000000000               0.000000000               0.000000000               0.000718391               0.003281582              -0.000054000              -0.000140801               0.001140784               0.000999983               0.000000000               0.000000000               0.000000000               0.000000000               0.000682020               0.003062343              -0.000018201              -0.000127035               0.001063116               0.000936081               0.000000000               0.000000000               0.000000000               0.000000000               0.000618561               0.002928210               0.000000546              -0.000134066               0.001020749               0.000886683               0.000000000               0.000000000               0.000000000               0.000000000               0.000550618               0.002845510               0.000009265              -0.000149207               0.000998229               0.000849023               0.000000000               0.000000000               0.000000000               0.000000000               0.000484600               0.002796503               0.000012051              -0.000167837               0.000988104               0.000820267               0.000000000               0.000000000               0.000000000               0.000000000               0.000422507               0.002768884               0.000012641              -0.000187670               0.000985509               0.000797839               0.000000000               0.000000000               0.000000000               0.000000000               0.000364484               0.002755965               0.000012016              -0.000207814               0.000987917               0.000780103               0.000000000               0.000000000               0.000000000               0.000000000               0.000308163               0.002751791               0.000011590              -0.000228412               0.000993392               0.000764980               0.000000000               0.000000000               0.000000000               0.000000000               0.000255393               0.002755943               0.000009672              -0.000248720               0.001001545               0.000752825               0.000000000               0.000000000               0.000000000               0.000000000               0.000205913               0.002764030               0.000007106              -0.000268286               0.001010763               0.000742477               0.000000000               0.000000000               0.000000000               0.000000000               0.000157572               0.002776555               0.000008761              -0.000287979               0.001021502               0.000733523               0.000000000               0.000000000               0.000000000               0.000000000               0.000106445               0.002795193               0.000010973              -0.000309481               0.001034882               0.000725401               0.000000000               0.000000000               0.000000000               0.000000000               0.000052792               0.002816992               0.000008585              -0.000332326               0.001049763               0.000717437               0.000000000               0.000000000               0.000000000               0.000000000               0.000028599               0.002834087               0.000005640              -0.000343535               0.001059198               0.000715663               0.000000000               0.000000000               0.000000000               0.000000000               0.000570455               0.004963791              -0.000777437              -0.000406553               0.001790098               0.001383545               0.000000000               0.000000000               0.000000000               0.000000000               0.000548705               0.004171666              -0.000513389              -0.000315693               0.001495773               0.001180079               0.000000000               0.000000000               0.000000000               0.000000000               0.000670317               0.003560437              -0.000237793              -0.000193686               0.001251362               0.001057677               0.000000000               0.000000000               0.000000000               0.000000000               0.000669645               0.003226550              -0.000106778              -0.000152201               0.001126240               0.000974038               0.000000000               0.000000000               0.000000000               0.000000000               0.000625111               0.003032730              -0.000042510              -0.000144674               0.001059124               0.000914450               0.000000000               0.000000000               0.000000000               0.000000000               0.000560945               0.002912725              -0.000011395              -0.000153736               0.001022144               0.000868408               0.000000000               0.000000000               0.000000000               0.000000000               0.000492216               0.002835508               0.000003987              -0.000169857               0.001001779               0.000831922               0.000000000               0.000000000               0.000000000               0.000000000               0.000428417               0.002789186               0.000011060              -0.000187991               0.000992383               0.000804392               0.000000000               0.000000000               0.000000000               0.000000000               0.000370952               0.002764262               0.000013019              -0.000206425               0.000990220               0.000783795               0.000000000               0.000000000               0.000000000               0.000000000               0.000317113               0.002752004               0.000011547              -0.000225082               0.000992353               0.000767271               0.000000000               0.000000000               0.000000000               0.000000000               0.000266249               0.002748162               0.000010660              -0.000243676               0.000997270               0.000753594               0.000000000               0.000000000               0.000000000               0.000000000               0.000218915               0.002751383               0.000008699              -0.000261829               0.001004395               0.000742566               0.000000000               0.000000000               0.000000000               0.000000000               0.000174131               0.002759793               0.000005378              -0.000279674               0.001013147               0.000733472               0.000000000               0.000000000               0.000000000               0.000000000               0.000131537               0.002774130               0.000008973              -0.000297439               0.001023847               0.000726408               0.000000000               0.000000000               0.000000000               0.000000000               0.000088354               0.002795681               0.000015302              -0.000316327               0.001037326               0.000721000               0.000000000               0.000000000               0.000000000               0.000000000               0.000043860               0.002822532               0.000012768              -0.000336368               0.001052957               0.000716589               0.000000000               0.000000000               0.000000000               0.000000000               0.000025161               0.002844391               0.000006789              -0.000346113               0.001063492               0.000717379               0.000000000               0.000000000               0.000000000               0.000000000               0.000694064               0.004592526              -0.001070503              -0.000313792               0.001635424               0.001321632               0.000000000               0.000000000               0.000000000               0.000000000               0.000594014               0.003909375              -0.000708988              -0.000265916               0.001391751               0.001125834               0.000000000               0.000000000               0.000000000               0.000000000               0.000632451               0.003416079              -0.000335301              -0.000189841               0.001201962               0.001012121               0.000000000               0.000000000               0.000000000               0.000000000               0.000596148               0.003142716              -0.000162317              -0.000169284               0.001103989               0.000934706               0.000000000               0.000000000               0.000000000               0.000000000               0.000538321               0.002980308              -0.000078448              -0.000170668               0.001050315               0.000879648               0.000000000               0.000000000               0.000000000               0.000000000               0.000475250               0.002877786              -0.000038233              -0.000181504               0.001019754               0.000838250               0.000000000               0.000000000               0.000000000               0.000000000               0.000413854               0.002814091              -0.000018900              -0.000196565               0.001003543               0.000806977               0.000000000               0.000000000               0.000000000               0.000000000               0.000355158               0.002774728              -0.000009281              -0.000213656               0.000996119               0.000782463               0.000000000               0.000000000               0.000000000               0.000000000               0.000303353               0.002753786              -0.000006478              -0.000230465               0.000994741               0.000764276               0.000000000               0.000000000               0.000000000               0.000000000               0.000258597               0.002743706              -0.000007597              -0.000245989               0.000996556               0.000750567               0.000000000               0.000000000               0.000000000               0.000000000               0.000218088               0.002741286              -0.000007436              -0.000260877               0.001000712               0.000739835               0.000000000               0.000000000               0.000000000               0.000000000               0.000179231               0.002744770              -0.000007414              -0.000275884               0.001006876               0.000730992               0.000000000               0.000000000               0.000000000               0.000000000               0.000138640               0.002756178              -0.000009177              -0.000292532               0.001016227               0.000723696               0.000000000               0.000000000               0.000000000               0.000000000               0.000098470               0.002772146              -0.000003610              -0.000309591               0.001027237               0.000717645               0.000000000               0.000000000               0.000000000               0.000000000               0.000062869               0.002791330               0.000006767              -0.000325339               0.001038880               0.000713541               0.000000000               0.000000000               0.000000000               0.000000000               0.000030345               0.002813275               0.000008366              -0.000340279               0.001051175               0.000710896               0.000000000               0.000000000               0.000000000               0.000000000               0.000017724               0.002830978               0.000004239              -0.000347225               0.001059392               0.000712167               0.000000000               0.000000000               0.000000000               0.000000000               0.000822187               0.004126395              -0.001269355              -0.000207480               0.001444611               0.001237131               0.000000000               0.000000000               0.000000000               0.000000000               0.000632058               0.003584031              -0.000848105              -0.000210982               0.001264992               0.001054010               0.000000000               0.000000000               0.000000000               0.000000000               0.000576066               0.003238948              -0.000416249              -0.000188843               0.001142586               0.000953743               0.000000000               0.000000000               0.000000000               0.000000000               0.000510332               0.003041043              -0.000221953              -0.000188755               0.001076589               0.000887834               0.000000000               0.000000000               0.000000000               0.000000000               0.000446251               0.002916119              -0.000128448              -0.000197170               0.001037753               0.000840583               0.000000000               0.000000000               0.000000000               0.000000000               0.000386685               0.002835367              -0.000082348              -0.000209413               0.001014917               0.000805504               0.000000000               0.000000000               0.000000000               0.000000000               0.000333058               0.002785221              -0.000059421              -0.000223255               0.001002816               0.000779561               0.000000000               0.000000000               0.000000000               0.000000000               0.000283260               0.002754875              -0.000047345              -0.000238137               0.000997661               0.000759525               0.000000000               0.000000000               0.000000000               0.000000000               0.000240730               0.002737858              -0.000041201              -0.000251958               0.000996596               0.000744638               0.000000000               0.000000000               0.000000000               0.000000000               0.000206101               0.002730294              -0.000039375              -0.000263998               0.000998088               0.000734090               0.000000000               0.000000000               0.000000000               0.000000000               0.000174703               0.002729162              -0.000037208              -0.000275631               0.001001589               0.000725958               0.000000000               0.000000000               0.000000000               0.000000000               0.000140209               0.002731927              -0.000031730              -0.000288912               0.001006937               0.000718025               0.000000000               0.000000000               0.000000000               0.000000000               0.000102392               0.002742190              -0.000027174              -0.000304376               0.001015513               0.000711137               0.000000000               0.000000000               0.000000000               0.000000000               0.000067191               0.002755991              -0.000020163              -0.000319302               0.001025088               0.000705787               0.000000000               0.000000000               0.000000000               0.000000000               0.000039394               0.002766614              -0.000007068              -0.000331053               0.001032546               0.000701493               0.000000000               0.000000000               0.000000000               0.000000000               0.000018806               0.002774333               0.000000226              -0.000339738               0.001038015               0.000698276               0.000000000               0.000000000               0.000000000               0.000000000               0.000011652               0.002780965              -0.000000660              -0.000343250               0.001041396               0.000698145               0.000000000               0.000000000               0.000000000               0.000000000               0.000927251               0.003604718              -0.001372906              -0.000102872               0.001235851               0.001132979               0.000000000               0.000000000               0.000000000               0.000000000               0.000655897               0.003229715              -0.000933444              -0.000157753               0.001129145               0.000971392               0.000000000               0.000000000               0.000000000               0.000000000               0.000512055               0.003053398              -0.000483750              -0.000189654               0.001081007               0.000891353               0.000000000               0.000000000               0.000000000               0.000000000               0.000424173               0.002932131              -0.000285804              -0.000207451               0.001046518               0.000839067               0.000000000               0.000000000               0.000000000               0.000000000               0.000361028               0.002843656              -0.000189218              -0.000220071               0.001021233               0.000801162               0.000000000               0.000000000               0.000000000               0.000000000               0.000308921               0.002784556              -0.000138956              -0.000232224               0.001005584               0.000773360               0.000000000               0.000000000               0.000000000               0.000000000               0.000264274               0.002746706              -0.000111240              -0.000244235               0.000996971               0.000752736               0.000000000               0.000000000               0.000000000               0.000000000               0.000226078               0.002722210              -0.000093007              -0.000255496               0.000992560               0.000737063               0.000000000               0.000000000               0.000000000               0.000000000               0.000192751               0.002706331              -0.000080014              -0.000266009               0.000990771               0.000724762               0.000000000               0.000000000               0.000000000               0.000000000               0.000164664               0.002700178              -0.000071841              -0.000275772               0.000991974               0.000716202               0.000000000               0.000000000               0.000000000               0.000000000               0.000137010               0.002701094              -0.000065177              -0.000286257               0.000995775               0.000709518               0.000000000               0.000000000               0.000000000               0.000000000               0.000107808               0.002706641              -0.000053883              -0.000297901               0.001001505               0.000703604               0.000000000               0.000000000               0.000000000               0.000000000               0.000075690               0.002716883              -0.000040923              -0.000311226               0.001009361               0.000698135               0.000000000               0.000000000               0.000000000               0.000000000               0.000046595               0.002727781              -0.000030534              -0.000323499               0.001017084               0.000693586               0.000000000               0.000000000               0.000000000               0.000000000               0.000026607               0.002733227              -0.000018734              -0.000331675               0.001021625               0.000689950               0.000000000               0.000000000               0.000000000               0.000000000               0.000012073               0.002733243              -0.000008214              -0.000337127               0.001023448               0.000686321               0.000000000               0.000000000               0.000000000               0.000000000               0.000007576               0.002736450              -0.000005442              -0.000339215               0.001025212               0.000685998               0.000000000               0.000000000               0.000000000               0.000000000               0.000994077               0.003072360              -0.001389057              -0.000011268               0.001027865               0.001016597               0.000000000               0.000000000               0.000000000               0.000000000               0.000663818               0.002880528              -0.000972471              -0.000111135               0.000997211               0.000886076               0.000000000               0.000000000               0.000000000               0.000000000               0.000450890               0.002872110              -0.000543336              -0.000189930               0.001020670               0.000830740               0.000000000               0.000000000               0.000000000               0.000000000               0.000350317               0.002815456              -0.000352354              -0.000220563               0.001011997               0.000791434               0.000000000               0.000000000               0.000000000               0.000000000               0.000291103               0.002760810              -0.000253981              -0.000235937               0.000998907               0.000762969               0.000000000               0.000000000               0.000000000               0.000000000               0.000248447               0.002722468              -0.000196587              -0.000247140               0.000989861               0.000742720               0.000000000               0.000000000               0.000000000               0.000000000               0.000214003               0.002696826              -0.000160902              -0.000256851               0.000984550               0.000727699               0.000000000               0.000000000               0.000000000               0.000000000               0.000185677               0.002678571              -0.000135971              -0.000265192               0.000981245               0.000716054               0.000000000               0.000000000               0.000000000               0.000000000               0.000158754               0.002665779              -0.000114667              -0.000273689               0.000979814               0.000706125               0.000000000               0.000000000               0.000000000               0.000000000               0.000135330               0.002665008              -0.000097452              -0.000282377               0.000982453               0.000700076               0.000000000               0.000000000               0.000000000               0.000000000               0.000109875               0.002672329              -0.000082642              -0.000292837               0.000988380               0.000695543               0.000000000               0.000000000               0.000000000               0.000000000               0.000083953               0.002687841              -0.000063899              -0.000304497               0.000997437               0.000692940               0.000000000               0.000000000               0.000000000               0.000000000               0.000061684               0.002704903              -0.000045018              -0.000314981               0.001006619               0.000691638               0.000000000               0.000000000               0.000000000               0.000000000               0.000043211               0.002717011              -0.000033495              -0.000323422               0.001013468               0.000690047               0.000000000               0.000000000               0.000000000               0.000000000               0.000028590               0.002723694              -0.000024626              -0.000329740               0.001017802               0.000688063               0.000000000               0.000000000               0.000000000               0.000000000               0.000015295               0.002729610              -0.000013616              -0.000335465               0.001021683               0.000686218               0.000000000               0.000000000               0.000000000               0.000000000               0.000011654               0.002737329              -0.000008850              -0.000337795               0.001025032               0.000687237               0.000000000               0.000000000               0.000000000               0.000000000               0.001023949               0.002561880              -0.001329734               0.000063744               0.000832703               0.000896447               0.000000000               0.000000000               0.000000000               0.000000000               0.000656616               0.002552646              -0.000973767              -0.000072851               0.000875157               0.000802306               0.000000000               0.000000000               0.000000000               0.000000000               0.000397682               0.002691489              -0.000596843              -0.000187305               0.000959589               0.000772284               0.000000000               0.000000000               0.000000000               0.000000000               0.000295462               0.002692228              -0.000415882              -0.000225730               0.000972644               0.000746914               0.000000000               0.000000000               0.000000000               0.000000000               0.000245114               0.002673240              -0.000313065              -0.000242237               0.000971817               0.000729580               0.000000000               0.000000000               0.000000000               0.000000000               0.000210040               0.002657767              -0.000247665              -0.000253455               0.000970399               0.000716943               0.000000000               0.000000000               0.000000000               0.000000000               0.000182730               0.002643635              -0.000203413              -0.000261930               0.000968513               0.000706583               0.000000000               0.000000000               0.000000000               0.000000000               0.000160839               0.002633560              -0.000170189              -0.000268880               0.000967471               0.000698591               0.000000000               0.000000000               0.000000000               0.000000000               0.000139986               0.002632287              -0.000139165              -0.000276540               0.000969600               0.000693060               0.000000000               0.000000000               0.000000000               0.000000000               0.000120903               0.002643923              -0.000110216              -0.000285151               0.000976349               0.000691198               0.000000000               0.000000000               0.000000000               0.000000000               0.000099553               0.002665759              -0.000086014              -0.000295887               0.000987206               0.000691320               0.000000000               0.000000000               0.000000000               0.000000000               0.000077642               0.002691943              -0.000062868              -0.000307376               0.000999764               0.000692388               0.000000000               0.000000000               0.000000000               0.000000000               0.000061842               0.002713520              -0.000044431              -0.000315998               0.001009830               0.000693832               0.000000000               0.000000000               0.000000000               0.000000000               0.000049999               0.002730063              -0.000034539              -0.000322508               0.001017514               0.000695007               0.000000000               0.000000000               0.000000000               0.000000000               0.000036042               0.002744471              -0.000027272              -0.000329542               0.001024662               0.000695120               0.000000000               0.000000000               0.000000000               0.000000000               0.000019101               0.002758326              -0.000016186              -0.000337627               0.001031975               0.000694348               0.000000000               0.000000000               0.000000000               0.000000000               0.000012395               0.002767661              -0.000010277              -0.000341309               0.001036314               0.000695006               0.000000000               0.000000000               0.000000000               0.000000000               0.001030700               0.002110104              -0.001217846               0.000122747               0.000662445               0.000785192               0.000000000               0.000000000               0.000000000               0.000000000               0.000653993               0.002255391              -0.000955889              -0.000036678               0.000764015               0.000727338               0.000000000               0.000000000               0.000000000               0.000000000               0.000370454               0.002521245              -0.000656025              -0.000176235               0.000899152               0.000722916               0.000000000               0.000000000               0.000000000               0.000000000               0.000271660               0.002582333              -0.000483640              -0.000220919               0.000934409               0.000713490               0.000000000               0.000000000               0.000000000               0.000000000               0.000225592               0.002601462              -0.000373951              -0.000240585               0.000947341               0.000706755               0.000000000               0.000000000               0.000000000               0.000000000               0.000195917               0.002608741              -0.000299809              -0.000252623               0.000953779               0.000701156               0.000000000               0.000000000               0.000000000               0.000000000               0.000174089               0.002608182              -0.000247288              -0.000260739               0.000956298               0.000695559               0.000000000               0.000000000               0.000000000               0.000000000               0.000156391               0.002609794              -0.000203579              -0.000267577               0.000959115               0.000691538               0.000000000               0.000000000               0.000000000               0.000000000               0.000140537               0.002623967              -0.000163280              -0.000275294               0.000966411               0.000691118               0.000000000               0.000000000               0.000000000               0.000000000               0.000126242               0.002650062              -0.000125548              -0.000283916               0.000977984               0.000694068               0.000000000               0.000000000               0.000000000               0.000000000               0.000108069               0.002681347              -0.000095460              -0.000294642               0.000991987               0.000697346               0.000000000               0.000000000               0.000000000               0.000000000               0.000090089               0.002712034              -0.000071762              -0.000305220               0.001005742               0.000700522               0.000000000               0.000000000               0.000000000               0.000000000               0.000079578               0.002739009              -0.000052246              -0.000312534               0.001017172               0.000704638               0.000000000               0.000000000               0.000000000               0.000000000               0.000070873               0.002761646              -0.000038037              -0.000318628               0.001026749               0.000708121               0.000000000               0.000000000               0.000000000               0.000000000               0.000054658               0.002784019              -0.000027561              -0.000327505               0.001037165               0.000709661               0.000000000               0.000000000               0.000000000               0.000000000               0.000033305               0.002806706              -0.000017229              -0.000338348               0.001048342               0.000709994               0.000000000               0.000000000               0.000000000               0.000000000               0.000019342               0.002815903              -0.000010547              -0.000344734               0.001053536               0.000708802               0.000000000               0.000000000               0.000000000               0.000000000               0.001001221               0.001665408              -0.001078538               0.000167279               0.000499370               0.000666649               0.000000000               0.000000000               0.000000000               0.000000000               0.000666194               0.001905479              -0.000929788               0.000011636               0.000631274               0.000642911               0.000000000               0.000000000               0.000000000               0.000000000               0.000384631               0.002265367              -0.000728295              -0.000138935               0.000801426               0.000662492               0.000000000               0.000000000               0.000000000               0.000000000               0.000285537               0.002400651              -0.000568711              -0.000193005               0.000864544               0.000671539               0.000000000               0.000000000               0.000000000               0.000000000               0.000237160               0.002469292              -0.000452773              -0.000219726               0.000896331               0.000676605               0.000000000               0.000000000               0.000000000               0.000000000               0.000208081               0.002510754              -0.000370399              -0.000235813               0.000915514               0.000679701               0.000000000               0.000000000               0.000000000               0.000000000               0.000187143               0.002537105              -0.000308635              -0.000246959               0.000928013               0.000681054               0.000000000               0.000000000               0.000000000               0.000000000               0.000169761               0.002556855              -0.000255740              -0.000255946               0.000937592               0.000681646               0.000000000               0.000000000               0.000000000               0.000000000               0.000154269               0.002581053              -0.000210217              -0.000264780               0.000948602               0.000683822               0.000000000               0.000000000               0.000000000               0.000000000               0.000141710               0.002614363              -0.000168903              -0.000273654               0.000962664               0.000689010               0.000000000               0.000000000               0.000000000               0.000000000               0.000130853               0.002654553              -0.000134356              -0.000282749               0.000979092               0.000696343               0.000000000               0.000000000               0.000000000               0.000000000               0.000116845               0.002698907              -0.000105032              -0.000293546               0.000997475               0.000703929               0.000000000               0.000000000               0.000000000               0.000000000               0.000102992               0.002742538              -0.000078581              -0.000304194               0.001015568               0.000711374               0.000000000               0.000000000               0.000000000               0.000000000               0.000089184               0.002776683              -0.000054126              -0.000313640               0.001030099               0.000716458               0.000000000               0.000000000               0.000000000               0.000000000               0.000072769               0.002806311              -0.000033001              -0.000323500               0.001043261               0.000719761               0.000000000               0.000000000               0.000000000               0.000000000               0.000050687               0.002834130              -0.000015727              -0.000335258               0.001056453               0.000721195               0.000000000               0.000000000               0.000000000               0.000000000               0.000030993               0.002841820              -0.000004886              -0.000343604               0.001061799               0.000718194               0.000000000               0.000000000               0.000000000               0.000000000               0.000918204               0.001242563              -0.000913816               0.000189003               0.000351182               0.000540185               0.000000000               0.000000000               0.000000000               0.000000000               0.000679839               0.001551859              -0.000879322               0.000060956               0.000496962               0.000557918               0.000000000               0.000000000               0.000000000               0.000000000               0.000435763               0.001976869              -0.000782756              -0.000083698               0.000686849               0.000603151               0.000000000               0.000000000               0.000000000               0.000000000               0.000334044               0.002182144              -0.000649833              -0.000147502               0.000776541               0.000629039               0.000000000               0.000000000               0.000000000               0.000000000               0.000279775               0.002302985              -0.000536635              -0.000182957               0.000828640               0.000645682               0.000000000               0.000000000               0.000000000               0.000000000               0.000245058               0.002387086              -0.000448872              -0.000206489               0.000864517               0.000658028               0.000000000               0.000000000               0.000000000               0.000000000               0.000219476               0.002448435              -0.000378565              -0.000223750               0.000890720               0.000666970               0.000000000               0.000000000               0.000000000               0.000000000               0.000199570               0.002492136              -0.000320198              -0.000236678               0.000909596               0.000672919               0.000000000               0.000000000               0.000000000               0.000000000               0.000183736               0.002528124              -0.000271985              -0.000247114               0.000925071               0.000677957               0.000000000               0.000000000               0.000000000               0.000000000               0.000172725               0.002568227              -0.000230428              -0.000256256               0.000941486               0.000685230               0.000000000               0.000000000               0.000000000               0.000000000               0.000163509               0.002616910              -0.000191321              -0.000265797               0.000960894               0.000695097               0.000000000               0.000000000               0.000000000               0.000000000               0.000151425               0.002675964              -0.000153273              -0.000277710               0.000984549               0.000706839               0.000000000               0.000000000               0.000000000               0.000000000               0.000135190               0.002736307              -0.000118741              -0.000291341               0.001009207               0.000717866               0.000000000               0.000000000               0.000000000               0.000000000               0.000116811               0.002784509              -0.000086213              -0.000304259               0.001029580               0.000725321               0.000000000               0.000000000               0.000000000               0.000000000               0.000093688               0.002816888              -0.000054557              -0.000316977               0.001044612               0.000727635               0.000000000               0.000000000               0.000000000               0.000000000               0.000064698               0.002839362              -0.000025195              -0.000330658               0.001056664               0.000726006               0.000000000               0.000000000               0.000000000               0.000000000               0.000039154               0.002842735              -0.000007210              -0.000340658               0.001061122               0.000720463               0.000000000               0.000000000               0.000000000               0.000000000               0.000785549               0.000864533              -0.000728896               0.000186512               0.000226004               0.000412516               0.000000000               0.000000000               0.000000000               0.000000000               0.000672177               0.001206610              -0.000789290               0.000101238               0.000368453               0.000469691               0.000000000               0.000000000               0.000000000               0.000000000               0.000501258               0.001654232              -0.000785583              -0.000018808               0.000557674               0.000538866               0.000000000               0.000000000               0.000000000               0.000000000               0.000411192               0.001912906              -0.000691420              -0.000084917               0.000665934               0.000581017               0.000000000               0.000000000               0.000000000               0.000000000               0.000354469               0.002085687              -0.000592147              -0.000127785               0.000737817               0.000610032               0.000000000               0.000000000               0.000000000               0.000000000               0.000311366               0.002213755              -0.000506615              -0.000159957               0.000791230               0.000631273               0.000000000               0.000000000               0.000000000               0.000000000               0.000278210               0.002312735              -0.000433645              -0.000184763               0.000832491               0.000647728               0.000000000               0.000000000               0.000000000               0.000000000               0.000254002               0.002389102              -0.000373365              -0.000203387               0.000864155               0.000660768               0.000000000               0.000000000               0.000000000               0.000000000               0.000233825               0.002445273              -0.000325875              -0.000217974               0.000887741               0.000669767               0.000000000               0.000000000               0.000000000               0.000000000               0.000219508               0.002497873              -0.000284748              -0.000229918               0.000909255               0.000679337               0.000000000               0.000000000               0.000000000               0.000000000               0.000207924               0.002558756              -0.000242692              -0.000241873               0.000933534               0.000691662               0.000000000               0.000000000               0.000000000               0.000000000               0.000196862               0.002631666              -0.000199666              -0.000255134               0.000962258               0.000707124               0.000000000               0.000000000               0.000000000               0.000000000               0.000180577               0.002705843              -0.000159918              -0.000270513               0.000992110               0.000721596               0.000000000               0.000000000               0.000000000               0.000000000               0.000158526               0.002770957              -0.000121582              -0.000286922               0.001019284               0.000732362               0.000000000               0.000000000               0.000000000               0.000000000               0.000128863               0.002814857              -0.000081143              -0.000303533               0.001039454               0.000735921               0.000000000               0.000000000               0.000000000               0.000000000               0.000089370               0.002842622              -0.000040597              -0.000321813               0.001054802               0.000732989               0.000000000               0.000000000               0.000000000               0.000000000               0.000054892               0.002846611              -0.000015390              -0.000335241               0.001060608               0.000725367               0.000000000               0.000000000               0.000000000               0.000000000               0.000620117               0.000553824              -0.000540911               0.000163314               0.000130168               0.000293482               0.000000000               0.000000000               0.000000000               0.000000000               0.000644052               0.000888207              -0.000663985               0.000130492               0.000252568               0.000383060               0.000000000               0.000000000               0.000000000               0.000000000               0.000572009               0.001321726              -0.000729321               0.000049286               0.000424142               0.000473428               0.000000000               0.000000000               0.000000000               0.000000000               0.000510250               0.001615060              -0.000676340              -0.000010540               0.000541861               0.000531321               0.000000000               0.000000000               0.000000000               0.000000000               0.000456062               0.001830711              -0.000599233              -0.000057816               0.000629503               0.000571687               0.000000000               0.000000000               0.000000000               0.000000000               0.000409178               0.001996370              -0.000523871              -0.000096105               0.000697485               0.000601380               0.000000000               0.000000000               0.000000000               0.000000000               0.000367847               0.002132730              -0.000456480              -0.000128649               0.000753786               0.000625137               0.000000000               0.000000000               0.000000000               0.000000000               0.000337386               0.002245330              -0.000399412              -0.000154146               0.000799818               0.000645672               0.000000000               0.000000000               0.000000000               0.000000000               0.000308899               0.002329267              -0.000353768              -0.000175321               0.000834855               0.000659534               0.000000000               0.000000000               0.000000000               0.000000000               0.000283056               0.002401190              -0.000313738              -0.000194002               0.000865056               0.000671054               0.000000000               0.000000000               0.000000000               0.000000000               0.000264479               0.002476193              -0.000272688              -0.000210344               0.000895504               0.000685160               0.000000000               0.000000000               0.000000000               0.000000000               0.000249905               0.002558429              -0.000229091              -0.000226089               0.000928164               0.000702075               0.000000000               0.000000000               0.000000000               0.000000000               0.000234927               0.002648368              -0.000186275              -0.000242948               0.000963763               0.000720815               0.000000000               0.000000000               0.000000000               0.000000000               0.000213130               0.002733446              -0.000145439              -0.000261756               0.000998392               0.000736635               0.000000000               0.000000000               0.000000000               0.000000000               0.000184162               0.002796469              -0.000101873              -0.000280497               0.001025646               0.000745149               0.000000000               0.000000000               0.000000000               0.000000000               0.000146095               0.002838438              -0.000052855              -0.000300018               0.001046143               0.000746124               0.000000000               0.000000000               0.000000000               0.000000000               0.000111125               0.002846781              -0.000023046              -0.000314175               0.001053643               0.000739468               0.000000000               0.000000000               0.000000000               0.000000000               0.000447178               0.000323023              -0.000366906               0.000127313               0.000065235               0.000192548               0.000000000               0.000000000               0.000000000               0.000000000               0.000602502               0.000618489              -0.000512074               0.000148625               0.000156619               0.000305244               0.000000000               0.000000000               0.000000000               0.000000000               0.000638166               0.001010679              -0.000612991               0.000112976               0.000299231               0.000412207               0.000000000               0.000000000               0.000000000               0.000000000               0.000615127               0.001320707              -0.000592796               0.000065583               0.000418370               0.000483953               0.000000000               0.000000000               0.000000000               0.000000000               0.000570977               0.001563733              -0.000541266               0.000018649               0.000515023               0.000533672               0.000000000               0.000000000               0.000000000               0.000000000               0.000522848               0.001759745              -0.000483245              -0.000023901               0.000594543               0.000570642               0.000000000               0.000000000               0.000000000               0.000000000               0.000475979               0.001929250              -0.000429111              -0.000062664               0.000663965               0.000601301               0.000000000               0.000000000               0.000000000               0.000000000               0.000436169               0.002077969              -0.000381112              -0.000096183               0.000724710               0.000628528               0.000000000               0.000000000               0.000000000               0.000000000               0.000399240               0.002197334              -0.000339924              -0.000124952               0.000774088               0.000649136               0.000000000               0.000000000               0.000000000               0.000000000               0.000360870               0.002291455              -0.000303728              -0.000151105               0.000814179               0.000663074               0.000000000               0.000000000               0.000000000               0.000000000               0.000327836               0.002384127              -0.000267750              -0.000175077               0.000853060               0.000677983               0.000000000               0.000000000               0.000000000               0.000000000               0.000305671               0.002481854              -0.000230258              -0.000195605               0.000892478               0.000696873               0.000000000               0.000000000               0.000000000               0.000000000               0.000291816               0.002582509              -0.000191373              -0.000213382               0.000931955               0.000718573               0.000000000               0.000000000               0.000000000               0.000000000               0.000277511               0.002679912              -0.000151489              -0.000230922               0.000970269               0.000739347               0.000000000               0.000000000               0.000000000               0.000000000               0.000255973               0.002760601              -0.000109901              -0.000249085               0.001003220               0.000754135               0.000000000               0.000000000               0.000000000               0.000000000               0.000231293               0.002820589              -0.000060616              -0.000265838               0.001028800               0.000762961               0.000000000               0.000000000               0.000000000               0.000000000               0.000207682               0.002839290              -0.000030135              -0.000277030               0.001038764               0.000761734               0.000000000               0.000000000               0.000000000               0.000000000               0.000292584               0.000168503              -0.000220462               0.000088655               0.000026615               0.000115270               0.000000000               0.000000000               0.000000000               0.000000000               0.000557684               0.000415980              -0.000345178               0.000157132               0.000086281               0.000243413               0.000000000               0.000000000               0.000000000               0.000000000               0.000690479               0.000757362              -0.000442266               0.000164258               0.000197699               0.000361957               0.000000000               0.000000000               0.000000000               0.000000000               0.000704906               0.001066719              -0.000442285               0.000130998               0.000311903               0.000442902               0.000000000               0.000000000               0.000000000               0.000000000               0.000675043               0.001327327              -0.000412981               0.000087224               0.000413363               0.000500587               0.000000000               0.000000000               0.000000000               0.000000000               0.000628117               0.001547440              -0.000375631               0.000042113               0.000501770               0.000543883               0.000000000               0.000000000               0.000000000               0.000000000               0.000578145               0.001740323              -0.000338859              -0.000000736               0.000580347               0.000579611               0.000000000               0.000000000               0.000000000               0.000000000               0.000530566               0.001915547              -0.000305560              -0.000040481               0.000652003               0.000611522               0.000000000               0.000000000               0.000000000               0.000000000               0.000485341               0.002065120              -0.000273952              -0.000076137               0.000713746               0.000637609               0.000000000               0.000000000               0.000000000               0.000000000               0.000438166               0.002187462              -0.000243307              -0.000109120               0.000765520               0.000656400               0.000000000               0.000000000               0.000000000               0.000000000               0.000395228               0.002302574              -0.000215976              -0.000139611               0.000814054               0.000674443               0.000000000               0.000000000               0.000000000               0.000000000               0.000366318               0.002413173              -0.000191771              -0.000164277               0.000859142               0.000694865               0.000000000               0.000000000               0.000000000               0.000000000               0.000351620               0.002517578              -0.000163581              -0.000182839               0.000900131               0.000717291               0.000000000               0.000000000               0.000000000               0.000000000               0.000342186               0.002619234              -0.000129105              -0.000199084               0.000939431               0.000740347               0.000000000               0.000000000               0.000000000               0.000000000               0.000335651               0.002713565              -0.000095478              -0.000213326               0.000975621               0.000762295               0.000000000               0.000000000               0.000000000               0.000000000               0.000332295               0.002794639              -0.000055747              -0.000224719               0.001006443               0.000781725               0.000000000               0.000000000               0.000000000               0.000000000               0.000328126               0.002829319              -0.000030698              -0.000230617               0.001019969               0.000789352               0.000000000               0.000000000               0.000000000               0.000000000               0.000185235               0.000081170              -0.000101055               0.000059316               0.000007284               0.000066600               0.000000000               0.000000000               0.000000000               0.000000000               0.000521626               0.000291096              -0.000172459               0.000159221               0.000043957               0.000203178               0.000000000               0.000000000               0.000000000               0.000000000               0.000724030               0.000593009              -0.000231287               0.000197383               0.000131873               0.000329256               0.000000000               0.000000000               0.000000000               0.000000000               0.000768373               0.000895740              -0.000236503               0.000176171               0.000239853               0.000416024               0.000000000               0.000000000               0.000000000               0.000000000               0.000750490               0.001165280              -0.000223842               0.000135773               0.000343165               0.000478938               0.000000000               0.000000000               0.000000000               0.000000000               0.000706155               0.001399136              -0.000206442               0.000089915               0.000436402               0.000526317               0.000000000               0.000000000               0.000000000               0.000000000               0.000652425               0.001603553              -0.000189039               0.000044215               0.000519774               0.000563989               0.000000000               0.000000000               0.000000000               0.000000000               0.000597122               0.001791675              -0.000172188              -0.000000039               0.000597232               0.000597193               0.000000000               0.000000000               0.000000000               0.000000000               0.000543944               0.001963875              -0.000153626              -0.000041505               0.000668454               0.000626948               0.000000000               0.000000000               0.000000000               0.000000000               0.000495241               0.002113277              -0.000135064              -0.000078444               0.000730567               0.000652122               0.000000000               0.000000000               0.000000000               0.000000000               0.000453348               0.002240393              -0.000121344              -0.000110043               0.000783471               0.000673428               0.000000000               0.000000000               0.000000000               0.000000000               0.000419293               0.002353831              -0.000111862              -0.000136994               0.000830267               0.000693273               0.000000000               0.000000000               0.000000000               0.000000000               0.000396384               0.002462967              -0.000095193              -0.000159227               0.000874056               0.000714830               0.000000000               0.000000000               0.000000000               0.000000000               0.000388520               0.002570972              -0.000073238              -0.000175676               0.000915541               0.000739865               0.000000000               0.000000000               0.000000000               0.000000000               0.000395885               0.002676531              -0.000054977              -0.000186109               0.000954205               0.000768096               0.000000000               0.000000000               0.000000000               0.000000000               0.000414570               0.002774490              -0.000032937              -0.000191347               0.000988603               0.000797256               0.000000000               0.000000000               0.000000000               0.000000000               0.000430212               0.002821690              -0.000019241              -0.000191381               0.001004348               0.000812967               0.000000000               0.000000000               0.000000000               0.000000000               0.000000000               0.000000000               0.000000000               0.000000000               0.000000000               0.000000000               0.000000000               0.000000000               0.000000000               0.000000000               0.000000000               0.000000000               0.000000000               0.000000000               0.000000000               0.000000000               0.000000000               0.000000000               0.000000000               0.000000000               0.000000000               0.000000000               0.000000000               0.000000000               0.000000000               0.000000000               0.000000000               0.000000000               0.000000000               0.000000000               0.000000000               0.000000000               0.000000000               0.000000000               0.000000000               0.000000000               0.000000000               0.000000000               0.000000000               0.000000000               0.000000000               0.000000000               0.000000000               0.000000000               0.000000000               0.000000000               0.000000000               0.000000000               0.000000000               0.000000000               0.000000000               0.000000000               0.000000000               0.000000000               0.000000000               0.000000000               0.000000000               0.000000000               0.000000000               0.000000000               0.000000000               0.000000000               0.000000000               0.000000000               0.000000000               0.000000000               0.000000000               0.000000000               0.000000000               0.000000000               0.000000000               0.000000000               0.000000000               0.000000000               0.000000000               0.000000000               0.000000000               0.000000000               0.000000000               0.000000000               0.000000000               0.000000000               0.000000000               0.000000000               0.000000000               0.000000000               0.000000000               0.000000000               0.000000000               0.000000000               0.000000000               0.000000000               0.000000000               0.000000000               0.000000000               0.000000000               0.000000000               0.000000000               0.000000000               0.000000000               0.000000000               0.000000000               0.000000000               0.000000000               0.000000000               0.000000000               0.000000000               0.000000000               0.000000000               0.000000000               0.000000000               0.000000000               0.000000000               0.000000000               0.000000000               0.000000000               0.000000000               0.000000000               0.000000000               0.000000000               0.000000000               0.000000000               0.000000000               0.000000000               0.000000000               0.000000000               0.000000000               0.000000000               0.000000000               0.000000000               0.000000000               0.000000000               0.000000000               0.000000000               0.000000000               0.000000000               0.000000000               0.000000000               0.000000000               0.000000000               0.000000000               0.000000000               0.000000000               0.000000000               0.000000000               0.000000000               0.000000000               0.000000000               0.000000000               0.000000000               0.000000000               0.000000000               0.000000000               0.000000000               0.000000000               0.000000000               0.000000000               0.000000000               0.000000000               0.000000000               0.000000000               0.000000000               0.000000000               0.000000000               0.000000000               0.000000000               0.000000000               0.000000000               0.000000000               0.000000000               0.000000000               0.000000000               0.000000000               0.000000000               0.000000000               0.000000000               0.000000000               0.000000000               0.000000000               0.000000000               0.000000000               0.000000000               0.000000000               0.000000000               0.000000000               0.000000000               0.000000000               0.000000000               0.000000000               0.000000000               0.000000000               0.000000000               0.000000000               0.000000000               0.000000000               0.000000000               0.000000000               0.000000000               0.000000000               0.000000000               0.000000000               0.000000000               0.000000000               0.000000000               0.000000000               0.000000000               0.000000000               0.000000000               0.000000000               0.000000000               0.000000000               0.000000000               0.000000000               0.000000000               0.000000000               0.000000000               0.000000000               0.000000000               0.000000000               0.000000000               0.000000000               0.000000000               0.000000000               0.000000000               0.000000000               0.000000000               0.000000000               0.000000000               0.000000000               0.000000000               0.000000000               0.000000000               0.000000000               0.000000000               0.000000000               0.000000000               0.000000000               0.000000000               0.000000000               0.000000000               0.000000000               0.000000000               0.000000000               0.000000000               0.000000000               0.000000000               0.000000000               0.000000000               0.000000000               0.000000000               0.000000000               0.000000000               0.000000000               0.000000000               0.000000000               0.000000000               0.000000000               0.000000000               0.000000000               0.000000000               0.000000000               0.000000000               0.000000000               0.000000000               0.000000000               0.000000000               0.000000000               0.000000000               0.000000000               0.000000000               0.000000000               0.000000000               0.000000000               0.000000000               0.000000000               0.000000000               0.000000000               0.000000000               0.000000000               0.000000000               0.000000000               0.000000000               0.000000000               0.000000000               0.000000000               0.000000000               0.000000000               0.000000000               0.000000000               0.000000000               0.000000000               0.000000000               0.000000000               0.000000000               0.000000000               0.000000000               0.000000000               0.000000000               0.000000000               0.000000000               0.000000000               0.000000000               0.000000000               0.000000000               0.000000000               0.000000000               0.000000000               0.000000000               0.000000000               0.000000000               0.000000000               0.000000000               0.000000000               0.000000000               0.000000000               0.000000000               0.000000000               0.000000000               0.000000000               0.000000000               0.000000000               0.000000000               0.000000000               0.000000000               0.000000000               0.000000000               0.000000000               0.000000000               0.000000000               0.000000000               0.000000000               0.000000000               0.000000000               0.000000000               0.000000000               0.000000000               0.000000000               0.000000000               0.000000000               0.000000000               0.000483716               0.005209325               0.000408890              -0.000469771               0.001893015               0.001423244               0.000000000               0.000000000               0.000000000               0.000000000               0.000514881               0.004347063               0.000270205              -0.000350302               0.001565774               0.001215472               0.000000000               0.000000000               0.000000000               0.000000000               0.000693298               0.003658599               0.000124829              -0.000197338               0.001285300               0.001087962               0.000000000               0.000000000               0.000000000               0.000000000               0.000718391               0.003281582               0.000054000              -0.000140801               0.001140784               0.000999983               0.000000000               0.000000000               0.000000000               0.000000000               0.000682020               0.003062343               0.000018201              -0.000127035               0.001063116               0.000936081               0.000000000               0.000000000               0.000000000               0.000000000               0.000618561               0.002928210              -0.000000546              -0.000134066               0.001020749               0.000886683               0.000000000               0.000000000               0.000000000               0.000000000               0.000550618               0.002845510              -0.000009265              -0.000149207               0.000998229               0.000849023               0.000000000               0.000000000               0.000000000               0.000000000               0.000484600               0.002796503              -0.000012051              -0.000167837               0.000988104               0.000820267               0.000000000               0.000000000               0.000000000               0.000000000               0.000422507               0.002768884              -0.000012641              -0.000187670               0.000985509               0.000797839               0.000000000               0.000000000               0.000000000               0.000000000               0.000364484               0.002755965              -0.000012016              -0.000207814               0.000987917               0.000780103               0.000000000               0.000000000               0.000000000               0.000000000               0.000308163               0.002751791              -0.000011590              -0.000228412               0.000993392               0.000764980               0.000000000               0.000000000               0.000000000               0.000000000               0.000255393               0.002755943              -0.000009672              -0.000248720               0.001001545               0.000752825               0.000000000               0.000000000               0.000000000               0.000000000               0.000205913               0.002764030              -0.000007106              -0.000268286               0.001010763               0.000742477               0.000000000               0.000000000               0.000000000               0.000000000               0.000157572               0.002776555              -0.000008761              -0.000287979               0.001021502               0.000733523               0.000000000               0.000000000               0.000000000               0.000000000               0.000106445               0.002795193              -0.000010973              -0.000309481               0.001034882               0.000725401               0.000000000               0.000000000               0.000000000               0.000000000               0.000052792               0.002816992              -0.000008585              -0.000332326               0.001049763               0.000717437               0.000000000               0.000000000               0.000000000               0.000000000               0.000028599               0.002834087              -0.000005640              -0.000343535               0.001059198               0.000715663               0.000000000               0.000000000               0.000000000               0.000000000               0.000570455               0.004963791               0.000777437              -0.000406553               0.001790098               0.001383545               0.000000000               0.000000000               0.000000000               0.000000000               0.000548705               0.004171666               0.000513389              -0.000315693               0.001495773               0.001180079               0.000000000               0.000000000               0.000000000               0.000000000               0.000670317               0.003560437               0.000237793              -0.000193686               0.001251362               0.001057677               0.000000000               0.000000000               0.000000000               0.000000000               0.000669645               0.003226550               0.000106778              -0.000152201               0.001126240               0.000974038               0.000000000               0.000000000               0.000000000               0.000000000               0.000625111               0.003032730               0.000042510              -0.000144674               0.001059124               0.000914450               0.000000000               0.000000000               0.000000000               0.000000000               0.000560945               0.002912725               0.000011395              -0.000153736               0.001022144               0.000868408               0.000000000               0.000000000               0.000000000               0.000000000               0.000492216               0.002835508              -0.000003987              -0.000169857               0.001001779               0.000831922               0.000000000               0.000000000               0.000000000               0.000000000               0.000428417               0.002789186              -0.000011060              -0.000187991               0.000992383               0.000804392               0.000000000               0.000000000               0.000000000               0.000000000               0.000370952               0.002764262              -0.000013019              -0.000206425               0.000990220               0.000783795               0.000000000               0.000000000               0.000000000               0.000000000               0.000317113               0.002752004              -0.000011547              -0.000225082               0.000992353               0.000767271               0.000000000               0.000000000               0.000000000               0.000000000               0.000266249               0.002748162              -0.000010660              -0.000243676               0.000997270               0.000753594               0.000000000               0.000000000               0.000000000               0.000000000               0.000218915               0.002751383              -0.000008699              -0.000261829               0.001004395               0.000742566               0.000000000               0.000000000               0.000000000               0.000000000               0.000174131               0.002759793              -0.000005378              -0.000279674               0.001013147               0.000733472               0.000000000               0.000000000               0.000000000               0.000000000               0.000131537               0.002774130              -0.000008973              -0.000297439               0.001023847               0.000726408               0.000000000               0.000000000               0.000000000               0.000000000               0.000088354               0.002795681              -0.000015302              -0.000316327               0.001037326               0.000721000               0.000000000               0.000000000               0.000000000               0.000000000               0.000043860               0.002822532              -0.000012768              -0.000336368               0.001052957               0.000716589               0.000000000               0.000000000               0.000000000               0.000000000               0.000025161               0.002844391              -0.000006789              -0.000346113               0.001063492               0.000717379               0.000000000               0.000000000               0.000000000               0.000000000               0.000694064               0.004592526               0.001070503              -0.000313792               0.001635424               0.001321632               0.000000000               0.000000000               0.000000000               0.000000000               0.000594014               0.003909375               0.000708988              -0.000265916               0.001391751               0.001125834               0.000000000               0.000000000               0.000000000               0.000000000               0.000632451               0.003416079               0.000335301              -0.000189841               0.001201962               0.001012121               0.000000000               0.000000000               0.000000000               0.000000000               0.000596148               0.003142716               0.000162317              -0.000169284               0.001103989               0.000934706               0.000000000               0.000000000               0.000000000               0.000000000               0.000538321               0.002980308               0.000078448              -0.000170668               0.001050315               0.000879648               0.000000000               0.000000000               0.000000000               0.000000000               0.000475250               0.002877786               0.000038233              -0.000181504               0.001019754               0.000838250               0.000000000               0.000000000               0.000000000               0.000000000               0.000413854               0.002814091               0.000018900              -0.000196565               0.001003543               0.000806977               0.000000000               0.000000000               0.000000000               0.000000000               0.000355158               0.002774728               0.000009281              -0.000213656               0.000996119               0.000782463               0.000000000               0.000000000               0.000000000               0.000000000               0.000303353               0.002753786               0.000006478              -0.000230465               0.000994741               0.000764276               0.000000000               0.000000000               0.000000000               0.000000000               0.000258597               0.002743706               0.000007597              -0.000245989               0.000996556               0.000750567               0.000000000               0.000000000               0.000000000               0.000000000               0.000218088               0.002741286               0.000007436              -0.000260877               0.001000712               0.000739835               0.000000000               0.000000000               0.000000000               0.000000000               0.000179231               0.002744770               0.000007414              -0.000275884               0.001006876               0.000730992               0.000000000               0.000000000               0.000000000               0.000000000               0.000138640               0.002756178               0.000009177              -0.000292532               0.001016227               0.000723696               0.000000000               0.000000000               0.000000000               0.000000000               0.000098470               0.002772146               0.000003610              -0.000309591               0.001027237               0.000717645               0.000000000               0.000000000               0.000000000               0.000000000               0.000062869               0.002791330              -0.000006767              -0.000325339               0.001038880               0.000713541               0.000000000               0.000000000               0.000000000               0.000000000               0.000030345               0.002813275              -0.000008366              -0.000340279               0.001051175               0.000710896               0.000000000               0.000000000               0.000000000               0.000000000               0.000017724               0.002830978              -0.000004239              -0.000347225               0.001059392               0.000712167               0.000000000               0.000000000               0.000000000               0.000000000               0.000822187               0.004126395               0.001269355              -0.000207480               0.001444611               0.001237131               0.000000000               0.000000000               0.000000000               0.000000000               0.000632058               0.003584031               0.000848105              -0.000210982               0.001264992               0.001054010               0.000000000               0.000000000               0.000000000               0.000000000               0.000576066               0.003238948               0.000416249              -0.000188843               0.001142586               0.000953743               0.000000000               0.000000000               0.000000000               0.000000000               0.000510332               0.003041043               0.000221953              -0.000188755               0.001076589               0.000887834               0.000000000               0.000000000               0.000000000               0.000000000               0.000446251               0.002916119               0.000128448              -0.000197170               0.001037753               0.000840583               0.000000000               0.000000000               0.000000000               0.000000000               0.000386685               0.002835367               0.000082348              -0.000209413               0.001014917               0.000805504               0.000000000               0.000000000               0.000000000               0.000000000               0.000333058               0.002785221               0.000059421              -0.000223255               0.001002816               0.000779561               0.000000000               0.000000000               0.000000000               0.000000000               0.000283260               0.002754875               0.000047345              -0.000238137               0.000997661               0.000759525               0.000000000               0.000000000               0.000000000               0.000000000               0.000240730               0.002737858               0.000041201              -0.000251958               0.000996596               0.000744638               0.000000000               0.000000000               0.000000000               0.000000000               0.000206101               0.002730294               0.000039375              -0.000263998               0.000998088               0.000734090               0.000000000               0.000000000               0.000000000               0.000000000               0.000174703               0.002729162               0.000037208              -0.000275631               0.001001589               0.000725958               0.000000000               0.000000000               0.000000000               0.000000000               0.000140209               0.002731927               0.000031730              -0.000288912               0.001006937               0.000718025               0.000000000               0.000000000               0.000000000               0.000000000               0.000102392               0.002742190               0.000027174              -0.000304376               0.001015513               0.000711137               0.000000000               0.000000000               0.000000000               0.000000000               0.000067191               0.002755991               0.000020163              -0.000319302               0.001025088               0.000705787               0.000000000               0.000000000               0.000000000               0.000000000               0.000039394               0.002766614               0.000007068              -0.000331053               0.001032546               0.000701493               0.000000000               0.000000000               0.000000000               0.000000000               0.000018806               0.002774333              -0.000000226              -0.000339738               0.001038015               0.000698276               0.000000000               0.000000000               0.000000000               0.000000000               0.000011652               0.002780965               0.000000660              -0.000343250               0.001041396               0.000698145               0.000000000               0.000000000               0.000000000               0.000000000               0.000927251               0.003604718               0.001372906              -0.000102872               0.001235851               0.001132979               0.000000000               0.000000000               0.000000000               0.000000000               0.000655897               0.003229715               0.000933444              -0.000157753               0.001129145               0.000971392               0.000000000               0.000000000               0.000000000               0.000000000               0.000512055               0.003053398               0.000483750              -0.000189654               0.001081007               0.000891353               0.000000000               0.000000000               0.000000000               0.000000000               0.000424173               0.002932131               0.000285804              -0.000207451               0.001046518               0.000839067               0.000000000               0.000000000               0.000000000               0.000000000               0.000361028               0.002843656               0.000189218              -0.000220071               0.001021233               0.000801162               0.000000000               0.000000000               0.000000000               0.000000000               0.000308921               0.002784556               0.000138956              -0.000232224               0.001005584               0.000773360               0.000000000               0.000000000               0.000000000               0.000000000               0.000264274               0.002746706               0.000111240              -0.000244235               0.000996971               0.000752736               0.000000000               0.000000000               0.000000000               0.000000000               0.000226078               0.002722210               0.000093007              -0.000255496               0.000992560               0.000737063               0.000000000               0.000000000               0.000000000               0.000000000               0.000192751               0.002706331               0.000080014              -0.000266009               0.000990771               0.000724762               0.000000000               0.000000000               0.000000000               0.000000000               0.000164664               0.002700178               0.000071841              -0.000275772               0.000991974               0.000716202               0.000000000               0.000000000               0.000000000               0.000000000               0.000137010               0.002701094               0.000065177              -0.000286257               0.000995775               0.000709518               0.000000000               0.000000000               0.000000000               0.000000000               0.000107808               0.002706641               0.000053883              -0.000297901               0.001001505               0.000703604               0.000000000               0.000000000               0.000000000               0.000000000               0.000075690               0.002716883               0.000040923              -0.000311226               0.001009361               0.000698135               0.000000000               0.000000000               0.000000000               0.000000000               0.000046595               0.002727781               0.000030534              -0.000323499               0.001017084               0.000693586               0.000000000               0.000000000               0.000000000               0.000000000               0.000026607               0.002733227               0.000018734              -0.000331675               0.001021625               0.000689950               0.000000000               0.000000000               0.000000000               0.000000000               0.000012073               0.002733243               0.000008214              -0.000337127               0.001023448               0.000686321               0.000000000               0.000000000               0.000000000               0.000000000               0.000007576               0.002736450               0.000005442              -0.000339215               0.001025212               0.000685998               0.000000000               0.000000000               0.000000000               0.000000000               0.000994077               0.003072360               0.001389057              -0.000011268               0.001027865               0.001016597               0.000000000               0.000000000               0.000000000               0.000000000               0.000663818               0.002880528               0.000972471              -0.000111135               0.000997211               0.000886076               0.000000000               0.000000000               0.000000000               0.000000000               0.000450890               0.002872110               0.000543336              -0.000189930               0.001020670               0.000830740               0.000000000               0.000000000               0.000000000               0.000000000               0.000350317               0.002815456               0.000352354              -0.000220563               0.001011997               0.000791434               0.000000000               0.000000000               0.000000000               0.000000000               0.000291103               0.002760810               0.000253981              -0.000235937               0.000998907               0.000762969               0.000000000               0.000000000               0.000000000               0.000000000               0.000248447               0.002722468               0.000196587              -0.000247140               0.000989861               0.000742720               0.000000000               0.000000000               0.000000000               0.000000000               0.000214003               0.002696826               0.000160902              -0.000256851               0.000984550               0.000727699               0.000000000               0.000000000               0.000000000               0.000000000               0.000185677               0.002678571               0.000135971              -0.000265192               0.000981245               0.000716054               0.000000000               0.000000000               0.000000000               0.000000000               0.000158754               0.002665779               0.000114667              -0.000273689               0.000979814               0.000706125               0.000000000               0.000000000               0.000000000               0.000000000               0.000135330               0.002665008               0.000097452              -0.000282377               0.000982453               0.000700076               0.000000000               0.000000000               0.000000000               0.000000000               0.000109875               0.002672329               0.000082642              -0.000292837               0.000988380               0.000695543               0.000000000               0.000000000               0.000000000               0.000000000               0.000083953               0.002687841               0.000063899              -0.000304497               0.000997437               0.000692940               0.000000000               0.000000000               0.000000000               0.000000000               0.000061684               0.002704903               0.000045018              -0.000314981               0.001006619               0.000691638               0.000000000               0.000000000               0.000000000               0.000000000               0.000043211               0.002717011               0.000033495              -0.000323422               0.001013468               0.000690047               0.000000000               0.000000000               0.000000000               0.000000000               0.000028590               0.002723694               0.000024626              -0.000329740               0.001017802               0.000688063               0.000000000               0.000000000               0.000000000               0.000000000               0.000015295               0.002729610               0.000013616              -0.000335465               0.001021683               0.000686218               0.000000000               0.000000000               0.000000000               0.000000000               0.000011654               0.002737329               0.000008850              -0.000337795               0.001025032               0.000687237               0.000000000               0.000000000               0.000000000               0.000000000               0.001023949               0.002561880               0.001329734               0.000063744               0.000832703               0.000896447               0.000000000               0.000000000               0.000000000               0.000000000               0.000656616               0.002552646               0.000973767              -0.000072851               0.000875157               0.000802306               0.000000000               0.000000000               0.000000000               0.000000000               0.000397682               0.002691489               0.000596843              -0.000187305               0.000959589               0.000772284               0.000000000               0.000000000               0.000000000               0.000000000               0.000295462               0.002692228               0.000415882              -0.000225730               0.000972644               0.000746914               0.000000000               0.000000000               0.000000000               0.000000000               0.000245114               0.002673240               0.000313065              -0.000242237               0.000971817               0.000729580               0.000000000               0.000000000               0.000000000               0.000000000               0.000210040               0.002657767               0.000247665              -0.000253455               0.000970399               0.000716943               0.000000000               0.000000000               0.000000000               0.000000000               0.000182730               0.002643635               0.000203413              -0.000261930               0.000968513               0.000706583               0.000000000               0.000000000               0.000000000               0.000000000               0.000160839               0.002633560               0.000170189              -0.000268880               0.000967471               0.000698591               0.000000000               0.000000000               0.000000000               0.000000000               0.000139986               0.002632287               0.000139165              -0.000276540               0.000969600               0.000693060               0.000000000               0.000000000               0.000000000               0.000000000               0.000120903               0.002643923               0.000110216              -0.000285151               0.000976349               0.000691198               0.000000000               0.000000000               0.000000000               0.000000000               0.000099553               0.002665759               0.000086014              -0.000295887               0.000987206               0.000691320               0.000000000               0.000000000               0.000000000               0.000000000               0.000077642               0.002691943               0.000062868              -0.000307376               0.000999764               0.000692388               0.000000000               0.000000000               0.000000000               0.000000000               0.000061842               0.002713520               0.000044431              -0.000315998               0.001009830               0.000693832               0.000000000               0.000000000               0.000000000               0.000000000               0.000049999               0.002730063               0.000034539              -0.000322508               0.001017514               0.000695007               0.000000000               0.000000000               0.000000000               0.000000000               0.000036042               0.002744471               0.000027272              -0.000329542               0.001024662               0.000695120               0.000000000               0.000000000               0.000000000               0.000000000               0.000019101               0.002758326               0.000016186              -0.000337627               0.001031975               0.000694348               0.000000000               0.000000000               0.000000000               0.000000000               0.000012395               0.002767661               0.000010277              -0.000341309               0.001036314               0.000695006               0.000000000               0.000000000               0.000000000               0.000000000               0.001030700               0.002110104               0.001217846               0.000122747               0.000662445               0.000785192               0.000000000               0.000000000               0.000000000               0.000000000               0.000653993               0.002255391               0.000955889              -0.000036678               0.000764015               0.000727338               0.000000000               0.000000000               0.000000000               0.000000000               0.000370454               0.002521245               0.000656025              -0.000176235               0.000899152               0.000722916               0.000000000               0.000000000               0.000000000               0.000000000               0.000271660               0.002582333               0.000483640              -0.000220919               0.000934409               0.000713490               0.000000000               0.000000000               0.000000000               0.000000000               0.000225592               0.002601462               0.000373951              -0.000240585               0.000947341               0.000706755               0.000000000               0.000000000               0.000000000               0.000000000               0.000195917               0.002608741               0.000299809              -0.000252623               0.000953779               0.000701156               0.000000000               0.000000000               0.000000000               0.000000000               0.000174089               0.002608182               0.000247288              -0.000260739               0.000956298               0.000695559               0.000000000               0.000000000               0.000000000               0.000000000               0.000156391               0.002609794               0.000203579              -0.000267577               0.000959115               0.000691538               0.000000000               0.000000000               0.000000000               0.000000000               0.000140537               0.002623967               0.000163280              -0.000275294               0.000966411               0.000691118               0.000000000               0.000000000               0.000000000               0.000000000               0.000126242               0.002650062               0.000125548              -0.000283916               0.000977984               0.000694068               0.000000000               0.000000000               0.000000000               0.000000000               0.000108069               0.002681347               0.000095460              -0.000294642               0.000991987               0.000697346               0.000000000               0.000000000               0.000000000               0.000000000               0.000090089               0.002712034               0.000071762              -0.000305220               0.001005742               0.000700522               0.000000000               0.000000000               0.000000000               0.000000000               0.000079578               0.002739009               0.000052246              -0.000312534               0.001017172               0.000704638               0.000000000               0.000000000               0.000000000               0.000000000               0.000070873               0.002761646               0.000038037              -0.000318628               0.001026749               0.000708121               0.000000000               0.000000000               0.000000000               0.000000000               0.000054658               0.002784019               0.000027561              -0.000327505               0.001037165               0.000709661               0.000000000               0.000000000               0.000000000               0.000000000               0.000033305               0.002806706               0.000017229              -0.000338348               0.001048342               0.000709994               0.000000000               0.000000000               0.000000000               0.000000000               0.000019342               0.002815903               0.000010547              -0.000344734               0.001053536               0.000708802               0.000000000               0.000000000               0.000000000               0.000000000               0.001001221               0.001665408               0.001078538               0.000167279               0.000499370               0.000666649               0.000000000               0.000000000               0.000000000               0.000000000               0.000666194               0.001905479               0.000929788               0.000011636               0.000631274               0.000642911               0.000000000               0.000000000               0.000000000               0.000000000               0.000384631               0.002265367               0.000728295              -0.000138935               0.000801426               0.000662492               0.000000000               0.000000000               0.000000000               0.000000000               0.000285537               0.002400651               0.000568711              -0.000193005               0.000864544               0.000671539               0.000000000               0.000000000               0.000000000               0.000000000               0.000237160               0.002469292               0.000452773              -0.000219726               0.000896331               0.000676605               0.000000000               0.000000000               0.000000000               0.000000000               0.000208081               0.002510754               0.000370399              -0.000235813               0.000915514               0.000679701               0.000000000               0.000000000               0.000000000               0.000000000               0.000187143               0.002537105               0.000308635              -0.000246959               0.000928013               0.000681054               0.000000000               0.000000000               0.000000000               0.000000000               0.000169761               0.002556855               0.000255740              -0.000255946               0.000937592               0.000681646               0.000000000               0.000000000               0.000000000               0.000000000               0.000154269               0.002581053               0.000210217              -0.000264780               0.000948602               0.000683822               0.000000000               0.000000000               0.000000000               0.000000000               0.000141710               0.002614363               0.000168903              -0.000273654               0.000962664               0.000689010               0.000000000               0.000000000               0.000000000               0.000000000               0.000130853               0.002654553               0.000134356              -0.000282749               0.000979092               0.000696343               0.000000000               0.000000000               0.000000000               0.000000000               0.000116845               0.002698907               0.000105032              -0.000293546               0.000997475               0.000703929               0.000000000               0.000000000               0.000000000               0.000000000               0.000102992               0.002742538               0.000078581              -0.000304194               0.001015568               0.000711374               0.000000000               0.000000000               0.000000000               0.000000000               0.000089184               0.002776683               0.000054126              -0.000313640               0.001030099               0.000716458               0.000000000               0.000000000               0.000000000               0.000000000               0.000072769               0.002806311               0.000033001              -0.000323500               0.001043261               0.000719761               0.000000000               0.000000000               0.000000000               0.000000000               0.000050687               0.002834130               0.000015727              -0.000335258               0.001056453               0.000721195               0.000000000               0.000000000               0.000000000               0.000000000               0.000030993               0.002841820               0.000004886              -0.000343604               0.001061799               0.000718194               0.000000000               0.000000000               0.000000000               0.000000000               0.000918204               0.001242563               0.000913816               0.000189003               0.000351182               0.000540185               0.000000000               0.000000000               0.000000000               0.000000000               0.000679839               0.001551859               0.000879322               0.000060956               0.000496962               0.000557918               0.000000000               0.000000000               0.000000000               0.000000000               0.000435763               0.001976869               0.000782756              -0.000083698               0.000686849               0.000603151               0.000000000               0.000000000               0.000000000               0.000000000               0.000334044               0.002182144               0.000649833              -0.000147502               0.000776541               0.000629039               0.000000000               0.000000000               0.000000000               0.000000000               0.000279775               0.002302985               0.000536635              -0.000182957               0.000828640               0.000645682               0.000000000               0.000000000               0.000000000               0.000000000               0.000245058               0.002387086               0.000448872              -0.000206489               0.000864517               0.000658028               0.000000000               0.000000000               0.000000000               0.000000000               0.000219476               0.002448435               0.000378565              -0.000223750               0.000890720               0.000666970               0.000000000               0.000000000               0.000000000               0.000000000               0.000199570               0.002492136               0.000320198              -0.000236678               0.000909596               0.000672919               0.000000000               0.000000000               0.000000000               0.000000000               0.000183736               0.002528124               0.000271985              -0.000247114               0.000925071               0.000677957               0.000000000               0.000000000               0.000000000               0.000000000               0.000172725               0.002568227               0.000230428              -0.000256256               0.000941486               0.000685230               0.000000000               0.000000000               0.000000000               0.000000000               0.000163509               0.002616910               0.000191321              -0.000265797               0.000960894               0.000695097               0.000000000               0.000000000               0.000000000               0.000000000               0.000151425               0.002675964               0.000153273              -0.000277710               0.000984549               0.000706839               0.000000000               0.000000000               0.000000000               0.000000000               0.000135190               0.002736307               0.000118741              -0.000291341               0.001009207               0.000717866               0.000000000               0.000000000               0.000000000               0.000000000               0.000116811               0.002784509               0.000086213              -0.000304259               0.001029580               0.000725321               0.000000000               0.000000000               0.000000000               0.000000000               0.000093688               0.002816888               0.000054557              -0.000316977               0.001044612               0.000727635               0.000000000               0.000000000               0.000000000               0.000000000               0.000064698               0.002839362               0.000025195              -0.000330658               0.001056664               0.000726006               0.000000000               0.000000000               0.000000000               0.000000000               0.000039154               0.002842735               0.000007210              -0.000340658               0.001061122               0.000720463               0.000000000               0.000000000               0.000000000               0.000000000               0.000785549               0.000864533               0.000728896               0.000186512               0.000226004               0.000412516               0.000000000               0.000000000               0.000000000               0.000000000               0.000672177               0.001206610               0.000789290               0.000101238               0.000368453               0.000469691               0.000000000               0.000000000               0.000000000               0.000000000               0.000501258               0.001654232               0.000785583              -0.000018808               0.000557674               0.000538866               0.000000000               0.000000000               0.000000000               0.000000000               0.000411192               0.001912906               0.000691420              -0.000084917               0.000665934               0.000581017               0.000000000               0.000000000               0.000000000               0.000000000               0.000354469               0.002085687               0.000592147              -0.000127785               0.000737817               0.000610032               0.000000000               0.000000000               0.000000000               0.000000000               0.000311366               0.002213755               0.000506615              -0.000159957               0.000791230               0.000631273               0.000000000               0.000000000               0.000000000               0.000000000               0.000278210               0.002312735               0.000433645              -0.000184763               0.000832491               0.000647728               0.000000000               0.000000000               0.000000000               0.000000000               0.000254002               0.002389102               0.000373365              -0.000203387               0.000864155               0.000660768               0.000000000               0.000000000               0.000000000               0.000000000               0.000233825               0.002445273               0.000325875              -0.000217974               0.000887741               0.000669767               0.000000000               0.000000000               0.000000000               0.000000000               0.000219508               0.002497873               0.000284748              -0.000229918               0.000909255               0.000679337               0.000000000               0.000000000               0.000000000               0.000000000               0.000207924               0.002558756               0.000242692              -0.000241873               0.000933534               0.000691662               0.000000000               0.000000000               0.000000000               0.000000000               0.000196862               0.002631666               0.000199666              -0.000255134               0.000962258               0.000707124               0.000000000               0.000000000               0.000000000               0.000000000               0.000180577               0.002705843               0.000159918              -0.000270513               0.000992110               0.000721596               0.000000000               0.000000000               0.000000000               0.000000000               0.000158526               0.002770957               0.000121582              -0.000286922               0.001019284               0.000732362               0.000000000               0.000000000               0.000000000               0.000000000               0.000128863               0.002814857               0.000081143              -0.000303533               0.001039454               0.000735921               0.000000000               0.000000000               0.000000000               0.000000000               0.000089370               0.002842622               0.000040597              -0.000321813               0.001054802               0.000732989               0.000000000               0.000000000               0.000000000               0.000000000               0.000054892               0.002846611               0.000015390              -0.000335241               0.001060608               0.000725367               0.000000000               0.000000000               0.000000000               0.000000000               0.000620117               0.000553824               0.000540911               0.000163314               0.000130168               0.000293482               0.000000000               0.000000000               0.000000000               0.000000000               0.000644052               0.000888207               0.000663985               0.000130492               0.000252568               0.000383060               0.000000000               0.000000000               0.000000000               0.000000000               0.000572009               0.001321726               0.000729321               0.000049286               0.000424142               0.000473428               0.000000000               0.000000000               0.000000000               0.000000000               0.000510250               0.001615060               0.000676340              -0.000010540               0.000541861               0.000531321               0.000000000               0.000000000               0.000000000               0.000000000               0.000456062               0.001830711               0.000599233              -0.000057816               0.000629503               0.000571687               0.000000000               0.000000000               0.000000000               0.000000000               0.000409178               0.001996370               0.000523871              -0.000096105               0.000697485               0.000601380               0.000000000               0.000000000               0.000000000               0.000000000               0.000367847               0.002132730               0.000456480              -0.000128649               0.000753786               0.000625137               0.000000000               0.000000000               0.000000000               0.000000000               0.000337386               0.002245330               0.000399412              -0.000154146               0.000799818               0.000645672               0.000000000               0.000000000               0.000000000               0.000000000               0.000308899               0.002329267               0.000353768              -0.000175321               0.000834855               0.000659534               0.000000000               0.000000000               0.000000000               0.000000000               0.000283056               0.002401190               0.000313738              -0.000194002               0.000865056               0.000671054               0.000000000               0.000000000               0.000000000               0.000000000               0.000264479               0.002476193               0.000272688              -0.000210344               0.000895504               0.000685160               0.000000000               0.000000000               0.000000000               0.000000000               0.000249905               0.002558429               0.000229091              -0.000226089               0.000928164               0.000702075               0.000000000               0.000000000               0.000000000               0.000000000               0.000234927               0.002648368               0.000186275              -0.000242948               0.000963763               0.000720815               0.000000000               0.000000000               0.000000000               0.000000000               0.000213130               0.002733446               0.000145439              -0.000261756               0.000998392               0.000736635               0.000000000               0.000000000               0.000000000               0.000000000               0.000184162               0.002796469               0.000101873              -0.000280497               0.001025646               0.000745149               0.000000000               0.000000000               0.000000000               0.000000000               0.000146095               0.002838438               0.000052855              -0.000300018               0.001046143               0.000746124               0.000000000               0.000000000               0.000000000               0.000000000               0.000111125               0.002846781               0.000023046              -0.000314175               0.001053643               0.000739468               0.000000000               0.000000000               0.000000000               0.000000000               0.000447178               0.000323023               0.000366906               0.000127313               0.000065235               0.000192548               0.000000000               0.000000000               0.000000000               0.000000000               0.000602502               0.000618489               0.000512074               0.000148625               0.000156619               0.000305244               0.000000000               0.000000000               0.000000000               0.000000000               0.000638166               0.001010679               0.000612991               0.000112976               0.000299231               0.000412207               0.000000000               0.000000000               0.000000000               0.000000000               0.000615127               0.001320707               0.000592796               0.000065583               0.000418370               0.000483953               0.000000000               0.000000000               0.000000000               0.000000000               0.000570977               0.001563733               0.000541266               0.000018649               0.000515023               0.000533672               0.000000000               0.000000000               0.000000000               0.000000000               0.000522848               0.001759745               0.000483245              -0.000023901               0.000594543               0.000570642               0.000000000               0.000000000               0.000000000               0.000000000               0.000475979               0.001929250               0.000429111              -0.000062664               0.000663965               0.000601301               0.000000000               0.000000000               0.000000000               0.000000000               0.000436169               0.002077969               0.000381112              -0.000096183               0.000724710               0.000628528               0.000000000               0.000000000               0.000000000               0.000000000               0.000399240               0.002197334               0.000339924              -0.000124952               0.000774088               0.000649136               0.000000000               0.000000000               0.000000000               0.000000000               0.000360870               0.002291455               0.000303728              -0.000151105               0.000814179               0.000663074               0.000000000               0.000000000               0.000000000               0.000000000               0.000327836               0.002384127               0.000267750              -0.000175077               0.000853060               0.000677983               0.000000000               0.000000000               0.000000000               0.000000000               0.000305671               0.002481854               0.000230258              -0.000195605               0.000892478               0.000696873               0.000000000               0.000000000               0.000000000               0.000000000               0.000291816               0.002582509               0.000191373              -0.000213382               0.000931955               0.000718573               0.000000000               0.000000000               0.000000000               0.000000000               0.000277511               0.002679912               0.000151489              -0.000230922               0.000970269               0.000739347               0.000000000               0.000000000               0.000000000               0.000000000               0.000255973               0.002760601               0.000109901              -0.000249085               0.001003220               0.000754135               0.000000000               0.000000000               0.000000000               0.000000000               0.000231293               0.002820589               0.000060616              -0.000265838               0.001028800               0.000762961               0.000000000               0.000000000               0.000000000               0.000000000               0.000207682               0.002839290               0.000030135              -0.000277030               0.001038764               0.000761734               0.000000000               0.000000000               0.000000000               0.000000000               0.000292584               0.000168503               0.000220462               0.000088655               0.000026615               0.000115270               0.000000000               0.000000000               0.000000000               0.000000000               0.000557684               0.000415980               0.000345178               0.000157132               0.000086281               0.000243413               0.000000000               0.000000000               0.000000000               0.000000000               0.000690479               0.000757362               0.000442266               0.000164258               0.000197699               0.000361957               0.000000000               0.000000000               0.000000000               0.000000000               0.000704906               0.001066719               0.000442285               0.000130998               0.000311903               0.000442902               0.000000000               0.000000000               0.000000000               0.000000000               0.000675043               0.001327327               0.000412981               0.000087224               0.000413363               0.000500587               0.000000000               0.000000000               0.000000000               0.000000000               0.000628117               0.001547440               0.000375631               0.000042113               0.000501770               0.000543883               0.000000000               0.000000000               0.000000000               0.000000000               0.000578145               0.001740323               0.000338859              -0.000000736               0.000580347               0.000579611               0.000000000               0.000000000               0.000000000               0.000000000               0.000530566               0.001915547               0.000305560              -0.000040481               0.000652003               0.000611522               0.000000000               0.000000000               0.000000000               0.000000000               0.000485341               0.002065120               0.000273952              -0.000076137               0.000713746               0.000637609               0.000000000               0.000000000               0.000000000               0.000000000               0.000438166               0.002187462               0.000243307              -0.000109120               0.000765520               0.000656400               0.000000000               0.000000000               0.000000000               0.000000000               0.000395228               0.002302574               0.000215976              -0.000139611               0.000814054               0.000674443               0.000000000               0.000000000               0.000000000               0.000000000               0.000366318               0.002413173               0.000191771              -0.000164277               0.000859142               0.000694865               0.000000000               0.000000000               0.000000000               0.000000000               0.000351620               0.002517578               0.000163581              -0.000182839               0.000900131               0.000717291               0.000000000               0.000000000               0.000000000               0.000000000               0.000342186               0.002619234               0.000129105              -0.000199084               0.000939431               0.000740347               0.000000000               0.000000000               0.000000000               0.000000000               0.000335651               0.002713565               0.000095478              -0.000213326               0.000975621               0.000762295               0.000000000               0.000000000               0.000000000               0.000000000               0.000332295               0.002794639               0.000055747              -0.000224719               0.001006443               0.000781725               0.000000000               0.000000000               0.000000000               0.000000000               0.000328126               0.002829319               0.000030698              -0.000230617               0.001019969               0.000789352               0.000000000               0.000000000               0.000000000               0.000000000               0.000185235               0.000081170               0.000101055               0.000059316               0.000007284               0.000066600               0.000000000               0.000000000               0.000000000               0.000000000               0.000521626               0.000291096               0.000172459               0.000159221               0.000043957               0.000203178               0.000000000               0.000000000               0.000000000               0.000000000               0.000724030               0.000593009               0.000231287               0.000197383               0.000131873               0.000329256               0.000000000               0.000000000               0.000000000               0.000000000               0.000768373               0.000895740               0.000236503               0.000176171               0.000239853               0.000416024               0.000000000               0.000000000               0.000000000               0.000000000               0.000750490               0.001165280               0.000223842               0.000135773               0.000343165               0.000478938               0.000000000               0.000000000               0.000000000               0.000000000               0.000706155               0.001399136               0.000206442               0.000089915               0.000436402               0.000526317               0.000000000               0.000000000               0.000000000               0.000000000               0.000652425               0.001603553               0.000189039               0.000044215               0.000519774               0.000563989               0.000000000               0.000000000               0.000000000               0.000000000               0.000597122               0.001791675               0.000172188              -0.000000039               0.000597232               0.000597193               0.000000000               0.000000000               0.000000000               0.000000000               0.000543944               0.001963875               0.000153626              -0.000041505               0.000668454               0.000626948               0.000000000               0.000000000               0.000000000               0.000000000               0.000495241               0.002113277               0.000135064              -0.000078444               0.000730567               0.000652122               0.000000000               0.000000000               0.000000000               0.000000000               0.000453348               0.002240393               0.000121344              -0.000110043               0.000783471               0.000673428               0.000000000               0.000000000               0.000000000               0.000000000               0.000419293               0.002353831               0.000111862              -0.000136994               0.000830267               0.000693273               0.000000000               0.000000000               0.000000000               0.000000000               0.000396384               0.002462967               0.000095193              -0.000159227               0.000874056               0.000714830               0.000000000               0.000000000               0.000000000               0.000000000               0.000388520               0.002570972               0.000073238              -0.000175676               0.000915541               0.000739865               0.000000000               0.000000000               0.000000000               0.000000000               0.000395885               0.002676531               0.000054977              -0.000186109               0.000954205               0.000768096               0.000000000               0.000000000               0.000000000               0.000000000               0.000414570               0.002774490               0.000032937              -0.000191347               0.000988603               0.000797256               0.000000000               0.000000000               0.000000000               0.000000000               0.000430212               0.002821690               0.000019241              -0.000191381               0.001004348               0.000812967               0.000000000               0.000000000               0.000000000               0.000000000               0.000000000               0.000000000               0.000000000               0.000000000               0.000000000               0.000000000               0.000000000               0.000000000               0.000000000               0.000000000               0.000000000               0.000000000               0.000000000               0.000000000               0.000000000               0.000000000               0.000000000               0.000000000               0.000000000               0.000000000               0.000000000               0.000000000               0.000000000               0.000000000               0.000000000               0.000000000               0.000000000               0.000000000               0.000000000               0.000000000               0.000000000               0.000000000               0.000000000               0.000000000               0.000000000               0.000000000               0.000000000               0.000000000               0.000000000               0.000000000               0.000000000               0.000000000               0.000000000               0.000000000               0.000000000               0.000000000               0.000000000               0.000000000               0.000000000               0.000000000               0.000000000               0.000000000               0.000000000               0.000000000               0.000000000               0.000000000               0.000000000               0.000000000               0.000000000               0.000000000               0.000000000               0.000000000               0.000000000               0.000000000               0.000000000               0.000000000               0.000000000               0.000000000               0.000000000               0.000000000               0.000000000               0.000000000               0.000000000               0.000000000               0.000000000               0.000000000               0.000000000               0.000000000               0.000000000               0.000000000               0.000000000               0.000000000               0.000000000               0.000000000               0.000000000               0.000000000               0.000000000               0.000000000               0.000000000               0.000000000               0.000000000               0.000000000               0.000000000               0.000000000               0.000000000               0.000000000               0.000000000               0.000000000               0.000000000               0.000000000               0.000000000               0.000000000               0.000000000               0.000000000               0.000000000               0.000000000               0.000000000               0.000000000               0.000000000               0.000000000               0.000000000               0.000000000               0.000000000               0.000000000               0.000000000               0.000000000               0.000000000               0.000000000               0.000000000               0.000000000               0.000000000               0.000000000               0.000000000               0.000000000               0.000000000               0.000000000               0.000000000               0.000000000               0.000000000               0.000000000               0.000000000               0.000000000               0.000000000               0.000000000               0.000000000               0.000000000               0.000000000               0.000000000               0.000000000               0.000000000               0.000000000               0.000000000               0.000000000               0.000000000               0.000000000               0.000000000               0.000000000               0.000000000               0.000000000               0.000000000               0.000000000               0.000000000               0.000000000               0.000000000               0.000000000               0.000000000               0.000000000               0.000000000               0.000000000               0.000000000               0.000000000               0.000000000               0.000000000               0.000000000               0.000000000               0.000000000               0.000000000               0.000000000               0.000000000               0.000000000 </DataArray>
</PointData>
</Piece>
</UnstructuredGrid> </VTKFile>
