<?xml version="1.0"?>
<VTKFile type="UnstructuredGrid" version="0.1">
<UnstructuredGrid>
<Piece NumberOfPoints="      1156" NumberOfCells="      1024">
<Points>
<DataArray type="Float64"                                    Name="coordinates"                                                      NumberOfComponents=" 3" format="ascii">
              0.133000000               0.000000000               0.000000000               0.155937500               0.000000000               0.000000000               0.178875000               0.000000000               0.000000000               0.201812500               0.000000000               0.000000000               0.224750000               0.000000000               0.000000000               0.247687500               0.000000000               0.000000000               0.270625000               0.000000000               0.000000000               0.293562500               0.000000000               0.000000000               0.316500000               0.000000000               0.000000000               0.339437500               0.000000000               0.000000000               0.362375000               0.000000000               0.000000000               0.385312500               0.000000000               0.000000000               0.408250000               0.000000000               0.000000000               0.431187500               0.000000000               0.000000000               0.454125000               0.000000000               0.000000000               0.477062500               0.000000000               0.000000000               0.500000000               0.000000000               0.000000000               0.132359569               0.013036280               0.000000000               0.155337096               0.016127762               0.000000000               0.178314623               0.019219245               0.000000000               0.201292150               0.022310727               0.000000000               0.224269676               0.025402210               0.000000000               0.247247203               0.028493692               0.000000000               0.270224730               0.031585175               0.000000000               0.293202257               0.034676657               0.000000000               0.316179784               0.037768140               0.000000000               0.339157311               0.040859622               0.000000000               0.362134838               0.043951105               0.000000000               0.385112365               0.047042587               0.000000000               0.408089892               0.050134070               0.000000000               0.431067419               0.053225552               0.000000000               0.454044946               0.056317035               0.000000000               0.477022473               0.059408517               0.000000000               0.500000000               0.062500000               0.000000000               0.130444442               0.025947013               0.000000000               0.153541665               0.032137825               0.000000000               0.176638887               0.038328636               0.000000000               0.199736109               0.044519448               0.000000000               0.222833332               0.050710260               0.000000000               0.245930554               0.056901071               0.000000000               0.269027776               0.063091883               0.000000000               0.292124999               0.069282695               0.000000000               0.315222221               0.075473506               0.000000000               0.338319444               0.081664318               0.000000000               0.361416666               0.087855130               0.000000000               0.384513888               0.094045942               0.000000000               0.407611111               0.100236753               0.000000000               0.430708333               0.106427565               0.000000000               0.453805555               0.112618377               0.000000000               0.476902778               0.118809188               0.000000000               0.500000000               0.125000000               0.000000000               0.127273065               0.038607862               0.000000000               0.150568498               0.047913621               0.000000000               0.173863932               0.057219379               0.000000000               0.197159365               0.066525138               0.000000000               0.220454798               0.075830897               0.000000000               0.243750232               0.085136655               0.000000000               0.267045665               0.094442414               0.000000000               0.290341099               0.103748172               0.000000000               0.313636532               0.113053931               0.000000000               0.336931966               0.122359690               0.000000000               0.360227399               0.131665448               0.000000000               0.383522833               0.140971207               0.000000000               0.406818266               0.150276966               0.000000000               0.430113700               0.159582724               0.000000000               0.453409133               0.168888483               0.000000000               0.476704567               0.178194241               0.000000000               0.500000000               0.187500000               0.000000000               0.122875978               0.050896897               0.000000000               0.146446229               0.063340840               0.000000000               0.170016481               0.075784784               0.000000000               0.193586732               0.088228728               0.000000000               0.217156983               0.100672672               0.000000000               0.240727235               0.113116616               0.000000000               0.264297486               0.125560560               0.000000000               0.287867738               0.138004504               0.000000000               0.311437989               0.150448448               0.000000000               0.335008240               0.162892392               0.000000000               0.358578492               0.175336336               0.000000000               0.382148743               0.187780280               0.000000000               0.405718994               0.200224224               0.000000000               0.429289246               0.212668168               0.000000000               0.452859497               0.225112112               0.000000000               0.476429749               0.237556056               0.000000000               0.500000000               0.250000000               0.000000000               0.117295528               0.062695766               0.000000000               0.141214558               0.078308531               0.000000000               0.165133587               0.093921295               0.000000000               0.189052617               0.109534060               0.000000000               0.212971646               0.125146824               0.000000000               0.236890676               0.140759589               0.000000000               0.260809705               0.156372354               0.000000000               0.284728735               0.171985118               0.000000000               0.308647764               0.187597883               0.000000000               0.332566794               0.203210648               0.000000000               0.356485823               0.218823412               0.000000000               0.380404853               0.234436177               0.000000000               0.404323882               0.250048941               0.000000000               0.428242912               0.265661706               0.000000000               0.452161941               0.281274471               0.000000000               0.476080971               0.296887235               0.000000000               0.500000000               0.312500000               0.000000000               0.110585458               0.073890841               0.000000000               0.134923867               0.092710163               0.000000000               0.159262276               0.111529486               0.000000000               0.183600685               0.130348808               0.000000000               0.207939094               0.149168131               0.000000000               0.232277503               0.167987453               0.000000000               0.256615912               0.186806776               0.000000000               0.280954320               0.205626098               0.000000000               0.305292729               0.224445420               0.000000000               0.329631138               0.243264743               0.000000000               0.353969547               0.262084065               0.000000000               0.378307956               0.280903388               0.000000000               0.402646365               0.299722710               0.000000000               0.426984773               0.318542033               0.000000000               0.451323182               0.337361355               0.000000000               0.475661591               0.356180678               0.000000000               0.500000000               0.375000000               0.000000000               0.102810390               0.084374307               0.000000000               0.127634741               0.106444663               0.000000000               0.152459092               0.128515018               0.000000000               0.177283442               0.150585374               0.000000000               0.202107793               0.172655730               0.000000000               0.226932143               0.194726086               0.000000000               0.251756494               0.216796442               0.000000000               0.276580845               0.238866798               0.000000000               0.301405195               0.260937153               0.000000000               0.326229546               0.283007509               0.000000000               0.351053896               0.305077865               0.000000000               0.375878247               0.327148221               0.000000000               0.400702598               0.349218577               0.000000000               0.425526948               0.371288933               0.000000000               0.450351299               0.393359288               0.000000000               0.475175649               0.415429644               0.000000000               0.500000000               0.437500000               0.000000000               0.094045202               0.094045202               0.000000000               0.119417377               0.119417377               0.000000000               0.144789552               0.144789552               0.000000000               0.170161727               0.170161727               0.000000000               0.195533901               0.195533901               0.000000000               0.220906076               0.220906076               0.000000000               0.246278251               0.246278251               0.000000000               0.271650426               0.271650426               0.000000000               0.297022601               0.297022601               0.000000000               0.322394776               0.322394776               0.000000000               0.347766951               0.347766951               0.000000000               0.373139126               0.373139126               0.000000000               0.398511300               0.398511300               0.000000000               0.423883475               0.423883475               0.000000000               0.449255650               0.449255650               0.000000000               0.474627825               0.474627825               0.000000000               0.500000000               0.500000000               0.000000000               0.084374307               0.102810390               0.000000000               0.106444663               0.127634741               0.000000000               0.128515018               0.152459092               0.000000000               0.150585374               0.177283442               0.000000000               0.172655730               0.202107793               0.000000000               0.194726086               0.226932143               0.000000000               0.216796442               0.251756494               0.000000000               0.238866798               0.276580845               0.000000000               0.260937153               0.301405195               0.000000000               0.283007509               0.326229546               0.000000000               0.305077865               0.351053896               0.000000000               0.327148221               0.375878247               0.000000000               0.349218577               0.400702598               0.000000000               0.371288933               0.425526948               0.000000000               0.393359288               0.450351299               0.000000000               0.415429644               0.475175649               0.000000000               0.437500000               0.500000000               0.000000000               0.073890841               0.110585458               0.000000000               0.092710163               0.134923867               0.000000000               0.111529486               0.159262276               0.000000000               0.130348808               0.183600685               0.000000000               0.149168131               0.207939094               0.000000000               0.167987453               0.232277503               0.000000000               0.186806776               0.256615912               0.000000000               0.205626098               0.280954320               0.000000000               0.224445420               0.305292729               0.000000000               0.243264743               0.329631138               0.000000000               0.262084065               0.353969547               0.000000000               0.280903388               0.378307956               0.000000000               0.299722710               0.402646365               0.000000000               0.318542033               0.426984773               0.000000000               0.337361355               0.451323182               0.000000000               0.356180678               0.475661591               0.000000000               0.375000000               0.500000000               0.000000000               0.062695766               0.117295528               0.000000000               0.078308531               0.141214558               0.000000000               0.093921295               0.165133587               0.000000000               0.109534060               0.189052617               0.000000000               0.125146824               0.212971646               0.000000000               0.140759589               0.236890676               0.000000000               0.156372354               0.260809705               0.000000000               0.171985118               0.284728735               0.000000000               0.187597883               0.308647764               0.000000000               0.203210648               0.332566794               0.000000000               0.218823412               0.356485823               0.000000000               0.234436177               0.380404853               0.000000000               0.250048941               0.404323882               0.000000000               0.265661706               0.428242912               0.000000000               0.281274471               0.452161941               0.000000000               0.296887235               0.476080971               0.000000000               0.312500000               0.500000000               0.000000000               0.050896897               0.122875978               0.000000000               0.063340840               0.146446229               0.000000000               0.075784784               0.170016481               0.000000000               0.088228728               0.193586732               0.000000000               0.100672672               0.217156983               0.000000000               0.113116616               0.240727235               0.000000000               0.125560560               0.264297486               0.000000000               0.138004504               0.287867738               0.000000000               0.150448448               0.311437989               0.000000000               0.162892392               0.335008240               0.000000000               0.175336336               0.358578492               0.000000000               0.187780280               0.382148743               0.000000000               0.200224224               0.405718994               0.000000000               0.212668168               0.429289246               0.000000000               0.225112112               0.452859497               0.000000000               0.237556056               0.476429749               0.000000000               0.250000000               0.500000000               0.000000000               0.038607862               0.127273065               0.000000000               0.047913621               0.150568498               0.000000000               0.057219379               0.173863932               0.000000000               0.066525138               0.197159365               0.000000000               0.075830897               0.220454798               0.000000000               0.085136655               0.243750232               0.000000000               0.094442414               0.267045665               0.000000000               0.103748172               0.290341099               0.000000000               0.113053931               0.313636532               0.000000000               0.122359690               0.336931966               0.000000000               0.131665448               0.360227399               0.000000000               0.140971207               0.383522833               0.000000000               0.150276966               0.406818266               0.000000000               0.159582724               0.430113700               0.000000000               0.168888483               0.453409133               0.000000000               0.178194241               0.476704567               0.000000000               0.187500000               0.500000000               0.000000000               0.025947013               0.130444442               0.000000000               0.032137825               0.153541665               0.000000000               0.038328636               0.176638887               0.000000000               0.044519448               0.199736109               0.000000000               0.050710260               0.222833332               0.000000000               0.056901071               0.245930554               0.000000000               0.063091883               0.269027776               0.000000000               0.069282695               0.292124999               0.000000000               0.075473506               0.315222221               0.000000000               0.081664318               0.338319444               0.000000000               0.087855130               0.361416666               0.000000000               0.094045942               0.384513888               0.000000000               0.100236753               0.407611111               0.000000000               0.106427565               0.430708333               0.000000000               0.112618377               0.453805555               0.000000000               0.118809188               0.476902778               0.000000000               0.125000000               0.500000000               0.000000000               0.013036280               0.132359569               0.000000000               0.016127762               0.155337096               0.000000000               0.019219245               0.178314623               0.000000000               0.022310727               0.201292150               0.000000000               0.025402210               0.224269676               0.000000000               0.028493692               0.247247203               0.000000000               0.031585175               0.270224730               0.000000000               0.034676657               0.293202257               0.000000000               0.037768140               0.316179784               0.000000000               0.040859622               0.339157311               0.000000000               0.043951105               0.362134838               0.000000000               0.047042587               0.385112365               0.000000000               0.050134070               0.408089892               0.000000000               0.053225552               0.431067419               0.000000000               0.056317035               0.454044946               0.000000000               0.059408517               0.477022473               0.000000000               0.062500000               0.500000000               0.000000000               0.000000000               0.133000000               0.000000000               0.000000000               0.155937500               0.000000000               0.000000000               0.178875000               0.000000000               0.000000000               0.201812500               0.000000000               0.000000000               0.224750000               0.000000000               0.000000000               0.247687500               0.000000000               0.000000000               0.270625000               0.000000000               0.000000000               0.293562500               0.000000000               0.000000000               0.316500000               0.000000000               0.000000000               0.339437500               0.000000000               0.000000000               0.362375000               0.000000000               0.000000000               0.385312500               0.000000000               0.000000000               0.408250000               0.000000000               0.000000000               0.431187500               0.000000000               0.000000000               0.454125000               0.000000000               0.000000000               0.477062500               0.000000000               0.000000000               0.500000000               0.000000000               0.133000000               0.000000000               0.000000000               0.155937500               0.000000000               0.000000000               0.178875000               0.000000000               0.000000000               0.201812500               0.000000000               0.000000000               0.224750000               0.000000000               0.000000000               0.247687500               0.000000000               0.000000000               0.270625000               0.000000000               0.000000000               0.293562500               0.000000000               0.000000000               0.316500000               0.000000000               0.000000000               0.339437500               0.000000000               0.000000000               0.362375000               0.000000000               0.000000000               0.385312500               0.000000000               0.000000000               0.408250000               0.000000000               0.000000000               0.431187500               0.000000000               0.000000000               0.454125000               0.000000000               0.000000000               0.477062500               0.000000000               0.000000000               0.500000000               0.000000000               0.000000000               0.132359569              -0.013036280               0.000000000               0.155337096              -0.016127762               0.000000000               0.178314623              -0.019219245               0.000000000               0.201292150              -0.022310727               0.000000000               0.224269676              -0.025402210               0.000000000               0.247247203              -0.028493692               0.000000000               0.270224730              -0.031585175               0.000000000               0.293202257              -0.034676657               0.000000000               0.316179784              -0.037768140               0.000000000               0.339157311              -0.040859622               0.000000000               0.362134838              -0.043951105               0.000000000               0.385112365              -0.047042587               0.000000000               0.408089892              -0.050134070               0.000000000               0.431067419              -0.053225552               0.000000000               0.454044946              -0.056317035               0.000000000               0.477022473              -0.059408517               0.000000000               0.500000000              -0.062500000               0.000000000               0.130444442              -0.025947013               0.000000000               0.153541665              -0.032137825               0.000000000               0.176638887              -0.038328636               0.000000000               0.199736109              -0.044519448               0.000000000               0.222833332              -0.050710260               0.000000000               0.245930554              -0.056901071               0.000000000               0.269027776              -0.063091883               0.000000000               0.292124999              -0.069282695               0.000000000               0.315222221              -0.075473506               0.000000000               0.338319444              -0.081664318               0.000000000               0.361416666              -0.087855130               0.000000000               0.384513888              -0.094045942               0.000000000               0.407611111              -0.100236753               0.000000000               0.430708333              -0.106427565               0.000000000               0.453805555              -0.112618377               0.000000000               0.476902778              -0.118809188               0.000000000               0.500000000              -0.125000000               0.000000000               0.127273065              -0.038607862               0.000000000               0.150568498              -0.047913621               0.000000000               0.173863932              -0.057219379               0.000000000               0.197159365              -0.066525138               0.000000000               0.220454798              -0.075830897               0.000000000               0.243750232              -0.085136655               0.000000000               0.267045665              -0.094442414               0.000000000               0.290341099              -0.103748172               0.000000000               0.313636532              -0.113053931               0.000000000               0.336931966              -0.122359690               0.000000000               0.360227399              -0.131665448               0.000000000               0.383522833              -0.140971207               0.000000000               0.406818266              -0.150276966               0.000000000               0.430113700              -0.159582724               0.000000000               0.453409133              -0.168888483               0.000000000               0.476704567              -0.178194241               0.000000000               0.500000000              -0.187500000               0.000000000               0.122875978              -0.050896897               0.000000000               0.146446229              -0.063340840               0.000000000               0.170016481              -0.075784784               0.000000000               0.193586732              -0.088228728               0.000000000               0.217156983              -0.100672672               0.000000000               0.240727235              -0.113116616               0.000000000               0.264297486              -0.125560560               0.000000000               0.287867738              -0.138004504               0.000000000               0.311437989              -0.150448448               0.000000000               0.335008240              -0.162892392               0.000000000               0.358578492              -0.175336336               0.000000000               0.382148743              -0.187780280               0.000000000               0.405718994              -0.200224224               0.000000000               0.429289246              -0.212668168               0.000000000               0.452859497              -0.225112112               0.000000000               0.476429749              -0.237556056               0.000000000               0.500000000              -0.250000000               0.000000000               0.117295528              -0.062695766               0.000000000               0.141214558              -0.078308531               0.000000000               0.165133587              -0.093921295               0.000000000               0.189052617              -0.109534060               0.000000000               0.212971646              -0.125146824               0.000000000               0.236890676              -0.140759589               0.000000000               0.260809705              -0.156372354               0.000000000               0.284728735              -0.171985118               0.000000000               0.308647764              -0.187597883               0.000000000               0.332566794              -0.203210648               0.000000000               0.356485823              -0.218823412               0.000000000               0.380404853              -0.234436177               0.000000000               0.404323882              -0.250048941               0.000000000               0.428242912              -0.265661706               0.000000000               0.452161941              -0.281274471               0.000000000               0.476080971              -0.296887235               0.000000000               0.500000000              -0.312500000               0.000000000               0.110585458              -0.073890841               0.000000000               0.134923867              -0.092710163               0.000000000               0.159262276              -0.111529486               0.000000000               0.183600685              -0.130348808               0.000000000               0.207939094              -0.149168131               0.000000000               0.232277503              -0.167987453               0.000000000               0.256615912              -0.186806776               0.000000000               0.280954320              -0.205626098               0.000000000               0.305292729              -0.224445420               0.000000000               0.329631138              -0.243264743               0.000000000               0.353969547              -0.262084065               0.000000000               0.378307956              -0.280903388               0.000000000               0.402646365              -0.299722710               0.000000000               0.426984773              -0.318542033               0.000000000               0.451323182              -0.337361355               0.000000000               0.475661591              -0.356180678               0.000000000               0.500000000              -0.375000000               0.000000000               0.102810390              -0.084374307               0.000000000               0.127634741              -0.106444663               0.000000000               0.152459092              -0.128515018               0.000000000               0.177283442              -0.150585374               0.000000000               0.202107793              -0.172655730               0.000000000               0.226932143              -0.194726086               0.000000000               0.251756494              -0.216796442               0.000000000               0.276580845              -0.238866798               0.000000000               0.301405195              -0.260937153               0.000000000               0.326229546              -0.283007509               0.000000000               0.351053896              -0.305077865               0.000000000               0.375878247              -0.327148221               0.000000000               0.400702598              -0.349218577               0.000000000               0.425526948              -0.371288933               0.000000000               0.450351299              -0.393359288               0.000000000               0.475175649              -0.415429644               0.000000000               0.500000000              -0.437500000               0.000000000               0.094045202              -0.094045202               0.000000000               0.119417377              -0.119417377               0.000000000               0.144789552              -0.144789552               0.000000000               0.170161727              -0.170161727               0.000000000               0.195533901              -0.195533901               0.000000000               0.220906076              -0.220906076               0.000000000               0.246278251              -0.246278251               0.000000000               0.271650426              -0.271650426               0.000000000               0.297022601              -0.297022601               0.000000000               0.322394776              -0.322394776               0.000000000               0.347766951              -0.347766951               0.000000000               0.373139126              -0.373139126               0.000000000               0.398511300              -0.398511300               0.000000000               0.423883475              -0.423883475               0.000000000               0.449255650              -0.449255650               0.000000000               0.474627825              -0.474627825               0.000000000               0.500000000              -0.500000000               0.000000000               0.084374307              -0.102810390               0.000000000               0.106444663              -0.127634741               0.000000000               0.128515018              -0.152459092               0.000000000               0.150585374              -0.177283442               0.000000000               0.172655730              -0.202107793               0.000000000               0.194726086              -0.226932143               0.000000000               0.216796442              -0.251756494               0.000000000               0.238866798              -0.276580845               0.000000000               0.260937153              -0.301405195               0.000000000               0.283007509              -0.326229546               0.000000000               0.305077865              -0.351053896               0.000000000               0.327148221              -0.375878247               0.000000000               0.349218577              -0.400702598               0.000000000               0.371288933              -0.425526948               0.000000000               0.393359288              -0.450351299               0.000000000               0.415429644              -0.475175649               0.000000000               0.437500000              -0.500000000               0.000000000               0.073890841              -0.110585458               0.000000000               0.092710163              -0.134923867               0.000000000               0.111529486              -0.159262276               0.000000000               0.130348808              -0.183600685               0.000000000               0.149168131              -0.207939094               0.000000000               0.167987453              -0.232277503               0.000000000               0.186806776              -0.256615912               0.000000000               0.205626098              -0.280954320               0.000000000               0.224445420              -0.305292729               0.000000000               0.243264743              -0.329631138               0.000000000               0.262084065              -0.353969547               0.000000000               0.280903388              -0.378307956               0.000000000               0.299722710              -0.402646365               0.000000000               0.318542033              -0.426984773               0.000000000               0.337361355              -0.451323182               0.000000000               0.356180678              -0.475661591               0.000000000               0.375000000              -0.500000000               0.000000000               0.062695766              -0.117295528               0.000000000               0.078308531              -0.141214558               0.000000000               0.093921295              -0.165133587               0.000000000               0.109534060              -0.189052617               0.000000000               0.125146824              -0.212971646               0.000000000               0.140759589              -0.236890676               0.000000000               0.156372354              -0.260809705               0.000000000               0.171985118              -0.284728735               0.000000000               0.187597883              -0.308647764               0.000000000               0.203210648              -0.332566794               0.000000000               0.218823412              -0.356485823               0.000000000               0.234436177              -0.380404853               0.000000000               0.250048941              -0.404323882               0.000000000               0.265661706              -0.428242912               0.000000000               0.281274471              -0.452161941               0.000000000               0.296887235              -0.476080971               0.000000000               0.312500000              -0.500000000               0.000000000               0.050896897              -0.122875978               0.000000000               0.063340840              -0.146446229               0.000000000               0.075784784              -0.170016481               0.000000000               0.088228728              -0.193586732               0.000000000               0.100672672              -0.217156983               0.000000000               0.113116616              -0.240727235               0.000000000               0.125560560              -0.264297486               0.000000000               0.138004504              -0.287867738               0.000000000               0.150448448              -0.311437989               0.000000000               0.162892392              -0.335008240               0.000000000               0.175336336              -0.358578492               0.000000000               0.187780280              -0.382148743               0.000000000               0.200224224              -0.405718994               0.000000000               0.212668168              -0.429289246               0.000000000               0.225112112              -0.452859497               0.000000000               0.237556056              -0.476429749               0.000000000               0.250000000              -0.500000000               0.000000000               0.038607862              -0.127273065               0.000000000               0.047913621              -0.150568498               0.000000000               0.057219379              -0.173863932               0.000000000               0.066525138              -0.197159365               0.000000000               0.075830897              -0.220454798               0.000000000               0.085136655              -0.243750232               0.000000000               0.094442414              -0.267045665               0.000000000               0.103748172              -0.290341099               0.000000000               0.113053931              -0.313636532               0.000000000               0.122359690              -0.336931966               0.000000000               0.131665448              -0.360227399               0.000000000               0.140971207              -0.383522833               0.000000000               0.150276966              -0.406818266               0.000000000               0.159582724              -0.430113700               0.000000000               0.168888483              -0.453409133               0.000000000               0.178194241              -0.476704567               0.000000000               0.187500000              -0.500000000               0.000000000               0.025947013              -0.130444442               0.000000000               0.032137825              -0.153541665               0.000000000               0.038328636              -0.176638887               0.000000000               0.044519448              -0.199736109               0.000000000               0.050710260              -0.222833332               0.000000000               0.056901071              -0.245930554               0.000000000               0.063091883              -0.269027776               0.000000000               0.069282695              -0.292124999               0.000000000               0.075473506              -0.315222221               0.000000000               0.081664318              -0.338319444               0.000000000               0.087855130              -0.361416666               0.000000000               0.094045942              -0.384513888               0.000000000               0.100236753              -0.407611111               0.000000000               0.106427565              -0.430708333               0.000000000               0.112618377              -0.453805555               0.000000000               0.118809188              -0.476902778               0.000000000               0.125000000              -0.500000000               0.000000000               0.013036280              -0.132359569               0.000000000               0.016127762              -0.155337096               0.000000000               0.019219245              -0.178314623               0.000000000               0.022310727              -0.201292150               0.000000000               0.025402210              -0.224269676               0.000000000               0.028493692              -0.247247203               0.000000000               0.031585175              -0.270224730               0.000000000               0.034676657              -0.293202257               0.000000000               0.037768140              -0.316179784               0.000000000               0.040859622              -0.339157311               0.000000000               0.043951105              -0.362134838               0.000000000               0.047042587              -0.385112365               0.000000000               0.050134070              -0.408089892               0.000000000               0.053225552              -0.431067419               0.000000000               0.056317035              -0.454044946               0.000000000               0.059408517              -0.477022473               0.000000000               0.062500000              -0.500000000               0.000000000               0.000000000              -0.133000000               0.000000000               0.000000000              -0.155937500               0.000000000               0.000000000              -0.178875000               0.000000000               0.000000000              -0.201812500               0.000000000               0.000000000              -0.224750000               0.000000000               0.000000000              -0.247687500               0.000000000               0.000000000              -0.270625000               0.000000000               0.000000000              -0.293562500               0.000000000               0.000000000              -0.316500000               0.000000000               0.000000000              -0.339437500               0.000000000               0.000000000              -0.362375000               0.000000000               0.000000000              -0.385312500               0.000000000               0.000000000              -0.408250000               0.000000000               0.000000000              -0.431187500               0.000000000               0.000000000              -0.454125000               0.000000000               0.000000000              -0.477062500               0.000000000               0.000000000              -0.500000000               0.000000000              -0.133000000               0.000000000               0.000000000              -0.155937500               0.000000000               0.000000000              -0.178875000               0.000000000               0.000000000              -0.201812500               0.000000000               0.000000000              -0.224750000               0.000000000               0.000000000              -0.247687500               0.000000000               0.000000000              -0.270625000               0.000000000               0.000000000              -0.293562500               0.000000000               0.000000000              -0.316500000               0.000000000               0.000000000              -0.339437500               0.000000000               0.000000000              -0.362375000               0.000000000               0.000000000              -0.385312500               0.000000000               0.000000000              -0.408250000               0.000000000               0.000000000              -0.431187500               0.000000000               0.000000000              -0.454125000               0.000000000               0.000000000              -0.477062500               0.000000000               0.000000000              -0.500000000               0.000000000               0.000000000              -0.132359569              -0.013036280               0.000000000              -0.155337096              -0.016127762               0.000000000              -0.178314623              -0.019219245               0.000000000              -0.201292150              -0.022310727               0.000000000              -0.224269676              -0.025402210               0.000000000              -0.247247203              -0.028493692               0.000000000              -0.270224730              -0.031585175               0.000000000              -0.293202257              -0.034676657               0.000000000              -0.316179784              -0.037768140               0.000000000              -0.339157311              -0.040859622               0.000000000              -0.362134838              -0.043951105               0.000000000              -0.385112365              -0.047042587               0.000000000              -0.408089892              -0.050134070               0.000000000              -0.431067419              -0.053225552               0.000000000              -0.454044946              -0.056317035               0.000000000              -0.477022473              -0.059408517               0.000000000              -0.500000000              -0.062500000               0.000000000              -0.130444442              -0.025947013               0.000000000              -0.153541665              -0.032137825               0.000000000              -0.176638887              -0.038328636               0.000000000              -0.199736109              -0.044519448               0.000000000              -0.222833332              -0.050710260               0.000000000              -0.245930554              -0.056901071               0.000000000              -0.269027776              -0.063091883               0.000000000              -0.292124999              -0.069282695               0.000000000              -0.315222221              -0.075473506               0.000000000              -0.338319444              -0.081664318               0.000000000              -0.361416666              -0.087855130               0.000000000              -0.384513888              -0.094045942               0.000000000              -0.407611111              -0.100236753               0.000000000              -0.430708333              -0.106427565               0.000000000              -0.453805555              -0.112618377               0.000000000              -0.476902778              -0.118809188               0.000000000              -0.500000000              -0.125000000               0.000000000              -0.127273065              -0.038607862               0.000000000              -0.150568498              -0.047913621               0.000000000              -0.173863932              -0.057219379               0.000000000              -0.197159365              -0.066525138               0.000000000              -0.220454798              -0.075830897               0.000000000              -0.243750232              -0.085136655               0.000000000              -0.267045665              -0.094442414               0.000000000              -0.290341099              -0.103748172               0.000000000              -0.313636532              -0.113053931               0.000000000              -0.336931966              -0.122359690               0.000000000              -0.360227399              -0.131665448               0.000000000              -0.383522833              -0.140971207               0.000000000              -0.406818266              -0.150276966               0.000000000              -0.430113700              -0.159582724               0.000000000              -0.453409133              -0.168888483               0.000000000              -0.476704567              -0.178194241               0.000000000              -0.500000000              -0.187500000               0.000000000              -0.122875978              -0.050896897               0.000000000              -0.146446229              -0.063340840               0.000000000              -0.170016481              -0.075784784               0.000000000              -0.193586732              -0.088228728               0.000000000              -0.217156983              -0.100672672               0.000000000              -0.240727235              -0.113116616               0.000000000              -0.264297486              -0.125560560               0.000000000              -0.287867738              -0.138004504               0.000000000              -0.311437989              -0.150448448               0.000000000              -0.335008240              -0.162892392               0.000000000              -0.358578492              -0.175336336               0.000000000              -0.382148743              -0.187780280               0.000000000              -0.405718994              -0.200224224               0.000000000              -0.429289246              -0.212668168               0.000000000              -0.452859497              -0.225112112               0.000000000              -0.476429749              -0.237556056               0.000000000              -0.500000000              -0.250000000               0.000000000              -0.117295528              -0.062695766               0.000000000              -0.141214558              -0.078308531               0.000000000              -0.165133587              -0.093921295               0.000000000              -0.189052617              -0.109534060               0.000000000              -0.212971646              -0.125146824               0.000000000              -0.236890676              -0.140759589               0.000000000              -0.260809705              -0.156372354               0.000000000              -0.284728735              -0.171985118               0.000000000              -0.308647764              -0.187597883               0.000000000              -0.332566794              -0.203210648               0.000000000              -0.356485823              -0.218823412               0.000000000              -0.380404853              -0.234436177               0.000000000              -0.404323882              -0.250048941               0.000000000              -0.428242912              -0.265661706               0.000000000              -0.452161941              -0.281274471               0.000000000              -0.476080971              -0.296887235               0.000000000              -0.500000000              -0.312500000               0.000000000              -0.110585458              -0.073890841               0.000000000              -0.134923867              -0.092710163               0.000000000              -0.159262276              -0.111529486               0.000000000              -0.183600685              -0.130348808               0.000000000              -0.207939094              -0.149168131               0.000000000              -0.232277503              -0.167987453               0.000000000              -0.256615912              -0.186806776               0.000000000              -0.280954320              -0.205626098               0.000000000              -0.305292729              -0.224445420               0.000000000              -0.329631138              -0.243264743               0.000000000              -0.353969547              -0.262084065               0.000000000              -0.378307956              -0.280903388               0.000000000              -0.402646365              -0.299722710               0.000000000              -0.426984773              -0.318542033               0.000000000              -0.451323182              -0.337361355               0.000000000              -0.475661591              -0.356180678               0.000000000              -0.500000000              -0.375000000               0.000000000              -0.102810390              -0.084374307               0.000000000              -0.127634741              -0.106444663               0.000000000              -0.152459092              -0.128515018               0.000000000              -0.177283442              -0.150585374               0.000000000              -0.202107793              -0.172655730               0.000000000              -0.226932143              -0.194726086               0.000000000              -0.251756494              -0.216796442               0.000000000              -0.276580845              -0.238866798               0.000000000              -0.301405195              -0.260937153               0.000000000              -0.326229546              -0.283007509               0.000000000              -0.351053896              -0.305077865               0.000000000              -0.375878247              -0.327148221               0.000000000              -0.400702598              -0.349218577               0.000000000              -0.425526948              -0.371288933               0.000000000              -0.450351299              -0.393359288               0.000000000              -0.475175649              -0.415429644               0.000000000              -0.500000000              -0.437500000               0.000000000              -0.094045202              -0.094045202               0.000000000              -0.119417377              -0.119417377               0.000000000              -0.144789552              -0.144789552               0.000000000              -0.170161727              -0.170161727               0.000000000              -0.195533901              -0.195533901               0.000000000              -0.220906076              -0.220906076               0.000000000              -0.246278251              -0.246278251               0.000000000              -0.271650426              -0.271650426               0.000000000              -0.297022601              -0.297022601               0.000000000              -0.322394776              -0.322394776               0.000000000              -0.347766951              -0.347766951               0.000000000              -0.373139126              -0.373139126               0.000000000              -0.398511300              -0.398511300               0.000000000              -0.423883475              -0.423883475               0.000000000              -0.449255650              -0.449255650               0.000000000              -0.474627825              -0.474627825               0.000000000              -0.500000000              -0.500000000               0.000000000              -0.084374307              -0.102810390               0.000000000              -0.106444663              -0.127634741               0.000000000              -0.128515018              -0.152459092               0.000000000              -0.150585374              -0.177283442               0.000000000              -0.172655730              -0.202107793               0.000000000              -0.194726086              -0.226932143               0.000000000              -0.216796442              -0.251756494               0.000000000              -0.238866798              -0.276580845               0.000000000              -0.260937153              -0.301405195               0.000000000              -0.283007509              -0.326229546               0.000000000              -0.305077865              -0.351053896               0.000000000              -0.327148221              -0.375878247               0.000000000              -0.349218577              -0.400702598               0.000000000              -0.371288933              -0.425526948               0.000000000              -0.393359288              -0.450351299               0.000000000              -0.415429644              -0.475175649               0.000000000              -0.437500000              -0.500000000               0.000000000              -0.073890841              -0.110585458               0.000000000              -0.092710163              -0.134923867               0.000000000              -0.111529486              -0.159262276               0.000000000              -0.130348808              -0.183600685               0.000000000              -0.149168131              -0.207939094               0.000000000              -0.167987453              -0.232277503               0.000000000              -0.186806776              -0.256615912               0.000000000              -0.205626098              -0.280954320               0.000000000              -0.224445420              -0.305292729               0.000000000              -0.243264743              -0.329631138               0.000000000              -0.262084065              -0.353969547               0.000000000              -0.280903388              -0.378307956               0.000000000              -0.299722710              -0.402646365               0.000000000              -0.318542033              -0.426984773               0.000000000              -0.337361355              -0.451323182               0.000000000              -0.356180678              -0.475661591               0.000000000              -0.375000000              -0.500000000               0.000000000              -0.062695766              -0.117295528               0.000000000              -0.078308531              -0.141214558               0.000000000              -0.093921295              -0.165133587               0.000000000              -0.109534060              -0.189052617               0.000000000              -0.125146824              -0.212971646               0.000000000              -0.140759589              -0.236890676               0.000000000              -0.156372354              -0.260809705               0.000000000              -0.171985118              -0.284728735               0.000000000              -0.187597883              -0.308647764               0.000000000              -0.203210648              -0.332566794               0.000000000              -0.218823412              -0.356485823               0.000000000              -0.234436177              -0.380404853               0.000000000              -0.250048941              -0.404323882               0.000000000              -0.265661706              -0.428242912               0.000000000              -0.281274471              -0.452161941               0.000000000              -0.296887235              -0.476080971               0.000000000              -0.312500000              -0.500000000               0.000000000              -0.050896897              -0.122875978               0.000000000              -0.063340840              -0.146446229               0.000000000              -0.075784784              -0.170016481               0.000000000              -0.088228728              -0.193586732               0.000000000              -0.100672672              -0.217156983               0.000000000              -0.113116616              -0.240727235               0.000000000              -0.125560560              -0.264297486               0.000000000              -0.138004504              -0.287867738               0.000000000              -0.150448448              -0.311437989               0.000000000              -0.162892392              -0.335008240               0.000000000              -0.175336336              -0.358578492               0.000000000              -0.187780280              -0.382148743               0.000000000              -0.200224224              -0.405718994               0.000000000              -0.212668168              -0.429289246               0.000000000              -0.225112112              -0.452859497               0.000000000              -0.237556056              -0.476429749               0.000000000              -0.250000000              -0.500000000               0.000000000              -0.038607862              -0.127273065               0.000000000              -0.047913621              -0.150568498               0.000000000              -0.057219379              -0.173863932               0.000000000              -0.066525138              -0.197159365               0.000000000              -0.075830897              -0.220454798               0.000000000              -0.085136655              -0.243750232               0.000000000              -0.094442414              -0.267045665               0.000000000              -0.103748172              -0.290341099               0.000000000              -0.113053931              -0.313636532               0.000000000              -0.122359690              -0.336931966               0.000000000              -0.131665448              -0.360227399               0.000000000              -0.140971207              -0.383522833               0.000000000              -0.150276966              -0.406818266               0.000000000              -0.159582724              -0.430113700               0.000000000              -0.168888483              -0.453409133               0.000000000              -0.178194241              -0.476704567               0.000000000              -0.187500000              -0.500000000               0.000000000              -0.025947013              -0.130444442               0.000000000              -0.032137825              -0.153541665               0.000000000              -0.038328636              -0.176638887               0.000000000              -0.044519448              -0.199736109               0.000000000              -0.050710260              -0.222833332               0.000000000              -0.056901071              -0.245930554               0.000000000              -0.063091883              -0.269027776               0.000000000              -0.069282695              -0.292124999               0.000000000              -0.075473506              -0.315222221               0.000000000              -0.081664318              -0.338319444               0.000000000              -0.087855130              -0.361416666               0.000000000              -0.094045942              -0.384513888               0.000000000              -0.100236753              -0.407611111               0.000000000              -0.106427565              -0.430708333               0.000000000              -0.112618377              -0.453805555               0.000000000              -0.118809188              -0.476902778               0.000000000              -0.125000000              -0.500000000               0.000000000              -0.013036280              -0.132359569               0.000000000              -0.016127762              -0.155337096               0.000000000              -0.019219245              -0.178314623               0.000000000              -0.022310727              -0.201292150               0.000000000              -0.025402210              -0.224269676               0.000000000              -0.028493692              -0.247247203               0.000000000              -0.031585175              -0.270224730               0.000000000              -0.034676657              -0.293202257               0.000000000              -0.037768140              -0.316179784               0.000000000              -0.040859622              -0.339157311               0.000000000              -0.043951105              -0.362134838               0.000000000              -0.047042587              -0.385112365               0.000000000              -0.050134070              -0.408089892               0.000000000              -0.053225552              -0.431067419               0.000000000              -0.056317035              -0.454044946               0.000000000              -0.059408517              -0.477022473               0.000000000              -0.062500000              -0.500000000               0.000000000               0.000000000              -0.133000000               0.000000000               0.000000000              -0.155937500               0.000000000               0.000000000              -0.178875000               0.000000000               0.000000000              -0.201812500               0.000000000               0.000000000              -0.224750000               0.000000000               0.000000000              -0.247687500               0.000000000               0.000000000              -0.270625000               0.000000000               0.000000000              -0.293562500               0.000000000               0.000000000              -0.316500000               0.000000000               0.000000000              -0.339437500               0.000000000               0.000000000              -0.362375000               0.000000000               0.000000000              -0.385312500               0.000000000               0.000000000              -0.408250000               0.000000000               0.000000000              -0.431187500               0.000000000               0.000000000              -0.454125000               0.000000000               0.000000000              -0.477062500               0.000000000               0.000000000              -0.500000000               0.000000000              -0.133000000               0.000000000               0.000000000              -0.155937500               0.000000000               0.000000000              -0.178875000               0.000000000               0.000000000              -0.201812500               0.000000000               0.000000000              -0.224750000               0.000000000               0.000000000              -0.247687500               0.000000000               0.000000000              -0.270625000               0.000000000               0.000000000              -0.293562500               0.000000000               0.000000000              -0.316500000               0.000000000               0.000000000              -0.339437500               0.000000000               0.000000000              -0.362375000               0.000000000               0.000000000              -0.385312500               0.000000000               0.000000000              -0.408250000               0.000000000               0.000000000              -0.431187500               0.000000000               0.000000000              -0.454125000               0.000000000               0.000000000              -0.477062500               0.000000000               0.000000000              -0.500000000               0.000000000               0.000000000              -0.132359569               0.013036280               0.000000000              -0.155337096               0.016127762               0.000000000              -0.178314623               0.019219245               0.000000000              -0.201292150               0.022310727               0.000000000              -0.224269676               0.025402210               0.000000000              -0.247247203               0.028493692               0.000000000              -0.270224730               0.031585175               0.000000000              -0.293202257               0.034676657               0.000000000              -0.316179784               0.037768140               0.000000000              -0.339157311               0.040859622               0.000000000              -0.362134838               0.043951105               0.000000000              -0.385112365               0.047042587               0.000000000              -0.408089892               0.050134070               0.000000000              -0.431067419               0.053225552               0.000000000              -0.454044946               0.056317035               0.000000000              -0.477022473               0.059408517               0.000000000              -0.500000000               0.062500000               0.000000000              -0.130444442               0.025947013               0.000000000              -0.153541665               0.032137825               0.000000000              -0.176638887               0.038328636               0.000000000              -0.199736109               0.044519448               0.000000000              -0.222833332               0.050710260               0.000000000              -0.245930554               0.056901071               0.000000000              -0.269027776               0.063091883               0.000000000              -0.292124999               0.069282695               0.000000000              -0.315222221               0.075473506               0.000000000              -0.338319444               0.081664318               0.000000000              -0.361416666               0.087855130               0.000000000              -0.384513888               0.094045942               0.000000000              -0.407611111               0.100236753               0.000000000              -0.430708333               0.106427565               0.000000000              -0.453805555               0.112618377               0.000000000              -0.476902778               0.118809188               0.000000000              -0.500000000               0.125000000               0.000000000              -0.127273065               0.038607862               0.000000000              -0.150568498               0.047913621               0.000000000              -0.173863932               0.057219379               0.000000000              -0.197159365               0.066525138               0.000000000              -0.220454798               0.075830897               0.000000000              -0.243750232               0.085136655               0.000000000              -0.267045665               0.094442414               0.000000000              -0.290341099               0.103748172               0.000000000              -0.313636532               0.113053931               0.000000000              -0.336931966               0.122359690               0.000000000              -0.360227399               0.131665448               0.000000000              -0.383522833               0.140971207               0.000000000              -0.406818266               0.150276966               0.000000000              -0.430113700               0.159582724               0.000000000              -0.453409133               0.168888483               0.000000000              -0.476704567               0.178194241               0.000000000              -0.500000000               0.187500000               0.000000000              -0.122875978               0.050896897               0.000000000              -0.146446229               0.063340840               0.000000000              -0.170016481               0.075784784               0.000000000              -0.193586732               0.088228728               0.000000000              -0.217156983               0.100672672               0.000000000              -0.240727235               0.113116616               0.000000000              -0.264297486               0.125560560               0.000000000              -0.287867738               0.138004504               0.000000000              -0.311437989               0.150448448               0.000000000              -0.335008240               0.162892392               0.000000000              -0.358578492               0.175336336               0.000000000              -0.382148743               0.187780280               0.000000000              -0.405718994               0.200224224               0.000000000              -0.429289246               0.212668168               0.000000000              -0.452859497               0.225112112               0.000000000              -0.476429749               0.237556056               0.000000000              -0.500000000               0.250000000               0.000000000              -0.117295528               0.062695766               0.000000000              -0.141214558               0.078308531               0.000000000              -0.165133587               0.093921295               0.000000000              -0.189052617               0.109534060               0.000000000              -0.212971646               0.125146824               0.000000000              -0.236890676               0.140759589               0.000000000              -0.260809705               0.156372354               0.000000000              -0.284728735               0.171985118               0.000000000              -0.308647764               0.187597883               0.000000000              -0.332566794               0.203210648               0.000000000              -0.356485823               0.218823412               0.000000000              -0.380404853               0.234436177               0.000000000              -0.404323882               0.250048941               0.000000000              -0.428242912               0.265661706               0.000000000              -0.452161941               0.281274471               0.000000000              -0.476080971               0.296887235               0.000000000              -0.500000000               0.312500000               0.000000000              -0.110585458               0.073890841               0.000000000              -0.134923867               0.092710163               0.000000000              -0.159262276               0.111529486               0.000000000              -0.183600685               0.130348808               0.000000000              -0.207939094               0.149168131               0.000000000              -0.232277503               0.167987453               0.000000000              -0.256615912               0.186806776               0.000000000              -0.280954320               0.205626098               0.000000000              -0.305292729               0.224445420               0.000000000              -0.329631138               0.243264743               0.000000000              -0.353969547               0.262084065               0.000000000              -0.378307956               0.280903388               0.000000000              -0.402646365               0.299722710               0.000000000              -0.426984773               0.318542033               0.000000000              -0.451323182               0.337361355               0.000000000              -0.475661591               0.356180678               0.000000000              -0.500000000               0.375000000               0.000000000              -0.102810390               0.084374307               0.000000000              -0.127634741               0.106444663               0.000000000              -0.152459092               0.128515018               0.000000000              -0.177283442               0.150585374               0.000000000              -0.202107793               0.172655730               0.000000000              -0.226932143               0.194726086               0.000000000              -0.251756494               0.216796442               0.000000000              -0.276580845               0.238866798               0.000000000              -0.301405195               0.260937153               0.000000000              -0.326229546               0.283007509               0.000000000              -0.351053896               0.305077865               0.000000000              -0.375878247               0.327148221               0.000000000              -0.400702598               0.349218577               0.000000000              -0.425526948               0.371288933               0.000000000              -0.450351299               0.393359288               0.000000000              -0.475175649               0.415429644               0.000000000              -0.500000000               0.437500000               0.000000000              -0.094045202               0.094045202               0.000000000              -0.119417377               0.119417377               0.000000000              -0.144789552               0.144789552               0.000000000              -0.170161727               0.170161727               0.000000000              -0.195533901               0.195533901               0.000000000              -0.220906076               0.220906076               0.000000000              -0.246278251               0.246278251               0.000000000              -0.271650426               0.271650426               0.000000000              -0.297022601               0.297022601               0.000000000              -0.322394776               0.322394776               0.000000000              -0.347766951               0.347766951               0.000000000              -0.373139126               0.373139126               0.000000000              -0.398511300               0.398511300               0.000000000              -0.423883475               0.423883475               0.000000000              -0.449255650               0.449255650               0.000000000              -0.474627825               0.474627825               0.000000000              -0.500000000               0.500000000               0.000000000              -0.084374307               0.102810390               0.000000000              -0.106444663               0.127634741               0.000000000              -0.128515018               0.152459092               0.000000000              -0.150585374               0.177283442               0.000000000              -0.172655730               0.202107793               0.000000000              -0.194726086               0.226932143               0.000000000              -0.216796442               0.251756494               0.000000000              -0.238866798               0.276580845               0.000000000              -0.260937153               0.301405195               0.000000000              -0.283007509               0.326229546               0.000000000              -0.305077865               0.351053896               0.000000000              -0.327148221               0.375878247               0.000000000              -0.349218577               0.400702598               0.000000000              -0.371288933               0.425526948               0.000000000              -0.393359288               0.450351299               0.000000000              -0.415429644               0.475175649               0.000000000              -0.437500000               0.500000000               0.000000000              -0.073890841               0.110585458               0.000000000              -0.092710163               0.134923867               0.000000000              -0.111529486               0.159262276               0.000000000              -0.130348808               0.183600685               0.000000000              -0.149168131               0.207939094               0.000000000              -0.167987453               0.232277503               0.000000000              -0.186806776               0.256615912               0.000000000              -0.205626098               0.280954320               0.000000000              -0.224445420               0.305292729               0.000000000              -0.243264743               0.329631138               0.000000000              -0.262084065               0.353969547               0.000000000              -0.280903388               0.378307956               0.000000000              -0.299722710               0.402646365               0.000000000              -0.318542033               0.426984773               0.000000000              -0.337361355               0.451323182               0.000000000              -0.356180678               0.475661591               0.000000000              -0.375000000               0.500000000               0.000000000              -0.062695766               0.117295528               0.000000000              -0.078308531               0.141214558               0.000000000              -0.093921295               0.165133587               0.000000000              -0.109534060               0.189052617               0.000000000              -0.125146824               0.212971646               0.000000000              -0.140759589               0.236890676               0.000000000              -0.156372354               0.260809705               0.000000000              -0.171985118               0.284728735               0.000000000              -0.187597883               0.308647764               0.000000000              -0.203210648               0.332566794               0.000000000              -0.218823412               0.356485823               0.000000000              -0.234436177               0.380404853               0.000000000              -0.250048941               0.404323882               0.000000000              -0.265661706               0.428242912               0.000000000              -0.281274471               0.452161941               0.000000000              -0.296887235               0.476080971               0.000000000              -0.312500000               0.500000000               0.000000000              -0.050896897               0.122875978               0.000000000              -0.063340840               0.146446229               0.000000000              -0.075784784               0.170016481               0.000000000              -0.088228728               0.193586732               0.000000000              -0.100672672               0.217156983               0.000000000              -0.113116616               0.240727235               0.000000000              -0.125560560               0.264297486               0.000000000              -0.138004504               0.287867738               0.000000000              -0.150448448               0.311437989               0.000000000              -0.162892392               0.335008240               0.000000000              -0.175336336               0.358578492               0.000000000              -0.187780280               0.382148743               0.000000000              -0.200224224               0.405718994               0.000000000              -0.212668168               0.429289246               0.000000000              -0.225112112               0.452859497               0.000000000              -0.237556056               0.476429749               0.000000000              -0.250000000               0.500000000               0.000000000              -0.038607862               0.127273065               0.000000000              -0.047913621               0.150568498               0.000000000              -0.057219379               0.173863932               0.000000000              -0.066525138               0.197159365               0.000000000              -0.075830897               0.220454798               0.000000000              -0.085136655               0.243750232               0.000000000              -0.094442414               0.267045665               0.000000000              -0.103748172               0.290341099               0.000000000              -0.113053931               0.313636532               0.000000000              -0.122359690               0.336931966               0.000000000              -0.131665448               0.360227399               0.000000000              -0.140971207               0.383522833               0.000000000              -0.150276966               0.406818266               0.000000000              -0.159582724               0.430113700               0.000000000              -0.168888483               0.453409133               0.000000000              -0.178194241               0.476704567               0.000000000              -0.187500000               0.500000000               0.000000000              -0.025947013               0.130444442               0.000000000              -0.032137825               0.153541665               0.000000000              -0.038328636               0.176638887               0.000000000              -0.044519448               0.199736109               0.000000000              -0.050710260               0.222833332               0.000000000              -0.056901071               0.245930554               0.000000000              -0.063091883               0.269027776               0.000000000              -0.069282695               0.292124999               0.000000000              -0.075473506               0.315222221               0.000000000              -0.081664318               0.338319444               0.000000000              -0.087855130               0.361416666               0.000000000              -0.094045942               0.384513888               0.000000000              -0.100236753               0.407611111               0.000000000              -0.106427565               0.430708333               0.000000000              -0.112618377               0.453805555               0.000000000              -0.118809188               0.476902778               0.000000000              -0.125000000               0.500000000               0.000000000              -0.013036280               0.132359569               0.000000000              -0.016127762               0.155337096               0.000000000              -0.019219245               0.178314623               0.000000000              -0.022310727               0.201292150               0.000000000              -0.025402210               0.224269676               0.000000000              -0.028493692               0.247247203               0.000000000              -0.031585175               0.270224730               0.000000000              -0.034676657               0.293202257               0.000000000              -0.037768140               0.316179784               0.000000000              -0.040859622               0.339157311               0.000000000              -0.043951105               0.362134838               0.000000000              -0.047042587               0.385112365               0.000000000              -0.050134070               0.408089892               0.000000000              -0.053225552               0.431067419               0.000000000              -0.056317035               0.454044946               0.000000000              -0.059408517               0.477022473               0.000000000              -0.062500000               0.500000000               0.000000000               0.000000000               0.133000000               0.000000000               0.000000000               0.155937500               0.000000000               0.000000000               0.178875000               0.000000000               0.000000000               0.201812500               0.000000000               0.000000000               0.224750000               0.000000000               0.000000000               0.247687500               0.000000000               0.000000000               0.270625000               0.000000000               0.000000000               0.293562500               0.000000000               0.000000000               0.316500000               0.000000000               0.000000000               0.339437500               0.000000000               0.000000000               0.362375000               0.000000000               0.000000000               0.385312500               0.000000000               0.000000000               0.408250000               0.000000000               0.000000000               0.431187500               0.000000000               0.000000000               0.454125000               0.000000000               0.000000000               0.477062500               0.000000000               0.000000000               0.500000000               0.000000000 </DataArray>
</Points>
<Cells>
<DataArray type="Int32"                                    Name="connectivity"                                                      NumberOfComponents=" 1" format="ascii">
         0          1         18         17          1          2         19         18          2          3         20         19          3          4         21         20          4          5         22         21          5          6         23         22          6          7         24         23          7          8         25         24          8          9         26         25          9         10         27         26         10         11         28         27         11         12         29         28         12         13         30         29         13         14         31         30         14         15         32         31         15         16         33         32         17         18         35         34         18         19         36         35         19         20         37         36         20         21         38         37         21         22         39         38         22         23         40         39         23         24         41         40         24         25         42         41         25         26         43         42         26         27         44         43         27         28         45         44         28         29         46         45         29         30         47         46         30         31         48         47         31         32         49         48         32         33         50         49         34         35         52         51         35         36         53         52         36         37         54         53         37         38         55         54         38         39         56         55         39         40         57         56         40         41         58         57         41         42         59         58         42         43         60         59         43         44         61         60         44         45         62         61         45         46         63         62         46         47         64         63         47         48         65         64         48         49         66         65         49         50         67         66         51         52         69         68         52         53         70         69         53         54         71         70         54         55         72         71         55         56         73         72         56         57         74         73         57         58         75         74         58         59         76         75         59         60         77         76         60         61         78         77         61         62         79         78         62         63         80         79         63         64         81         80         64         65         82         81         65         66         83         82         66         67         84         83         68         69         86         85         69         70         87         86         70         71         88         87         71         72         89         88         72         73         90         89         73         74         91         90         74         75         92         91         75         76         93         92         76         77         94         93         77         78         95         94         78         79         96         95         79         80         97         96         80         81         98         97         81         82         99         98         82         83        100         99         83         84        101        100         85         86        103        102         86         87        104        103         87         88        105        104         88         89        106        105         89         90        107        106         90         91        108        107         91         92        109        108         92         93        110        109         93         94        111        110         94         95        112        111         95         96        113        112         96         97        114        113         97         98        115        114         98         99        116        115         99        100        117        116        100        101        118        117        102        103        120        119        103        104        121        120        104        105        122        121        105        106        123        122        106        107        124        123        107        108        125        124        108        109        126        125        109        110        127        126        110        111        128        127        111        112        129        128        112        113        130        129        113        114        131        130        114        115        132        131        115        116        133        132        116        117        134        133        117        118        135        134        119        120        137        136        120        121        138        137        121        122        139        138        122        123        140        139        123        124        141        140        124        125        142        141        125        126        143        142        126        127        144        143        127        128        145        144        128        129        146        145        129        130        147        146        130        131        148        147        131        132        149        148        132        133        150        149        133        134        151        150        134        135        152        151        136        137        154        153        137        138        155        154        138        139        156        155        139        140        157        156        140        141        158        157        141        142        159        158        142        143        160        159        143        144        161        160        144        145        162        161        145        146        163        162        146        147        164        163        147        148        165        164        148        149        166        165        149        150        167        166        150        151        168        167        151        152        169        168        153        154        171        170        154        155        172        171        155        156        173        172        156        157        174        173        157        158        175        174        158        159        176        175        159        160        177        176        160        161        178        177        161        162        179        178        162        163        180        179        163        164        181        180        164        165        182        181        165        166        183        182        166        167        184        183        167        168        185        184        168        169        186        185        170        171        188        187        171        172        189        188        172        173        190        189        173        174        191        190        174        175        192        191        175        176        193        192        176        177        194        193        177        178        195        194        178        179        196        195        179        180        197        196        180        181        198        197        181        182        199        198        182        183        200        199        183        184        201        200        184        185        202        201        185        186        203        202        187        188        205        204        188        189        206        205        189        190        207        206        190        191        208        207        191        192        209        208        192        193        210        209        193        194        211        210        194        195        212        211        195        196        213        212        196        197        214        213        197        198        215        214        198        199        216        215        199        200        217        216        200        201        218        217        201        202        219        218        202        203        220        219        204        205        222        221        205        206        223        222        206        207        224        223        207        208        225        224        208        209        226        225        209        210        227        226        210        211        228        227        211        212        229        228        212        213        230        229        213        214        231        230        214        215        232        231        215        216        233        232        216        217        234        233        217        218        235        234        218        219        236        235        219        220        237        236        221        222        239        238        222        223        240        239        223        224        241        240        224        225        242        241        225        226        243        242        226        227        244        243        227        228        245        244        228        229        246        245        229        230        247        246        230        231        248        247        231        232        249        248        232        233        250        249        233        234        251        250        234        235        252        251        235        236        253        252        236        237        254        253        238        239        256        255        239        240        257        256        240        241        258        257        241        242        259        258        242        243        260        259        243        244        261        260        244        245        262        261        245        246        263        262        246        247        264        263        247        248        265        264        248        249        266        265        249        250        267        266        250        251        268        267        251        252        269        268        252        253        270        269        253        254        271        270        255        256        273        272        256        257        274        273        257        258        275        274        258        259        276        275        259        260        277        276        260        261        278        277        261        262        279        278        262        263        280        279        263        264        281        280        264        265        282        281        265        266        283        282        266        267        284        283        267        268        285        284        268        269        286        285        269        270        287        286        270        271        288        287        306        307          1          0        307        308          2          1        308        309          3          2        309        310          4          3        310        311          5          4        311        312          6          5        312        313          7          6        313        314          8          7        314        315          9          8        315        316         10          9        316        317         11         10        317        318         12         11        318        319         13         12        319        320         14         13        320        321         15         14        321        322         16         15        323        324        307        306        324        325        308        307        325        326        309        308        326        327        310        309        327        328        311        310        328        329        312        311        329        330        313        312        330        331        314        313        331        332        315        314        332        333        316        315        333        334        317        316        334        335        318        317        335        336        319        318        336        337        320        319        337        338        321        320        338        339        322        321        340        341        324        323        341        342        325        324        342        343        326        325        343        344        327        326        344        345        328        327        345        346        329        328        346        347        330        329        347        348        331        330        348        349        332        331        349        350        333        332        350        351        334        333        351        352        335        334        352        353        336        335        353        354        337        336        354        355        338        337        355        356        339        338        357        358        341        340        358        359        342        341        359        360        343        342        360        361        344        343        361        362        345        344        362        363        346        345        363        364        347        346        364        365        348        347        365        366        349        348        366        367        350        349        367        368        351        350        368        369        352        351        369        370        353        352        370        371        354        353        371        372        355        354        372        373        356        355        374        375        358        357        375        376        359        358        376        377        360        359        377        378        361        360        378        379        362        361        379        380        363        362        380        381        364        363        381        382        365        364        382        383        366        365        383        384        367        366        384        385        368        367        385        386        369        368        386        387        370        369        387        388        371        370        388        389        372        371        389        390        373        372        391        392        375        374        392        393        376        375        393        394        377        376        394        395        378        377        395        396        379        378        396        397        380        379        397        398        381        380        398        399        382        381        399        400        383        382        400        401        384        383        401        402        385        384        402        403        386        385        403        404        387        386        404        405        388        387        405        406        389        388        406        407        390        389        408        409        392        391        409        410        393        392        410        411        394        393        411        412        395        394        412        413        396        395        413        414        397        396        414        415        398        397        415        416        399        398        416        417        400        399        417        418        401        400        418        419        402        401        419        420        403        402        420        421        404        403        421        422        405        404        422        423        406        405        423        424        407        406        425        426        409        408        426        427        410        409        427        428        411        410        428        429        412        411        429        430        413        412        430        431        414        413        431        432        415        414        432        433        416        415        433        434        417        416        434        435        418        417        435        436        419        418        436        437        420        419        437        438        421        420        438        439        422        421        439        440        423        422        440        441        424        423        442        443        426        425        443        444        427        426        444        445        428        427        445        446        429        428        446        447        430        429        447        448        431        430        448        449        432        431        449        450        433        432        450        451        434        433        451        452        435        434        452        453        436        435        453        454        437        436        454        455        438        437        455        456        439        438        456        457        440        439        457        458        441        440        459        460        443        442        460        461        444        443        461        462        445        444        462        463        446        445        463        464        447        446        464        465        448        447        465        466        449        448        466        467        450        449        467        468        451        450        468        469        452        451        469        470        453        452        470        471        454        453        471        472        455        454        472        473        456        455        473        474        457        456        474        475        458        457        476        477        460        459        477        478        461        460        478        479        462        461        479        480        463        462        480        481        464        463        481        482        465        464        482        483        466        465        483        484        467        466        484        485        468        467        485        486        469        468        486        487        470        469        487        488        471        470        488        489        472        471        489        490        473        472        490        491        474        473        491        492        475        474        493        494        477        476        494        495        478        477        495        496        479        478        496        497        480        479        497        498        481        480        498        499        482        481        499        500        483        482        500        501        484        483        501        502        485        484        502        503        486        485        503        504        487        486        504        505        488        487        505        506        489        488        506        507        490        489        507        508        491        490        508        509        492        491        510        511        494        493        511        512        495        494        512        513        496        495        513        514        497        496        514        515        498        497        515        516        499        498        516        517        500        499        517        518        501        500        518        519        502        501        519        520        503        502        520        521        504        503        521        522        505        504        522        523        506        505        523        524        507        506        524        525        508        507        525        526        509        508        527        528        511        510        528        529        512        511        529        530        513        512        530        531        514        513        531        532        515        514        532        533        516        515        533        534        517        516        534        535        518        517        535        536        519        518        536        537        520        519        537        538        521        520        538        539        522        521        539        540        523        522        540        541        524        523        541        542        525        524        542        543        526        525        544        545        528        527        545        546        529        528        546        547        530        529        547        548        531        530        548        549        532        531        549        550        533        532        550        551        534        533        551        552        535        534        552        553        536        535        553        554        537        536        554        555        538        537        555        556        539        538        556        557        540        539        557        558        541        540        558        559        542        541        559        560        543        542        561        562        545        544        562        563        546        545        563        564        547        546        564        565        548        547        565        566        549        548        566        567        550        549        567        568        551        550        568        569        552        551        569        570        553        552        570        571        554        553        571        572        555        554        572        573        556        555        573        574        557        556        574        575        558        557        575        576        559        558        576        577        560        559        578        579        596        595        579        580        597        596        580        581        598        597        581        582        599        598        582        583        600        599        583        584        601        600        584        585        602        601        585        586        603        602        586        587        604        603        587        588        605        604        588        589        606        605        589        590        607        606        590        591        608        607        591        592        609        608        592        593        610        609        593        594        611        610        595        596        613        612        596        597        614        613        597        598        615        614        598        599        616        615        599        600        617        616        600        601        618        617        601        602        619        618        602        603        620        619        603        604        621        620        604        605        622        621        605        606        623        622        606        607        624        623        607        608        625        624        608        609        626        625        609        610        627        626        610        611        628        627        612        613        630        629        613        614        631        630        614        615        632        631        615        616        633        632        616        617        634        633        617        618        635        634        618        619        636        635        619        620        637        636        620        621        638        637        621        622        639        638        622        623        640        639        623        624        641        640        624        625        642        641        625        626        643        642        626        627        644        643        627        628        645        644        629        630        647        646        630        631        648        647        631        632        649        648        632        633        650        649        633        634        651        650        634        635        652        651        635        636        653        652        636        637        654        653        637        638        655        654        638        639        656        655        639        640        657        656        640        641        658        657        641        642        659        658        642        643        660        659        643        644        661        660        644        645        662        661        646        647        664        663        647        648        665        664        648        649        666        665        649        650        667        666        650        651        668        667        651        652        669        668        652        653        670        669        653        654        671        670        654        655        672        671        655        656        673        672        656        657        674        673        657        658        675        674        658        659        676        675        659        660        677        676        660        661        678        677        661        662        679        678        663        664        681        680        664        665        682        681        665        666        683        682        666        667        684        683        667        668        685        684        668        669        686        685        669        670        687        686        670        671        688        687        671        672        689        688        672        673        690        689        673        674        691        690        674        675        692        691        675        676        693        692        676        677        694        693        677        678        695        694        678        679        696        695        680        681        698        697        681        682        699        698        682        683        700        699        683        684        701        700        684        685        702        701        685        686        703        702        686        687        704        703        687        688        705        704        688        689        706        705        689        690        707        706        690        691        708        707        691        692        709        708        692        693        710        709        693        694        711        710        694        695        712        711        695        696        713        712        697        698        715        714        698        699        716        715        699        700        717        716        700        701        718        717        701        702        719        718        702        703        720        719        703        704        721        720        704        705        722        721        705        706        723        722        706        707        724        723        707        708        725        724        708        709        726        725        709        710        727        726        710        711        728        727        711        712        729        728        712        713        730        729        714        715        732        731        715        716        733        732        716        717        734        733        717        718        735        734        718        719        736        735        719        720        737        736        720        721        738        737        721        722        739        738        722        723        740        739        723        724        741        740        724        725        742        741        725        726        743        742        726        727        744        743        727        728        745        744        728        729        746        745        729        730        747        746        731        732        749        748        732        733        750        749        733        734        751        750        734        735        752        751        735        736        753        752        736        737        754        753        737        738        755        754        738        739        756        755        739        740        757        756        740        741        758        757        741        742        759        758        742        743        760        759        743        744        761        760        744        745        762        761        745        746        763        762        746        747        764        763        748        749        766        765        749        750        767        766        750        751        768        767        751        752        769        768        752        753        770        769        753        754        771        770        754        755        772        771        755        756        773        772        756        757        774        773        757        758        775        774        758        759        776        775        759        760        777        776        760        761        778        777        761        762        779        778        762        763        780        779        763        764        781        780        765        766        783        782        766        767        784        783        767        768        785        784        768        769        786        785        769        770        787        786        770        771        788        787        771        772        789        788        772        773        790        789        773        774        791        790        774        775        792        791        775        776        793        792        776        777        794        793        777        778        795        794        778        779        796        795        779        780        797        796        780        781        798        797        782        783        800        799        783        784        801        800        784        785        802        801        785        786        803        802        786        787        804        803        787        788        805        804        788        789        806        805        789        790        807        806        790        791        808        807        791        792        809        808        792        793        810        809        793        794        811        810        794        795        812        811        795        796        813        812        796        797        814        813        797        798        815        814        799        800        817        816        800        801        818        817        801        802        819        818        802        803        820        819        803        804        821        820        804        805        822        821        805        806        823        822        806        807        824        823        807        808        825        824        808        809        826        825        809        810        827        826        810        811        828        827        811        812        829        828        812        813        830        829        813        814        831        830        814        815        832        831        816        817        834        833        817        818        835        834        818        819        836        835        819        820        837        836        820        821        838        837        821        822        839        838        822        823        840        839        823        824        841        840        824        825        842        841        825        826        843        842        826        827        844        843        827        828        845        844        828        829        846        845        829        830        847        846        830        831        848        847        831        832        849        848        833        834        562        561        834        835        563        562        835        836        564        563        836        837        565        564        837        838        566        565        838        839        567        566        839        840        568        567        840        841        569        568        841        842        570        569        842        843        571        570        843        844        572        571        844        845        573        572        845        846        574        573        846        847        575        574        847        848        576        575        848        849        577        576        884        885        579        578        885        886        580        579        886        887        581        580        887        888        582        581        888        889        583        582        889        890        584        583        890        891        585        584        891        892        586        585        892        893        587        586        893        894        588        587        894        895        589        588        895        896        590        589        896        897        591        590        897        898        592        591        898        899        593        592        899        900        594        593        901        902        885        884        902        903        886        885        903        904        887        886        904        905        888        887        905        906        889        888        906        907        890        889        907        908        891        890        908        909        892        891        909        910        893        892        910        911        894        893        911        912        895        894        912        913        896        895        913        914        897        896        914        915        898        897        915        916        899        898        916        917        900        899        918        919        902        901        919        920        903        902        920        921        904        903        921        922        905        904        922        923        906        905        923        924        907        906        924        925        908        907        925        926        909        908        926        927        910        909        927        928        911        910        928        929        912        911        929        930        913        912        930        931        914        913        931        932        915        914        932        933        916        915        933        934        917        916        935        936        919        918        936        937        920        919        937        938        921        920        938        939        922        921        939        940        923        922        940        941        924        923        941        942        925        924        942        943        926        925        943        944        927        926        944        945        928        927        945        946        929        928        946        947        930        929        947        948        931        930        948        949        932        931        949        950        933        932        950        951        934        933        952        953        936        935        953        954        937        936        954        955        938        937        955        956        939        938        956        957        940        939        957        958        941        940        958        959        942        941        959        960        943        942        960        961        944        943        961        962        945        944        962        963        946        945        963        964        947        946        964        965        948        947        965        966        949        948        966        967        950        949        967        968        951        950        969        970        953        952        970        971        954        953        971        972        955        954        972        973        956        955        973        974        957        956        974        975        958        957        975        976        959        958        976        977        960        959        977        978        961        960        978        979        962        961        979        980        963        962        980        981        964        963        981        982        965        964        982        983        966        965        983        984        967        966        984        985        968        967        986        987        970        969        987        988        971        970        988        989        972        971        989        990        973        972        990        991        974        973        991        992        975        974        992        993        976        975        993        994        977        976        994        995        978        977        995        996        979        978        996        997        980        979        997        998        981        980        998        999        982        981        999       1000        983        982       1000       1001        984        983       1001       1002        985        984       1003       1004        987        986       1004       1005        988        987       1005       1006        989        988       1006       1007        990        989       1007       1008        991        990       1008       1009        992        991       1009       1010        993        992       1010       1011        994        993       1011       1012        995        994       1012       1013        996        995       1013       1014        997        996       1014       1015        998        997       1015       1016        999        998       1016       1017       1000        999       1017       1018       1001       1000       1018       1019       1002       1001       1020       1021       1004       1003       1021       1022       1005       1004       1022       1023       1006       1005       1023       1024       1007       1006       1024       1025       1008       1007       1025       1026       1009       1008       1026       1027       1010       1009       1027       1028       1011       1010       1028       1029       1012       1011       1029       1030       1013       1012       1030       1031       1014       1013       1031       1032       1015       1014       1032       1033       1016       1015       1033       1034       1017       1016       1034       1035       1018       1017       1035       1036       1019       1018       1037       1038       1021       1020       1038       1039       1022       1021       1039       1040       1023       1022       1040       1041       1024       1023       1041       1042       1025       1024       1042       1043       1026       1025       1043       1044       1027       1026       1044       1045       1028       1027       1045       1046       1029       1028       1046       1047       1030       1029       1047       1048       1031       1030       1048       1049       1032       1031       1049       1050       1033       1032       1050       1051       1034       1033       1051       1052       1035       1034       1052       1053       1036       1035       1054       1055       1038       1037       1055       1056       1039       1038       1056       1057       1040       1039       1057       1058       1041       1040       1058       1059       1042       1041       1059       1060       1043       1042       1060       1061       1044       1043       1061       1062       1045       1044       1062       1063       1046       1045       1063       1064       1047       1046       1064       1065       1048       1047       1065       1066       1049       1048       1066       1067       1050       1049       1067       1068       1051       1050       1068       1069       1052       1051       1069       1070       1053       1052       1071       1072       1055       1054       1072       1073       1056       1055       1073       1074       1057       1056       1074       1075       1058       1057       1075       1076       1059       1058       1076       1077       1060       1059       1077       1078       1061       1060       1078       1079       1062       1061       1079       1080       1063       1062       1080       1081       1064       1063       1081       1082       1065       1064       1082       1083       1066       1065       1083       1084       1067       1066       1084       1085       1068       1067       1085       1086       1069       1068       1086       1087       1070       1069       1088       1089       1072       1071       1089       1090       1073       1072       1090       1091       1074       1073       1091       1092       1075       1074       1092       1093       1076       1075       1093       1094       1077       1076       1094       1095       1078       1077       1095       1096       1079       1078       1096       1097       1080       1079       1097       1098       1081       1080       1098       1099       1082       1081       1099       1100       1083       1082       1100       1101       1084       1083       1101       1102       1085       1084       1102       1103       1086       1085       1103       1104       1087       1086       1105       1106       1089       1088       1106       1107       1090       1089       1107       1108       1091       1090       1108       1109       1092       1091       1109       1110       1093       1092       1110       1111       1094       1093       1111       1112       1095       1094       1112       1113       1096       1095       1113       1114       1097       1096       1114       1115       1098       1097       1115       1116       1099       1098       1116       1117       1100       1099       1117       1118       1101       1100       1118       1119       1102       1101       1119       1120       1103       1102       1120       1121       1104       1103       1122       1123       1106       1105       1123       1124       1107       1106       1124       1125       1108       1107       1125       1126       1109       1108       1126       1127       1110       1109       1127       1128       1111       1110       1128       1129       1112       1111       1129       1130       1113       1112       1130       1131       1114       1113       1131       1132       1115       1114       1132       1133       1116       1115       1133       1134       1117       1116       1134       1135       1118       1117       1135       1136       1119       1118       1136       1137       1120       1119       1137       1138       1121       1120        272        273       1123       1122        273        274       1124       1123        274        275       1125       1124        275        276       1126       1125        276        277       1127       1126        277        278       1128       1127        278        279       1129       1128        279        280       1130       1129        280        281       1131       1130        281        282       1132       1131        282        283       1133       1132        283        284       1134       1133        284        285       1135       1134        285        286       1136       1135        286        287       1137       1136        287        288       1138       1137 </DataArray>
<DataArray type="Int32"                                    Name="offsets"                                                      NumberOfComponents=" 1" format="ascii">
         4          8         12         16         20         24         28         32         36         40         44         48         52         56         60         64         68         72         76         80         84         88         92         96        100        104        108        112        116        120        124        128        132        136        140        144        148        152        156        160        164        168        172        176        180        184        188        192        196        200        204        208        212        216        220        224        228        232        236        240        244        248        252        256        260        264        268        272        276        280        284        288        292        296        300        304        308        312        316        320        324        328        332        336        340        344        348        352        356        360        364        368        372        376        380        384        388        392        396        400        404        408        412        416        420        424        428        432        436        440        444        448        452        456        460        464        468        472        476        480        484        488        492        496        500        504        508        512        516        520        524        528        532        536        540        544        548        552        556        560        564        568        572        576        580        584        588        592        596        600        604        608        612        616        620        624        628        632        636        640        644        648        652        656        660        664        668        672        676        680        684        688        692        696        700        704        708        712        716        720        724        728        732        736        740        744        748        752        756        760        764        768        772        776        780        784        788        792        796        800        804        808        812        816        820        824        828        832        836        840        844        848        852        856        860        864        868        872        876        880        884        888        892        896        900        904        908        912        916        920        924        928        932        936        940        944        948        952        956        960        964        968        972        976        980        984        988        992        996       1000       1004       1008       1012       1016       1020       1024       1028       1032       1036       1040       1044       1048       1052       1056       1060       1064       1068       1072       1076       1080       1084       1088       1092       1096       1100       1104       1108       1112       1116       1120       1124       1128       1132       1136       1140       1144       1148       1152       1156       1160       1164       1168       1172       1176       1180       1184       1188       1192       1196       1200       1204       1208       1212       1216       1220       1224       1228       1232       1236       1240       1244       1248       1252       1256       1260       1264       1268       1272       1276       1280       1284       1288       1292       1296       1300       1304       1308       1312       1316       1320       1324       1328       1332       1336       1340       1344       1348       1352       1356       1360       1364       1368       1372       1376       1380       1384       1388       1392       1396       1400       1404       1408       1412       1416       1420       1424       1428       1432       1436       1440       1444       1448       1452       1456       1460       1464       1468       1472       1476       1480       1484       1488       1492       1496       1500       1504       1508       1512       1516       1520       1524       1528       1532       1536       1540       1544       1548       1552       1556       1560       1564       1568       1572       1576       1580       1584       1588       1592       1596       1600       1604       1608       1612       1616       1620       1624       1628       1632       1636       1640       1644       1648       1652       1656       1660       1664       1668       1672       1676       1680       1684       1688       1692       1696       1700       1704       1708       1712       1716       1720       1724       1728       1732       1736       1740       1744       1748       1752       1756       1760       1764       1768       1772       1776       1780       1784       1788       1792       1796       1800       1804       1808       1812       1816       1820       1824       1828       1832       1836       1840       1844       1848       1852       1856       1860       1864       1868       1872       1876       1880       1884       1888       1892       1896       1900       1904       1908       1912       1916       1920       1924       1928       1932       1936       1940       1944       1948       1952       1956       1960       1964       1968       1972       1976       1980       1984       1988       1992       1996       2000       2004       2008       2012       2016       2020       2024       2028       2032       2036       2040       2044       2048       2052       2056       2060       2064       2068       2072       2076       2080       2084       2088       2092       2096       2100       2104       2108       2112       2116       2120       2124       2128       2132       2136       2140       2144       2148       2152       2156       2160       2164       2168       2172       2176       2180       2184       2188       2192       2196       2200       2204       2208       2212       2216       2220       2224       2228       2232       2236       2240       2244       2248       2252       2256       2260       2264       2268       2272       2276       2280       2284       2288       2292       2296       2300       2304       2308       2312       2316       2320       2324       2328       2332       2336       2340       2344       2348       2352       2356       2360       2364       2368       2372       2376       2380       2384       2388       2392       2396       2400       2404       2408       2412       2416       2420       2424       2428       2432       2436       2440       2444       2448       2452       2456       2460       2464       2468       2472       2476       2480       2484       2488       2492       2496       2500       2504       2508       2512       2516       2520       2524       2528       2532       2536       2540       2544       2548       2552       2556       2560       2564       2568       2572       2576       2580       2584       2588       2592       2596       2600       2604       2608       2612       2616       2620       2624       2628       2632       2636       2640       2644       2648       2652       2656       2660       2664       2668       2672       2676       2680       2684       2688       2692       2696       2700       2704       2708       2712       2716       2720       2724       2728       2732       2736       2740       2744       2748       2752       2756       2760       2764       2768       2772       2776       2780       2784       2788       2792       2796       2800       2804       2808       2812       2816       2820       2824       2828       2832       2836       2840       2844       2848       2852       2856       2860       2864       2868       2872       2876       2880       2884       2888       2892       2896       2900       2904       2908       2912       2916       2920       2924       2928       2932       2936       2940       2944       2948       2952       2956       2960       2964       2968       2972       2976       2980       2984       2988       2992       2996       3000       3004       3008       3012       3016       3020       3024       3028       3032       3036       3040       3044       3048       3052       3056       3060       3064       3068       3072       3076       3080       3084       3088       3092       3096       3100       3104       3108       3112       3116       3120       3124       3128       3132       3136       3140       3144       3148       3152       3156       3160       3164       3168       3172       3176       3180       3184       3188       3192       3196       3200       3204       3208       3212       3216       3220       3224       3228       3232       3236       3240       3244       3248       3252       3256       3260       3264       3268       3272       3276       3280       3284       3288       3292       3296       3300       3304       3308       3312       3316       3320       3324       3328       3332       3336       3340       3344       3348       3352       3356       3360       3364       3368       3372       3376       3380       3384       3388       3392       3396       3400       3404       3408       3412       3416       3420       3424       3428       3432       3436       3440       3444       3448       3452       3456       3460       3464       3468       3472       3476       3480       3484       3488       3492       3496       3500       3504       3508       3512       3516       3520       3524       3528       3532       3536       3540       3544       3548       3552       3556       3560       3564       3568       3572       3576       3580       3584       3588       3592       3596       3600       3604       3608       3612       3616       3620       3624       3628       3632       3636       3640       3644       3648       3652       3656       3660       3664       3668       3672       3676       3680       3684       3688       3692       3696       3700       3704       3708       3712       3716       3720       3724       3728       3732       3736       3740       3744       3748       3752       3756       3760       3764       3768       3772       3776       3780       3784       3788       3792       3796       3800       3804       3808       3812       3816       3820       3824       3828       3832       3836       3840       3844       3848       3852       3856       3860       3864       3868       3872       3876       3880       3884       3888       3892       3896       3900       3904       3908       3912       3916       3920       3924       3928       3932       3936       3940       3944       3948       3952       3956       3960       3964       3968       3972       3976       3980       3984       3988       3992       3996       4000       4004       4008       4012       4016       4020       4024       4028       4032       4036       4040       4044       4048       4052       4056       4060       4064       4068       4072       4076       4080       4084       4088       4092       4096 </DataArray>
<DataArray type="UInt8"                                    Name="types"                                                      NumberOfComponents=" 1" format="ascii">
         9          9          9          9          9          9          9          9          9          9          9          9          9          9          9          9          9          9          9          9          9          9          9          9          9          9          9          9          9          9          9          9          9          9          9          9          9          9          9          9          9          9          9          9          9          9          9          9          9          9          9          9          9          9          9          9          9          9          9          9          9          9          9          9          9          9          9          9          9          9          9          9          9          9          9          9          9          9          9          9          9          9          9          9          9          9          9          9          9          9          9          9          9          9          9          9          9          9          9          9          9          9          9          9          9          9          9          9          9          9          9          9          9          9          9          9          9          9          9          9          9          9          9          9          9          9          9          9          9          9          9          9          9          9          9          9          9          9          9          9          9          9          9          9          9          9          9          9          9          9          9          9          9          9          9          9          9          9          9          9          9          9          9          9          9          9          9          9          9          9          9          9          9          9          9          9          9          9          9          9          9          9          9          9          9          9          9          9          9          9          9          9          9          9          9          9          9          9          9          9          9          9          9          9          9          9          9          9          9          9          9          9          9          9          9          9          9          9          9          9          9          9          9          9          9          9          9          9          9          9          9          9          9          9          9          9          9          9          9          9          9          9          9          9          9          9          9          9          9          9          9          9          9          9          9          9          9          9          9          9          9          9          9          9          9          9          9          9          9          9          9          9          9          9          9          9          9          9          9          9          9          9          9          9          9          9          9          9          9          9          9          9          9          9          9          9          9          9          9          9          9          9          9          9          9          9          9          9          9          9          9          9          9          9          9          9          9          9          9          9          9          9          9          9          9          9          9          9          9          9          9          9          9          9          9          9          9          9          9          9          9          9          9          9          9          9          9          9          9          9          9          9          9          9          9          9          9          9          9          9          9          9          9          9          9          9          9          9          9          9          9          9          9          9          9          9          9          9          9          9          9          9          9          9          9          9          9          9          9          9          9          9          9          9          9          9          9          9          9          9          9          9          9          9          9          9          9          9          9          9          9          9          9          9          9          9          9          9          9          9          9          9          9          9          9          9          9          9          9          9          9          9          9          9          9          9          9          9          9          9          9          9          9          9          9          9          9          9          9          9          9          9          9          9          9          9          9          9          9          9          9          9          9          9          9          9          9          9          9          9          9          9          9          9          9          9          9          9          9          9          9          9          9          9          9          9          9          9          9          9          9          9          9          9          9          9          9          9          9          9          9          9          9          9          9          9          9          9          9          9          9          9          9          9          9          9          9          9          9          9          9          9          9          9          9          9          9          9          9          9          9          9          9          9          9          9          9          9          9          9          9          9          9          9          9          9          9          9          9          9          9          9          9          9          9          9          9          9          9          9          9          9          9          9          9          9          9          9          9          9          9          9          9          9          9          9          9          9          9          9          9          9          9          9          9          9          9          9          9          9          9          9          9          9          9          9          9          9          9          9          9          9          9          9          9          9          9          9          9          9          9          9          9          9          9          9          9          9          9          9          9          9          9          9          9          9          9          9          9          9          9          9          9          9          9          9          9          9          9          9          9          9          9          9          9          9          9          9          9          9          9          9          9          9          9          9          9          9          9          9          9          9          9          9          9          9          9          9          9          9          9          9          9          9          9          9          9          9          9          9          9          9          9          9          9          9          9          9          9          9          9          9          9          9          9          9          9          9          9          9          9          9          9          9          9          9          9          9          9          9          9          9          9          9          9          9          9          9          9          9          9          9          9          9          9          9          9          9          9          9          9          9          9          9          9          9          9          9          9          9          9          9          9          9          9          9          9          9          9          9          9          9          9          9          9          9          9          9          9          9          9          9          9          9          9          9          9          9          9          9          9          9          9          9          9          9          9          9          9          9          9          9          9          9          9          9          9          9          9          9          9          9          9          9          9          9          9          9          9          9          9          9          9          9          9          9          9          9          9          9          9          9          9          9          9          9          9          9          9          9          9          9          9          9          9          9          9          9          9          9          9          9          9          9          9          9          9          9          9          9          9          9          9          9          9          9          9          9          9          9          9          9          9          9          9          9          9          9          9          9          9          9          9          9          9          9          9          9          9          9          9          9          9          9          9          9          9          9          9          9          9          9          9          9          9          9          9          9          9          9          9          9          9          9          9          9          9          9          9          9          9          9          9          9          9          9          9          9          9          9          9          9          9          9          9          9          9          9          9          9          9          9          9          9          9          9          9          9          9          9          9          9          9          9          9          9          9          9          9          9          9          9          9          9          9          9          9          9          9          9          9          9          9          9          9          9          9          9          9          9          9          9          9          9          9          9          9          9          9          9          9          9          9          9          9          9          9          9          9          9          9          9          9          9          9          9          9          9          9          9          9          9          9          9          9          9          9          9          9          9          9          9          9          9          9          9          9          9          9          9          9          9          9          9          9          9          9          9          9          9          9          9          9          9 </DataArray>
</Cells>
<CellData>
<DataArray type="Int32"                                    Name="material"                                                      NumberOfComponents=" 1" format="ascii">
         1          1          1          1          1          1          1          1          1          1          1          1          1          1          1          1          1          1          1          1          1          1          1          1          1          1          1          1          1          1          1          1          1          1          1          1          1          1          1          1          1          1          1          1          1          1          1          1          1          1          1          1          1          1          1          1          1          1          1          1          1          1          1          1          1          1          1          1          1          1          1          1          1          1          1          1          1          1          1          1          1          1          1          1          1          1          1          1          1          1          1          1          1          1          1          1          1          1          1          1          1          1          1          1          1          1          1          1          1          1          1          1          1          1          1          1          1          1          1          1          1          1          1          1          1          1          1          1          1          1          1          1          1          1          1          1          1          1          1          1          1          1          1          1          1          1          1          1          1          1          1          1          1          1          1          1          1          1          1          1          1          1          1          1          1          1          1          1          1          1          1          1          1          1          1          1          1          1          1          1          1          1          1          1          1          1          1          1          1          1          1          1          1          1          1          1          1          1          1          1          1          1          1          1          1          1          1          1          1          1          1          1          1          1          1          1          1          1          1          1          1          1          1          1          1          1          1          1          1          1          1          1          1          1          1          1          1          1          1          1          1          1          1          1          1          1          1          1          1          1          1          1          1          1          1          1          1          1          1          1          1          1          1          1          1          1          1          1          1          1          1          1          1          1          1          1          1          1          1          1          1          1          1          1          1          1          1          1          1          1          1          1          1          1          1          1          1          1          1          1          1          1          1          1          1          1          1          1          1          1          1          1          1          1          1          1          1          1          1          1          1          1          1          1          1          1          1          1          1          1          1          1          1          1          1          1          1          1          1          1          1          1          1          1          1          1          1          1          1          1          1          1          1          1          1          1          1          1          1          1          1          1          1          1          1          1          1          1          1          1          1          1          1          1          1          1          1          1          1          1          1          1          1          1          1          1          1          1          1          1          1          1          1          1          1          1          1          1          1          1          1          1          1          1          1          1          1          1          1          1          1          1          1          1          1          1          1          1          1          1          1          1          1          1          1          1          1          1          1          1          1          1          1          1          1          1          1          1          1          1          1          1          1          1          1          1          1          1          1          1          1          1          1          1          1          1          1          1          1          1          1          1          1          1          1          1          1          1          1          1          1          1          1          1          1          1          1          1          1          1          1          1          1          1          1          1          1          1          1          1          1          1          1          1          1          1          1          1          1          1          1          1          1          1          1          1          1          1          1          1          1          1          1          1          1          1          1          1          1          1          1          1          1          1          1          1          1          1          1          1          1          1          1          1          1          1          1          1          1          1          1          1          1          1          1          1          1          1          1          1          1          1          1          1          1          1          1          1          1          1          1          1          1          1          1          1          1          1          1          1          1          1          1          1          1          1          1          1          1          1          1          1          1          1          1          1          1          1          1          1          1          1          1          1          1          1          1          1          1          1          1          1          1          1          1          1          1          1          1          1          1          1          1          1          1          1          1          1          1          1          1          1          1          1          1          1          1          1          1          1          1          1          1          1          1          1          1          1          1          1          1          1          1          1          1          1          1          1          1          1          1          1          1          1          1          1          1          1          1          1          1          1          1          1          1          1          1          1          1          1          1          1          1          1          1          1          1          1          1          1          1          1          1          1          1          1          1          1          1          1          1          1          1          1          1          1          1          1          1          1          1          1          1          1          1          1          1          1          1          1          1          1          1          1          1          1          1          1          1          1          1          1          1          1          1          1          1          1          1          1          1          1          1          1          1          1          1          1          1          1          1          1          1          1          1          1          1          1          1          1          1          1          1          1          1          1          1          1          1          1          1          1          1          1          1          1          1          1          1          1          1          1          1          1          1          1          1          1          1          1          1          1          1          1          1          1          1          1          1          1          1          1          1          1          1          1          1          1          1          1          1          1          1          1          1          1          1          1          1          1          1          1          1          1          1          1          1          1          1          1          1          1          1          1          1          1          1          1          1          1          1          1          1          1          1          1          1          1          1          1          1          1          1          1          1          1          1          1          1          1          1          1          1          1          1          1          1          1          1          1          1          1          1          1          1          1          1          1          1          1          1          1          1          1          1          1          1          1          1          1          1          1          1          1          1          1          1          1          1          1          1          1          1          1          1          1          1          1          1          1          1          1          1          1          1          1          1          1          1          1          1          1          1          1          1          1          1          1          1          1          1          1          1          1          1          1          1          1          1          1          1          1          1          1          1          1          1          1          1          1          1          1          1          1          1          1          1          1          1          1          1          1          1          1          1          1          1          1          1          1          1          1          1          1          1          1          1          1          1          1          1          1          1          1          1          1          1          1          1          1          1          1          1          1          1          1          1          1          1          1          1          1          1          1          1          1          1          1          1          1          1          1          1          1          1          1          1          1          1          1          1          1          1          1          1          1          1          1          1          1          1          1          1          1 </DataArray>
</CellData>
<PointData>
<DataArray type="Float64"                                    Name="u"                                                      NumberOfComponents=" 3" format="ascii">
             -0.000797094              -0.000000000               0.999999989              -0.000840891               0.000000000               0.999999989              -0.000859338               0.000000000               0.999999989              -0.000869630               0.000000000               0.999999989              -0.000877838              -0.000000000               0.999999989              -0.000886179               0.000000000               0.999999989              -0.000895244               0.000000000               0.999999989              -0.000905083               0.000000000               0.999999989              -0.000915264              -0.000000000               0.999999989              -0.000925649               0.000000000               0.999999989              -0.000936118               0.000000000               0.999999989              -0.000946405               0.000000000               0.999999989              -0.000956104               0.000000000               0.999999989              -0.000964784               0.000000000               0.999999989              -0.000972058               0.000000000               0.999999989              -0.000977421               0.000000000               0.999999989              -0.000980186              -0.000000000               0.999999989              -0.000792566               0.000114746               0.999999989              -0.000832645               0.000090818               0.999999989              -0.000848719               0.000079692               0.999999989              -0.000857389               0.000074823               0.999999989              -0.000864512               0.000073029               0.999999989              -0.000872059               0.000072733               0.999999989              -0.000880378               0.000072928               0.999999989              -0.000889404               0.000072929               0.999999989              -0.000898809               0.000072256               0.999999989              -0.000908295               0.000070729               0.999999989              -0.000917618               0.000068162               0.999999989              -0.000926458               0.000064208               0.999999989              -0.000934444               0.000058520               0.999999989              -0.000941242               0.000050737               0.999999989              -0.000946445               0.000040328               0.999999989              -0.000949641               0.000026564               0.999999989              -0.000950178               0.000008249               0.999999989              -0.000779173               0.000228442               0.999999989              -0.000808377               0.000181359               0.999999989              -0.000817721               0.000160279               0.999999989              -0.000822173               0.000151391               0.999999989              -0.000826469               0.000148582               0.999999989              -0.000831778               0.000148432               0.999999989              -0.000838047               0.000149043               0.999999989              -0.000844910               0.000149148               0.999999989              -0.000851872               0.000147912               0.999999989              -0.000858542               0.000144973               0.999999989              -0.000864589               0.000139780               0.999999989              -0.000869552               0.000131825               0.999999989              -0.000873107               0.000120719               0.999999989              -0.000874942               0.000105782               0.999999989              -0.000874622               0.000086018               0.999999989              -0.000871792               0.000060332               0.999999989              -0.000866231               0.000027474               0.999999989              -0.000757372               0.000340083               0.999999989              -0.000769499               0.000271425               0.999999989              -0.000769110               0.000242476               0.999999989              -0.000767966               0.000231285               0.999999989              -0.000768561               0.000228460               0.999999989              -0.000770844               0.000229016               0.999999989              -0.000774160               0.000230376               0.999999989              -0.000777921               0.000230727               0.999999989              -0.000781333               0.000228874               0.999999989              -0.000783752               0.000224513               0.999999989              -0.000784733               0.000216830               0.999999989              -0.000783857               0.000205176               0.999999989              -0.000780770               0.000189083               0.999999989              -0.000775082               0.000167777               0.999999989              -0.000766503               0.000140181               0.999999989              -0.000755054               0.000105739               0.999999989              -0.000741157               0.000063866               0.999999989              -0.000727664               0.000448693               0.999999989              -0.000718001               0.000361006               0.999999989              -0.000706781               0.000326688               0.999999989              -0.000699897               0.000315065               0.999999989              -0.000696811               0.000313169               0.999999989              -0.000696091               0.000314976               0.999999989              -0.000696288               0.000317221               0.999999989              -0.000696372               0.000317827               0.999999989              -0.000695332               0.000315487               0.999999989              -0.000692360               0.000309696               0.999999989              -0.000686859               0.000299586               0.999999989              -0.000678458               0.000284538               0.999999989              -0.000666707               0.000264074               0.999999989              -0.000651524               0.000237590               0.999999989              -0.000633066               0.000204733               0.999999989              -0.000611958               0.000165490               0.999999989              -0.000589203               0.000120788               0.999999989              -0.000690613               0.000553327               0.999999989              -0.000656486               0.000450166               0.999999989              -0.000635155               0.000413048               0.999999989              -0.000623701               0.000402342               0.999999989              -0.000617934               0.000402064               0.999999989              -0.000614670               0.000405225               0.999999989              -0.000611833               0.000408455               0.999999989              -0.000607974               0.000409310               0.999999989              -0.000601750               0.000406359               0.999999989              -0.000592364               0.000399059               0.999999989              -0.000579225               0.000386582               0.999999989              -0.000561955               0.000368389               0.999999989              -0.000540583               0.000344230               0.999999989              -0.000515379               0.000314017               0.999999989              -0.000487049               0.000278212               0.999999989              -0.000456644               0.000237821               0.999999989              -0.000425281               0.000194549               0.999999989              -0.000646835               0.000653115               0.999999989              -0.000587958               0.000538984               0.999999989              -0.000558768               0.000501247               0.999999989              -0.000544823               0.000492149               0.999999989              -0.000537700               0.000493607               0.999999989              -0.000532499               0.000497948               0.999999989              -0.000526749               0.000501996               0.999999989              -0.000518496               0.000503089               0.999999989              -0.000506313               0.000499448               0.999999989              -0.000489468               0.000490499               0.999999989              -0.000467586               0.000475672               0.999999989              -0.000440606               0.000454781               0.999999989              -0.000408947               0.000428035               0.999999989              -0.000373399               0.000395813               0.999999989              -0.000335164               0.000359327               0.999999989              -0.000295289               0.000320130               0.999999989              -0.000254919               0.000279870               0.999999989              -0.000597310               0.000746994               0.999999989              -0.000515534               0.000627336               0.999999989              -0.000481772               0.000590530               0.999999989              -0.000467767               0.000583010               0.999999989              -0.000460305               0.000585919               0.999999989              -0.000453643               0.000591233               0.999999989              -0.000444756               0.000595896               0.999999989              -0.000431442               0.000596882               0.999999989              -0.000412350               0.000592273               0.999999989              -0.000386885               0.000581823               0.999999989              -0.000355058               0.000564982               0.999999989              -0.000317193               0.000542391               0.999999989              -0.000274218               0.000514562               0.999999989              -0.000227458               0.000482629               0.999999989              -0.000178431               0.000448017               0.999999989              -0.000128431               0.000412193               0.999999989              -0.000078655               0.000376842               0.999999989              -0.000543453               0.000833329               0.999999989              -0.000441565               0.000715221               0.999999989              -0.000408091               0.000679599               0.999999989              -0.000395710               0.000673082               0.999999989              -0.000388710               0.000677010               0.999999989              -0.000380524               0.000683208               0.999999989              -0.000368049               0.000688081               0.999999989              -0.000348713               0.000688660               0.999999989              -0.000321329               0.000683221               0.999999989              -0.000285909               0.000671470               0.999999989              -0.000242666               0.000653493               0.999999989              -0.000192461               0.000630269               0.999999989              -0.000137004               0.000603374               0.999999989              -0.000078137               0.000574055               0.999999989              -0.000017661               0.000543940               0.999999989               0.000042918               0.000514311               0.999999989               0.000102812               0.000485767               0.999999989              -0.000487560               0.000915324               0.999999989              -0.000379384               0.000814473               0.999999989              -0.000343619               0.000776016               0.999999989              -0.000330755               0.000765391               0.999999989              -0.000324528               0.000766860               0.999999989              -0.000317900               0.000772745               0.999999989              -0.000307940               0.000779329               0.999999989              -0.000292178               0.000784228               0.999999989              -0.000269473               0.000785412               0.999999989              -0.000239440               0.000782029               0.999999989              -0.000201743               0.000773892               0.999999989              -0.000156414               0.000761344               0.999999989              -0.000104776               0.000745099               0.999999989              -0.000048268               0.000726477               0.999999989               0.000011668               0.000706677               0.999999989               0.000073127               0.000686886               0.999999989               0.000135010               0.000667916               0.999999989              -0.000426583               0.000990340               0.999999989              -0.000319391               0.000910969               0.999999989              -0.000281638               0.000875317               0.999999989              -0.000267565               0.000862924               0.999999989              -0.000261253               0.000862851               0.999999989              -0.000255621               0.000868769               0.999999989              -0.000247545               0.000876952               0.999999989              -0.000234982               0.000885064               0.999999989              -0.000216727               0.000891536               0.999999989              -0.000191739               0.000895239               0.999999989              -0.000159633               0.000895667               0.999999989              -0.000120238               0.000892497               0.999999989              -0.000073846               0.000886047               0.999999989              -0.000021189               0.000877060               0.999999989               0.000036254               0.000866715               0.999999989               0.000096913               0.000856044               0.999999989               0.000158988               0.000845890               0.999999989              -0.000361709               0.001056512               0.999999989              -0.000261698               0.001001730               0.999999989              -0.000223603               0.000972978               0.999999989              -0.000208369               0.000961864               0.999999989              -0.000201290               0.000961879               0.999999989              -0.000196026               0.000968542               0.999999989              -0.000189473               0.000978554               0.999999989              -0.000179512               0.000989762               0.999999989              -0.000164922               0.001000867               0.999999989              -0.000144619               0.001010727               0.999999989              -0.000118139               0.001018527               0.999999989              -0.000085055               0.001023732               0.999999989              -0.000045085               0.001026234               0.999999989               0.000001819               0.001026275               0.999999989               0.000055135               0.001024583               0.999999989               0.000113602               0.001022117               0.999999989               0.000175654               0.001020051               0.999999989              -0.000293544               0.001112585               0.999999989              -0.000206415               0.001082850               0.999999989              -0.000170394               0.001063986               0.999999989              -0.000154757               0.001056858               0.999999989              -0.000146968               0.001058834               0.999999989              -0.000141768               0.001067156               0.999999989              -0.000136330               0.001079387               0.999999989              -0.000128429               0.001093908               0.999999989              -0.000116880               0.001109414               0.999999989              -0.000101001               0.001124805               0.999999989              -0.000079961               0.001139272               0.999999989              -0.000053293               0.001152245               0.999999989              -0.000020500               0.001163370               0.999999989               0.000019352               0.001172407               0.999999989               0.000066658               0.001179548               0.999999989               0.000121138               0.001185504               0.999999989               0.000181984               0.001191113               0.999999989              -0.000222642               0.001157464               0.999999989              -0.000153111               0.001150687               0.999999989              -0.000122212               0.001142839               0.999999989              -0.000107722               0.001141334               0.999999989              -0.000100106               0.001146625               0.999999989              -0.000095223               0.001157422               0.999999989              -0.000090465               0.001172434               0.999999989              -0.000084315               0.001190326               0.999999989              -0.000075589               0.001210059               0.999999989              -0.000063757               0.001230621               0.999999989              -0.000048043               0.001251232               0.999999989              -0.000028042               0.001271326               0.999999989              -0.000002871               0.001290396               0.999999989               0.000028691               0.001308140               0.999999989               0.000067757               0.001324325               0.999999989               0.000114996               0.001339147               0.999999989               0.000170939               0.001352989               0.999999989              -0.000149619               0.001190145               0.999999989              -0.000101298               0.001201797               0.999999989              -0.000078579               0.001204071               0.999999989              -0.000067146               0.001208424               0.999999989              -0.000061026               0.001217434               0.999999989              -0.000057144               0.001231013               0.999999989              -0.000053437               0.001248688               0.999999989              -0.000049040               0.001269550               0.999999989              -0.000043082               0.001292817               0.999999989              -0.000035098               0.001317733               0.999999989              -0.000024665               0.001343591               0.999999989              -0.000011427               0.001369801               0.999999989               0.000005581               0.001395957               0.999999989               0.000027627               0.001421589               0.999999989               0.000055856               0.001446222               0.999999989               0.000091516               0.001469549               0.999999989               0.000135909               0.001491362               0.999999989              -0.000075182               0.001209965               0.999999989              -0.000050436               0.001233535               0.999999989              -0.000038366               0.001242972               0.999999989              -0.000032018               0.001251623               0.999999989              -0.000028623               0.001263458               0.999999989              -0.000026454               0.001279332               0.999999989              -0.000024383               0.001299042               0.999999989              -0.000022035               0.001321971               0.999999989              -0.000018915               0.001347625               0.999999989              -0.000014845               0.001375406               0.999999989              -0.000009700               0.001404752               0.999999989              -0.000003087               0.001435260               0.999999989               0.000005419               0.001466544               0.999999989               0.000016709               0.001497987               0.999999989               0.000031559               0.001528971               0.999999989               0.000051039               0.001558787               0.999999989               0.000076261               0.001586707               0.999999989               0.000000000               0.001216668               0.999999989              -0.000000000               0.001244384               0.999999989              -0.000000000               0.001256367               0.999999989              -0.000000000               0.001266583               0.999999989              -0.000000000               0.001279538               0.999999989               0.000000000               0.001296210               0.999999989               0.000000000               0.001316575               0.999999989              -0.000000000               0.001340232               0.999999989               0.000000000               0.001366645               0.999999989              -0.000000000               0.001395365               0.999999989              -0.000000000               0.001426003               0.999999989              -0.000000000               0.001458142               0.999999989               0.000000000               0.001491425               0.999999989               0.000000000               0.001525227               0.999999989               0.000000000               0.001558860               0.999999989              -0.000000000               0.001591432               0.999999989              -0.000000000               0.001621801               0.999999989              -0.000797094              -0.000000000               0.999999989              -0.000840891               0.000000000               0.999999989              -0.000859338               0.000000000               0.999999989              -0.000869630               0.000000000               0.999999989              -0.000877838              -0.000000000               0.999999989              -0.000886179               0.000000000               0.999999989              -0.000895244               0.000000000               0.999999989              -0.000905083               0.000000000               0.999999989              -0.000915264              -0.000000000               0.999999989              -0.000925649               0.000000000               0.999999989              -0.000936118               0.000000000               0.999999989              -0.000946405               0.000000000               0.999999989              -0.000956104               0.000000000               0.999999989              -0.000964784               0.000000000               0.999999989              -0.000972058               0.000000000               0.999999989              -0.000977421               0.000000000               0.999999989              -0.000980186              -0.000000000               0.999999989              -0.000792566              -0.000114746               0.999999989              -0.000832645              -0.000090818               0.999999989              -0.000848719              -0.000079692               0.999999989              -0.000857389              -0.000074823               0.999999989              -0.000864512              -0.000073029               0.999999989              -0.000872059              -0.000072733               0.999999989              -0.000880378              -0.000072928               0.999999989              -0.000889404              -0.000072929               0.999999989              -0.000898809              -0.000072256               0.999999989              -0.000908295              -0.000070729               0.999999989              -0.000917618              -0.000068162               0.999999989              -0.000926458              -0.000064208               0.999999989              -0.000934444              -0.000058520               0.999999989              -0.000941242              -0.000050737               0.999999989              -0.000946445              -0.000040328               0.999999989              -0.000949641              -0.000026564               0.999999989              -0.000950178              -0.000008249               0.999999989              -0.000779173              -0.000228442               0.999999989              -0.000808377              -0.000181359               0.999999989              -0.000817721              -0.000160279               0.999999989              -0.000822173              -0.000151391               0.999999989              -0.000826469              -0.000148582               0.999999989              -0.000831778              -0.000148432               0.999999989              -0.000838047              -0.000149043               0.999999989              -0.000844910              -0.000149148               0.999999989              -0.000851872              -0.000147912               0.999999989              -0.000858542              -0.000144973               0.999999989              -0.000864589              -0.000139780               0.999999989              -0.000869552              -0.000131825               0.999999989              -0.000873107              -0.000120719               0.999999989              -0.000874942              -0.000105782               0.999999989              -0.000874622              -0.000086018               0.999999989              -0.000871792              -0.000060332               0.999999989              -0.000866231              -0.000027474               0.999999989              -0.000757372              -0.000340083               0.999999989              -0.000769499              -0.000271425               0.999999989              -0.000769110              -0.000242476               0.999999989              -0.000767966              -0.000231285               0.999999989              -0.000768561              -0.000228460               0.999999989              -0.000770844              -0.000229016               0.999999989              -0.000774160              -0.000230376               0.999999989              -0.000777921              -0.000230727               0.999999989              -0.000781333              -0.000228874               0.999999989              -0.000783752              -0.000224513               0.999999989              -0.000784733              -0.000216830               0.999999989              -0.000783857              -0.000205176               0.999999989              -0.000780770              -0.000189083               0.999999989              -0.000775082              -0.000167777               0.999999989              -0.000766503              -0.000140181               0.999999989              -0.000755054              -0.000105739               0.999999989              -0.000741157              -0.000063866               0.999999989              -0.000727664              -0.000448693               0.999999989              -0.000718001              -0.000361006               0.999999989              -0.000706781              -0.000326688               0.999999989              -0.000699897              -0.000315065               0.999999989              -0.000696811              -0.000313169               0.999999989              -0.000696091              -0.000314976               0.999999989              -0.000696288              -0.000317221               0.999999989              -0.000696372              -0.000317827               0.999999989              -0.000695332              -0.000315487               0.999999989              -0.000692360              -0.000309696               0.999999989              -0.000686859              -0.000299586               0.999999989              -0.000678458              -0.000284538               0.999999989              -0.000666707              -0.000264074               0.999999989              -0.000651524              -0.000237590               0.999999989              -0.000633066              -0.000204733               0.999999989              -0.000611958              -0.000165490               0.999999989              -0.000589203              -0.000120788               0.999999989              -0.000690613              -0.000553327               0.999999989              -0.000656486              -0.000450166               0.999999989              -0.000635155              -0.000413048               0.999999989              -0.000623701              -0.000402342               0.999999989              -0.000617934              -0.000402064               0.999999989              -0.000614670              -0.000405225               0.999999989              -0.000611833              -0.000408455               0.999999989              -0.000607974              -0.000409310               0.999999989              -0.000601750              -0.000406359               0.999999989              -0.000592364              -0.000399059               0.999999989              -0.000579225              -0.000386582               0.999999989              -0.000561955              -0.000368389               0.999999989              -0.000540583              -0.000344230               0.999999989              -0.000515379              -0.000314017               0.999999989              -0.000487049              -0.000278212               0.999999989              -0.000456644              -0.000237821               0.999999989              -0.000425281              -0.000194549               0.999999989              -0.000646835              -0.000653115               0.999999989              -0.000587958              -0.000538984               0.999999989              -0.000558768              -0.000501247               0.999999989              -0.000544823              -0.000492149               0.999999989              -0.000537700              -0.000493607               0.999999989              -0.000532499              -0.000497948               0.999999989              -0.000526749              -0.000501996               0.999999989              -0.000518496              -0.000503089               0.999999989              -0.000506313              -0.000499448               0.999999989              -0.000489468              -0.000490499               0.999999989              -0.000467586              -0.000475672               0.999999989              -0.000440606              -0.000454781               0.999999989              -0.000408947              -0.000428035               0.999999989              -0.000373399              -0.000395813               0.999999989              -0.000335164              -0.000359327               0.999999989              -0.000295289              -0.000320130               0.999999989              -0.000254919              -0.000279870               0.999999989              -0.000597310              -0.000746994               0.999999989              -0.000515534              -0.000627336               0.999999989              -0.000481772              -0.000590530               0.999999989              -0.000467767              -0.000583010               0.999999989              -0.000460305              -0.000585919               0.999999989              -0.000453643              -0.000591233               0.999999989              -0.000444756              -0.000595896               0.999999989              -0.000431442              -0.000596882               0.999999989              -0.000412350              -0.000592273               0.999999989              -0.000386885              -0.000581823               0.999999989              -0.000355058              -0.000564982               0.999999989              -0.000317193              -0.000542391               0.999999989              -0.000274218              -0.000514562               0.999999989              -0.000227458              -0.000482629               0.999999989              -0.000178431              -0.000448017               0.999999989              -0.000128431              -0.000412193               0.999999989              -0.000078655              -0.000376842               0.999999989              -0.000543453              -0.000833329               0.999999989              -0.000441565              -0.000715221               0.999999989              -0.000408091              -0.000679599               0.999999989              -0.000395710              -0.000673082               0.999999989              -0.000388710              -0.000677010               0.999999989              -0.000380524              -0.000683208               0.999999989              -0.000368049              -0.000688081               0.999999989              -0.000348713              -0.000688660               0.999999989              -0.000321329              -0.000683221               0.999999989              -0.000285909              -0.000671470               0.999999989              -0.000242666              -0.000653493               0.999999989              -0.000192461              -0.000630269               0.999999989              -0.000137004              -0.000603374               0.999999989              -0.000078137              -0.000574055               0.999999989              -0.000017661              -0.000543940               0.999999989               0.000042918              -0.000514311               0.999999989               0.000102812              -0.000485767               0.999999989              -0.000487560              -0.000915324               0.999999989              -0.000379384              -0.000814473               0.999999989              -0.000343619              -0.000776016               0.999999989              -0.000330755              -0.000765391               0.999999989              -0.000324528              -0.000766860               0.999999989              -0.000317900              -0.000772745               0.999999989              -0.000307940              -0.000779329               0.999999989              -0.000292178              -0.000784228               0.999999989              -0.000269473              -0.000785412               0.999999989              -0.000239440              -0.000782029               0.999999989              -0.000201743              -0.000773892               0.999999989              -0.000156414              -0.000761344               0.999999989              -0.000104776              -0.000745099               0.999999989              -0.000048268              -0.000726477               0.999999989               0.000011668              -0.000706677               0.999999989               0.000073127              -0.000686886               0.999999989               0.000135010              -0.000667916               0.999999989              -0.000426583              -0.000990340               0.999999989              -0.000319391              -0.000910969               0.999999989              -0.000281638              -0.000875317               0.999999989              -0.000267565              -0.000862924               0.999999989              -0.000261253              -0.000862851               0.999999989              -0.000255621              -0.000868769               0.999999989              -0.000247545              -0.000876952               0.999999989              -0.000234982              -0.000885064               0.999999989              -0.000216727              -0.000891536               0.999999989              -0.000191739              -0.000895239               0.999999989              -0.000159633              -0.000895667               0.999999989              -0.000120238              -0.000892497               0.999999989              -0.000073846              -0.000886047               0.999999989              -0.000021189              -0.000877060               0.999999989               0.000036254              -0.000866715               0.999999989               0.000096913              -0.000856044               0.999999989               0.000158988              -0.000845890               0.999999989              -0.000361709              -0.001056512               0.999999989              -0.000261698              -0.001001730               0.999999989              -0.000223603              -0.000972978               0.999999989              -0.000208369              -0.000961864               0.999999989              -0.000201290              -0.000961879               0.999999989              -0.000196026              -0.000968542               0.999999989              -0.000189473              -0.000978554               0.999999989              -0.000179512              -0.000989762               0.999999989              -0.000164922              -0.001000867               0.999999989              -0.000144619              -0.001010727               0.999999989              -0.000118139              -0.001018527               0.999999989              -0.000085055              -0.001023732               0.999999989              -0.000045085              -0.001026234               0.999999989               0.000001819              -0.001026275               0.999999989               0.000055135              -0.001024583               0.999999989               0.000113602              -0.001022117               0.999999989               0.000175654              -0.001020051               0.999999989              -0.000293544              -0.001112585               0.999999989              -0.000206415              -0.001082850               0.999999989              -0.000170394              -0.001063986               0.999999989              -0.000154757              -0.001056858               0.999999989              -0.000146968              -0.001058834               0.999999989              -0.000141768              -0.001067156               0.999999989              -0.000136330              -0.001079387               0.999999989              -0.000128429              -0.001093908               0.999999989              -0.000116880              -0.001109414               0.999999989              -0.000101001              -0.001124805               0.999999989              -0.000079961              -0.001139272               0.999999989              -0.000053293              -0.001152245               0.999999989              -0.000020500              -0.001163370               0.999999989               0.000019352              -0.001172407               0.999999989               0.000066658              -0.001179548               0.999999989               0.000121138              -0.001185504               0.999999989               0.000181984              -0.001191113               0.999999989              -0.000222642              -0.001157464               0.999999989              -0.000153111              -0.001150687               0.999999989              -0.000122212              -0.001142839               0.999999989              -0.000107722              -0.001141334               0.999999989              -0.000100106              -0.001146625               0.999999989              -0.000095223              -0.001157422               0.999999989              -0.000090465              -0.001172434               0.999999989              -0.000084315              -0.001190326               0.999999989              -0.000075589              -0.001210059               0.999999989              -0.000063757              -0.001230621               0.999999989              -0.000048043              -0.001251232               0.999999989              -0.000028042              -0.001271326               0.999999989              -0.000002871              -0.001290396               0.999999989               0.000028691              -0.001308140               0.999999989               0.000067757              -0.001324325               0.999999989               0.000114996              -0.001339147               0.999999989               0.000170939              -0.001352989               0.999999989              -0.000149619              -0.001190145               0.999999989              -0.000101298              -0.001201797               0.999999989              -0.000078579              -0.001204071               0.999999989              -0.000067146              -0.001208424               0.999999989              -0.000061026              -0.001217434               0.999999989              -0.000057144              -0.001231013               0.999999989              -0.000053437              -0.001248688               0.999999989              -0.000049040              -0.001269550               0.999999989              -0.000043082              -0.001292817               0.999999989              -0.000035098              -0.001317733               0.999999989              -0.000024665              -0.001343591               0.999999989              -0.000011427              -0.001369801               0.999999989               0.000005581              -0.001395957               0.999999989               0.000027627              -0.001421589               0.999999989               0.000055856              -0.001446222               0.999999989               0.000091516              -0.001469549               0.999999989               0.000135909              -0.001491362               0.999999989              -0.000075182              -0.001209965               0.999999989              -0.000050436              -0.001233535               0.999999989              -0.000038366              -0.001242972               0.999999989              -0.000032018              -0.001251623               0.999999989              -0.000028623              -0.001263458               0.999999989              -0.000026454              -0.001279332               0.999999989              -0.000024383              -0.001299042               0.999999989              -0.000022035              -0.001321971               0.999999989              -0.000018915              -0.001347625               0.999999989              -0.000014845              -0.001375406               0.999999989              -0.000009700              -0.001404752               0.999999989              -0.000003087              -0.001435260               0.999999989               0.000005419              -0.001466544               0.999999989               0.000016709              -0.001497987               0.999999989               0.000031559              -0.001528971               0.999999989               0.000051039              -0.001558787               0.999999989               0.000076261              -0.001586707               0.999999989              -0.000000000              -0.001216668               0.999999989              -0.000000000              -0.001244384               0.999999989              -0.000000000              -0.001256367               0.999999989              -0.000000000              -0.001266583               0.999999989              -0.000000000              -0.001279538               0.999999989               0.000000000              -0.001296210               0.999999989               0.000000000              -0.001316575               0.999999989               0.000000000              -0.001340232               0.999999989              -0.000000000              -0.001366645               0.999999989               0.000000000              -0.001395365               0.999999989              -0.000000000              -0.001426003               0.999999989              -0.000000000              -0.001458142               0.999999989              -0.000000000              -0.001491425               0.999999989              -0.000000000              -0.001525227               0.999999989              -0.000000000              -0.001558860               0.999999989              -0.000000000              -0.001591432               0.999999989               0.000000000              -0.001621801               0.999999989               0.000797094               0.000000000               0.999999989               0.000840891              -0.000000000               0.999999989               0.000859338              -0.000000000               0.999999989               0.000869630              -0.000000000               0.999999989               0.000877838               0.000000000               0.999999989               0.000886179               0.000000000               0.999999989               0.000895244              -0.000000000               0.999999989               0.000905083              -0.000000000               0.999999989               0.000915264               0.000000000               0.999999989               0.000925649              -0.000000000               0.999999989               0.000936118               0.000000000               0.999999989               0.000946405               0.000000000               0.999999989               0.000956104               0.000000000               0.999999989               0.000964784              -0.000000000               0.999999989               0.000972058              -0.000000000               0.999999989               0.000977421               0.000000000               0.999999989               0.000980186               0.000000000               0.999999989               0.000792566              -0.000114746               0.999999989               0.000832645              -0.000090818               0.999999989               0.000848719              -0.000079692               0.999999989               0.000857389              -0.000074823               0.999999989               0.000864512              -0.000073029               0.999999989               0.000872059              -0.000072733               0.999999989               0.000880378              -0.000072928               0.999999989               0.000889404              -0.000072929               0.999999989               0.000898809              -0.000072256               0.999999989               0.000908295              -0.000070729               0.999999989               0.000917618              -0.000068162               0.999999989               0.000926458              -0.000064208               0.999999989               0.000934444              -0.000058520               0.999999989               0.000941242              -0.000050737               0.999999989               0.000946445              -0.000040328               0.999999989               0.000949641              -0.000026564               0.999999989               0.000950178              -0.000008249               0.999999989               0.000779173              -0.000228442               0.999999989               0.000808377              -0.000181359               0.999999989               0.000817721              -0.000160279               0.999999989               0.000822173              -0.000151391               0.999999989               0.000826469              -0.000148582               0.999999989               0.000831778              -0.000148432               0.999999989               0.000838047              -0.000149043               0.999999989               0.000844910              -0.000149148               0.999999989               0.000851872              -0.000147912               0.999999989               0.000858542              -0.000144973               0.999999989               0.000864589              -0.000139780               0.999999989               0.000869552              -0.000131825               0.999999989               0.000873107              -0.000120719               0.999999989               0.000874942              -0.000105782               0.999999989               0.000874622              -0.000086018               0.999999989               0.000871792              -0.000060332               0.999999989               0.000866231              -0.000027474               0.999999989               0.000757372              -0.000340083               0.999999989               0.000769499              -0.000271425               0.999999989               0.000769110              -0.000242476               0.999999989               0.000767966              -0.000231285               0.999999989               0.000768561              -0.000228460               0.999999989               0.000770844              -0.000229016               0.999999989               0.000774160              -0.000230376               0.999999989               0.000777921              -0.000230727               0.999999989               0.000781333              -0.000228874               0.999999989               0.000783752              -0.000224513               0.999999989               0.000784733              -0.000216830               0.999999989               0.000783857              -0.000205176               0.999999989               0.000780770              -0.000189083               0.999999989               0.000775082              -0.000167777               0.999999989               0.000766503              -0.000140181               0.999999989               0.000755054              -0.000105739               0.999999989               0.000741157              -0.000063866               0.999999989               0.000727664              -0.000448693               0.999999989               0.000718001              -0.000361006               0.999999989               0.000706781              -0.000326688               0.999999989               0.000699897              -0.000315065               0.999999989               0.000696811              -0.000313169               0.999999989               0.000696091              -0.000314976               0.999999989               0.000696288              -0.000317221               0.999999989               0.000696372              -0.000317827               0.999999989               0.000695332              -0.000315487               0.999999989               0.000692360              -0.000309696               0.999999989               0.000686859              -0.000299586               0.999999989               0.000678458              -0.000284538               0.999999989               0.000666707              -0.000264074               0.999999989               0.000651524              -0.000237590               0.999999989               0.000633066              -0.000204733               0.999999989               0.000611958              -0.000165490               0.999999989               0.000589203              -0.000120788               0.999999989               0.000690613              -0.000553327               0.999999989               0.000656486              -0.000450166               0.999999989               0.000635155              -0.000413048               0.999999989               0.000623701              -0.000402342               0.999999989               0.000617934              -0.000402064               0.999999989               0.000614670              -0.000405225               0.999999989               0.000611833              -0.000408455               0.999999989               0.000607974              -0.000409310               0.999999989               0.000601750              -0.000406359               0.999999989               0.000592364              -0.000399059               0.999999989               0.000579225              -0.000386582               0.999999989               0.000561955              -0.000368389               0.999999989               0.000540583              -0.000344230               0.999999989               0.000515379              -0.000314017               0.999999989               0.000487049              -0.000278212               0.999999989               0.000456644              -0.000237821               0.999999989               0.000425281              -0.000194549               0.999999989               0.000646835              -0.000653115               0.999999989               0.000587958              -0.000538984               0.999999989               0.000558768              -0.000501247               0.999999989               0.000544823              -0.000492149               0.999999989               0.000537700              -0.000493607               0.999999989               0.000532499              -0.000497948               0.999999989               0.000526749              -0.000501996               0.999999989               0.000518496              -0.000503089               0.999999989               0.000506313              -0.000499448               0.999999989               0.000489468              -0.000490499               0.999999989               0.000467586              -0.000475672               0.999999989               0.000440606              -0.000454781               0.999999989               0.000408947              -0.000428035               0.999999989               0.000373399              -0.000395813               0.999999989               0.000335164              -0.000359327               0.999999989               0.000295289              -0.000320130               0.999999989               0.000254919              -0.000279870               0.999999989               0.000597310              -0.000746994               0.999999989               0.000515534              -0.000627336               0.999999989               0.000481772              -0.000590530               0.999999989               0.000467767              -0.000583010               0.999999989               0.000460305              -0.000585919               0.999999989               0.000453643              -0.000591233               0.999999989               0.000444756              -0.000595896               0.999999989               0.000431442              -0.000596882               0.999999989               0.000412350              -0.000592273               0.999999989               0.000386885              -0.000581823               0.999999989               0.000355058              -0.000564982               0.999999989               0.000317193              -0.000542391               0.999999989               0.000274218              -0.000514562               0.999999989               0.000227458              -0.000482629               0.999999989               0.000178431              -0.000448017               0.999999989               0.000128431              -0.000412193               0.999999989               0.000078655              -0.000376842               0.999999989               0.000543453              -0.000833329               0.999999989               0.000441565              -0.000715221               0.999999989               0.000408091              -0.000679599               0.999999989               0.000395710              -0.000673082               0.999999989               0.000388710              -0.000677010               0.999999989               0.000380524              -0.000683208               0.999999989               0.000368049              -0.000688081               0.999999989               0.000348713              -0.000688660               0.999999989               0.000321329              -0.000683221               0.999999989               0.000285909              -0.000671470               0.999999989               0.000242666              -0.000653493               0.999999989               0.000192461              -0.000630269               0.999999989               0.000137004              -0.000603374               0.999999989               0.000078137              -0.000574055               0.999999989               0.000017661              -0.000543940               0.999999989              -0.000042918              -0.000514311               0.999999989              -0.000102812              -0.000485767               0.999999989               0.000487560              -0.000915324               0.999999989               0.000379384              -0.000814473               0.999999989               0.000343619              -0.000776016               0.999999989               0.000330755              -0.000765391               0.999999989               0.000324528              -0.000766860               0.999999989               0.000317900              -0.000772745               0.999999989               0.000307940              -0.000779329               0.999999989               0.000292178              -0.000784228               0.999999989               0.000269473              -0.000785412               0.999999989               0.000239440              -0.000782029               0.999999989               0.000201743              -0.000773892               0.999999989               0.000156414              -0.000761344               0.999999989               0.000104776              -0.000745099               0.999999989               0.000048268              -0.000726477               0.999999989              -0.000011668              -0.000706677               0.999999989              -0.000073127              -0.000686886               0.999999989              -0.000135010              -0.000667916               0.999999989               0.000426583              -0.000990340               0.999999989               0.000319391              -0.000910969               0.999999989               0.000281638              -0.000875317               0.999999989               0.000267565              -0.000862924               0.999999989               0.000261253              -0.000862851               0.999999989               0.000255621              -0.000868769               0.999999989               0.000247545              -0.000876952               0.999999989               0.000234982              -0.000885064               0.999999989               0.000216727              -0.000891536               0.999999989               0.000191739              -0.000895239               0.999999989               0.000159633              -0.000895667               0.999999989               0.000120238              -0.000892497               0.999999989               0.000073846              -0.000886047               0.999999989               0.000021189              -0.000877060               0.999999989              -0.000036254              -0.000866715               0.999999989              -0.000096913              -0.000856044               0.999999989              -0.000158988              -0.000845890               0.999999989               0.000361709              -0.001056512               0.999999989               0.000261698              -0.001001730               0.999999989               0.000223603              -0.000972978               0.999999989               0.000208369              -0.000961864               0.999999989               0.000201290              -0.000961879               0.999999989               0.000196026              -0.000968542               0.999999989               0.000189473              -0.000978554               0.999999989               0.000179512              -0.000989762               0.999999989               0.000164922              -0.001000867               0.999999989               0.000144619              -0.001010727               0.999999989               0.000118139              -0.001018527               0.999999989               0.000085055              -0.001023732               0.999999989               0.000045085              -0.001026234               0.999999989              -0.000001819              -0.001026275               0.999999989              -0.000055135              -0.001024583               0.999999989              -0.000113602              -0.001022117               0.999999989              -0.000175654              -0.001020051               0.999999989               0.000293544              -0.001112585               0.999999989               0.000206415              -0.001082850               0.999999989               0.000170394              -0.001063986               0.999999989               0.000154757              -0.001056858               0.999999989               0.000146968              -0.001058834               0.999999989               0.000141768              -0.001067156               0.999999989               0.000136330              -0.001079387               0.999999989               0.000128429              -0.001093908               0.999999989               0.000116880              -0.001109414               0.999999989               0.000101001              -0.001124805               0.999999989               0.000079961              -0.001139272               0.999999989               0.000053293              -0.001152245               0.999999989               0.000020500              -0.001163370               0.999999989              -0.000019352              -0.001172407               0.999999989              -0.000066658              -0.001179548               0.999999989              -0.000121138              -0.001185504               0.999999989              -0.000181984              -0.001191113               0.999999989               0.000222642              -0.001157464               0.999999989               0.000153111              -0.001150687               0.999999989               0.000122212              -0.001142839               0.999999989               0.000107722              -0.001141334               0.999999989               0.000100106              -0.001146625               0.999999989               0.000095223              -0.001157422               0.999999989               0.000090465              -0.001172434               0.999999989               0.000084315              -0.001190326               0.999999989               0.000075589              -0.001210059               0.999999989               0.000063757              -0.001230621               0.999999989               0.000048043              -0.001251232               0.999999989               0.000028042              -0.001271326               0.999999989               0.000002871              -0.001290396               0.999999989              -0.000028691              -0.001308140               0.999999989              -0.000067757              -0.001324325               0.999999989              -0.000114996              -0.001339147               0.999999989              -0.000170939              -0.001352989               0.999999989               0.000149619              -0.001190145               0.999999989               0.000101298              -0.001201797               0.999999989               0.000078579              -0.001204071               0.999999989               0.000067146              -0.001208424               0.999999989               0.000061026              -0.001217434               0.999999989               0.000057144              -0.001231013               0.999999989               0.000053437              -0.001248688               0.999999989               0.000049040              -0.001269550               0.999999989               0.000043082              -0.001292817               0.999999989               0.000035098              -0.001317733               0.999999989               0.000024665              -0.001343591               0.999999989               0.000011427              -0.001369801               0.999999989              -0.000005581              -0.001395957               0.999999989              -0.000027627              -0.001421589               0.999999989              -0.000055856              -0.001446222               0.999999989              -0.000091516              -0.001469549               0.999999989              -0.000135909              -0.001491362               0.999999989               0.000075182              -0.001209965               0.999999989               0.000050436              -0.001233535               0.999999989               0.000038366              -0.001242972               0.999999989               0.000032018              -0.001251623               0.999999989               0.000028623              -0.001263458               0.999999989               0.000026454              -0.001279332               0.999999989               0.000024383              -0.001299042               0.999999989               0.000022035              -0.001321971               0.999999989               0.000018915              -0.001347625               0.999999989               0.000014845              -0.001375406               0.999999989               0.000009700              -0.001404752               0.999999989               0.000003087              -0.001435260               0.999999989              -0.000005419              -0.001466544               0.999999989              -0.000016709              -0.001497987               0.999999989              -0.000031559              -0.001528971               0.999999989              -0.000051039              -0.001558787               0.999999989              -0.000076261              -0.001586707               0.999999989              -0.000000000              -0.001216668               0.999999989              -0.000000000              -0.001244384               0.999999989              -0.000000000              -0.001256367               0.999999989              -0.000000000              -0.001266583               0.999999989              -0.000000000              -0.001279538               0.999999989               0.000000000              -0.001296210               0.999999989               0.000000000              -0.001316575               0.999999989               0.000000000              -0.001340232               0.999999989              -0.000000000              -0.001366645               0.999999989               0.000000000              -0.001395365               0.999999989              -0.000000000              -0.001426003               0.999999989              -0.000000000              -0.001458142               0.999999989              -0.000000000              -0.001491425               0.999999989              -0.000000000              -0.001525227               0.999999989              -0.000000000              -0.001558860               0.999999989              -0.000000000              -0.001591432               0.999999989               0.000000000              -0.001621801               0.999999989               0.000797094               0.000000000               0.999999989               0.000840891              -0.000000000               0.999999989               0.000859338              -0.000000000               0.999999989               0.000869630              -0.000000000               0.999999989               0.000877838               0.000000000               0.999999989               0.000886179               0.000000000               0.999999989               0.000895244              -0.000000000               0.999999989               0.000905083              -0.000000000               0.999999989               0.000915264               0.000000000               0.999999989               0.000925649              -0.000000000               0.999999989               0.000936118               0.000000000               0.999999989               0.000946405               0.000000000               0.999999989               0.000956104               0.000000000               0.999999989               0.000964784              -0.000000000               0.999999989               0.000972058              -0.000000000               0.999999989               0.000977421               0.000000000               0.999999989               0.000980186               0.000000000               0.999999989               0.000792566               0.000114746               0.999999989               0.000832645               0.000090818               0.999999989               0.000848719               0.000079692               0.999999989               0.000857389               0.000074823               0.999999989               0.000864512               0.000073029               0.999999989               0.000872059               0.000072733               0.999999989               0.000880378               0.000072928               0.999999989               0.000889404               0.000072929               0.999999989               0.000898809               0.000072256               0.999999989               0.000908295               0.000070729               0.999999989               0.000917618               0.000068162               0.999999989               0.000926458               0.000064208               0.999999989               0.000934444               0.000058520               0.999999989               0.000941242               0.000050737               0.999999989               0.000946445               0.000040328               0.999999989               0.000949641               0.000026564               0.999999989               0.000950178               0.000008249               0.999999989               0.000779173               0.000228442               0.999999989               0.000808377               0.000181359               0.999999989               0.000817721               0.000160279               0.999999989               0.000822173               0.000151391               0.999999989               0.000826469               0.000148582               0.999999989               0.000831778               0.000148432               0.999999989               0.000838047               0.000149043               0.999999989               0.000844910               0.000149148               0.999999989               0.000851872               0.000147912               0.999999989               0.000858542               0.000144973               0.999999989               0.000864589               0.000139780               0.999999989               0.000869552               0.000131825               0.999999989               0.000873107               0.000120719               0.999999989               0.000874942               0.000105782               0.999999989               0.000874622               0.000086018               0.999999989               0.000871792               0.000060332               0.999999989               0.000866231               0.000027474               0.999999989               0.000757372               0.000340083               0.999999989               0.000769499               0.000271425               0.999999989               0.000769110               0.000242476               0.999999989               0.000767966               0.000231285               0.999999989               0.000768561               0.000228460               0.999999989               0.000770844               0.000229016               0.999999989               0.000774160               0.000230376               0.999999989               0.000777921               0.000230727               0.999999989               0.000781333               0.000228874               0.999999989               0.000783752               0.000224513               0.999999989               0.000784733               0.000216830               0.999999989               0.000783857               0.000205176               0.999999989               0.000780770               0.000189083               0.999999989               0.000775082               0.000167777               0.999999989               0.000766503               0.000140181               0.999999989               0.000755054               0.000105739               0.999999989               0.000741157               0.000063866               0.999999989               0.000727664               0.000448693               0.999999989               0.000718001               0.000361006               0.999999989               0.000706781               0.000326688               0.999999989               0.000699897               0.000315065               0.999999989               0.000696811               0.000313169               0.999999989               0.000696091               0.000314976               0.999999989               0.000696288               0.000317221               0.999999989               0.000696372               0.000317827               0.999999989               0.000695332               0.000315487               0.999999989               0.000692360               0.000309696               0.999999989               0.000686859               0.000299586               0.999999989               0.000678458               0.000284538               0.999999989               0.000666707               0.000264074               0.999999989               0.000651524               0.000237590               0.999999989               0.000633066               0.000204733               0.999999989               0.000611958               0.000165490               0.999999989               0.000589203               0.000120788               0.999999989               0.000690613               0.000553327               0.999999989               0.000656486               0.000450166               0.999999989               0.000635155               0.000413048               0.999999989               0.000623701               0.000402342               0.999999989               0.000617934               0.000402064               0.999999989               0.000614670               0.000405225               0.999999989               0.000611833               0.000408455               0.999999989               0.000607974               0.000409310               0.999999989               0.000601750               0.000406359               0.999999989               0.000592364               0.000399059               0.999999989               0.000579225               0.000386582               0.999999989               0.000561955               0.000368389               0.999999989               0.000540583               0.000344230               0.999999989               0.000515379               0.000314017               0.999999989               0.000487049               0.000278212               0.999999989               0.000456644               0.000237821               0.999999989               0.000425281               0.000194549               0.999999989               0.000646835               0.000653115               0.999999989               0.000587958               0.000538984               0.999999989               0.000558768               0.000501247               0.999999989               0.000544823               0.000492149               0.999999989               0.000537700               0.000493607               0.999999989               0.000532499               0.000497948               0.999999989               0.000526749               0.000501996               0.999999989               0.000518496               0.000503089               0.999999989               0.000506313               0.000499448               0.999999989               0.000489468               0.000490499               0.999999989               0.000467586               0.000475672               0.999999989               0.000440606               0.000454781               0.999999989               0.000408947               0.000428035               0.999999989               0.000373399               0.000395813               0.999999989               0.000335164               0.000359327               0.999999989               0.000295289               0.000320130               0.999999989               0.000254919               0.000279870               0.999999989               0.000597310               0.000746994               0.999999989               0.000515534               0.000627336               0.999999989               0.000481772               0.000590530               0.999999989               0.000467767               0.000583010               0.999999989               0.000460305               0.000585919               0.999999989               0.000453643               0.000591233               0.999999989               0.000444756               0.000595896               0.999999989               0.000431442               0.000596882               0.999999989               0.000412350               0.000592273               0.999999989               0.000386885               0.000581823               0.999999989               0.000355058               0.000564982               0.999999989               0.000317193               0.000542391               0.999999989               0.000274218               0.000514562               0.999999989               0.000227458               0.000482629               0.999999989               0.000178431               0.000448017               0.999999989               0.000128431               0.000412193               0.999999989               0.000078655               0.000376842               0.999999989               0.000543453               0.000833329               0.999999989               0.000441565               0.000715221               0.999999989               0.000408091               0.000679599               0.999999989               0.000395710               0.000673082               0.999999989               0.000388710               0.000677010               0.999999989               0.000380524               0.000683208               0.999999989               0.000368049               0.000688081               0.999999989               0.000348713               0.000688660               0.999999989               0.000321329               0.000683221               0.999999989               0.000285909               0.000671470               0.999999989               0.000242666               0.000653493               0.999999989               0.000192461               0.000630269               0.999999989               0.000137004               0.000603374               0.999999989               0.000078137               0.000574055               0.999999989               0.000017661               0.000543940               0.999999989              -0.000042918               0.000514311               0.999999989              -0.000102812               0.000485767               0.999999989               0.000487560               0.000915324               0.999999989               0.000379384               0.000814473               0.999999989               0.000343619               0.000776016               0.999999989               0.000330755               0.000765391               0.999999989               0.000324528               0.000766860               0.999999989               0.000317900               0.000772745               0.999999989               0.000307940               0.000779329               0.999999989               0.000292178               0.000784228               0.999999989               0.000269473               0.000785412               0.999999989               0.000239440               0.000782029               0.999999989               0.000201743               0.000773892               0.999999989               0.000156414               0.000761344               0.999999989               0.000104776               0.000745099               0.999999989               0.000048268               0.000726477               0.999999989              -0.000011668               0.000706677               0.999999989              -0.000073127               0.000686886               0.999999989              -0.000135010               0.000667916               0.999999989               0.000426583               0.000990340               0.999999989               0.000319391               0.000910969               0.999999989               0.000281638               0.000875317               0.999999989               0.000267565               0.000862924               0.999999989               0.000261253               0.000862851               0.999999989               0.000255621               0.000868769               0.999999989               0.000247545               0.000876952               0.999999989               0.000234982               0.000885064               0.999999989               0.000216727               0.000891536               0.999999989               0.000191739               0.000895239               0.999999989               0.000159633               0.000895667               0.999999989               0.000120238               0.000892497               0.999999989               0.000073846               0.000886047               0.999999989               0.000021189               0.000877060               0.999999989              -0.000036254               0.000866715               0.999999989              -0.000096913               0.000856044               0.999999989              -0.000158988               0.000845890               0.999999989               0.000361709               0.001056512               0.999999989               0.000261698               0.001001730               0.999999989               0.000223603               0.000972978               0.999999989               0.000208369               0.000961864               0.999999989               0.000201290               0.000961879               0.999999989               0.000196026               0.000968542               0.999999989               0.000189473               0.000978554               0.999999989               0.000179512               0.000989762               0.999999989               0.000164922               0.001000867               0.999999989               0.000144619               0.001010727               0.999999989               0.000118139               0.001018527               0.999999989               0.000085055               0.001023732               0.999999989               0.000045085               0.001026234               0.999999989              -0.000001819               0.001026275               0.999999989              -0.000055135               0.001024583               0.999999989              -0.000113602               0.001022117               0.999999989              -0.000175654               0.001020051               0.999999989               0.000293544               0.001112585               0.999999989               0.000206415               0.001082850               0.999999989               0.000170394               0.001063986               0.999999989               0.000154757               0.001056858               0.999999989               0.000146968               0.001058834               0.999999989               0.000141768               0.001067156               0.999999989               0.000136330               0.001079387               0.999999989               0.000128429               0.001093908               0.999999989               0.000116880               0.001109414               0.999999989               0.000101001               0.001124805               0.999999989               0.000079961               0.001139272               0.999999989               0.000053293               0.001152245               0.999999989               0.000020500               0.001163370               0.999999989              -0.000019352               0.001172407               0.999999989              -0.000066658               0.001179548               0.999999989              -0.000121138               0.001185504               0.999999989              -0.000181984               0.001191113               0.999999989               0.000222642               0.001157464               0.999999989               0.000153111               0.001150687               0.999999989               0.000122212               0.001142839               0.999999989               0.000107722               0.001141334               0.999999989               0.000100106               0.001146625               0.999999989               0.000095223               0.001157422               0.999999989               0.000090465               0.001172434               0.999999989               0.000084315               0.001190326               0.999999989               0.000075589               0.001210059               0.999999989               0.000063757               0.001230621               0.999999989               0.000048043               0.001251232               0.999999989               0.000028042               0.001271326               0.999999989               0.000002871               0.001290396               0.999999989              -0.000028691               0.001308140               0.999999989              -0.000067757               0.001324325               0.999999989              -0.000114996               0.001339147               0.999999989              -0.000170939               0.001352989               0.999999989               0.000149619               0.001190145               0.999999989               0.000101298               0.001201797               0.999999989               0.000078579               0.001204071               0.999999989               0.000067146               0.001208424               0.999999989               0.000061026               0.001217434               0.999999989               0.000057144               0.001231013               0.999999989               0.000053437               0.001248688               0.999999989               0.000049040               0.001269550               0.999999989               0.000043082               0.001292817               0.999999989               0.000035098               0.001317733               0.999999989               0.000024665               0.001343591               0.999999989               0.000011427               0.001369801               0.999999989              -0.000005581               0.001395957               0.999999989              -0.000027627               0.001421589               0.999999989              -0.000055856               0.001446222               0.999999989              -0.000091516               0.001469549               0.999999989              -0.000135909               0.001491362               0.999999989               0.000075182               0.001209965               0.999999989               0.000050436               0.001233535               0.999999989               0.000038366               0.001242972               0.999999989               0.000032018               0.001251623               0.999999989               0.000028623               0.001263458               0.999999989               0.000026454               0.001279332               0.999999989               0.000024383               0.001299042               0.999999989               0.000022035               0.001321971               0.999999989               0.000018915               0.001347625               0.999999989               0.000014845               0.001375406               0.999999989               0.000009700               0.001404752               0.999999989               0.000003087               0.001435260               0.999999989              -0.000005419               0.001466544               0.999999989              -0.000016709               0.001497987               0.999999989              -0.000031559               0.001528971               0.999999989              -0.000051039               0.001558787               0.999999989              -0.000076261               0.001586707               0.999999989               0.000000000               0.001216668               0.999999989              -0.000000000               0.001244384               0.999999989              -0.000000000               0.001256367               0.999999989              -0.000000000               0.001266583               0.999999989              -0.000000000               0.001279538               0.999999989               0.000000000               0.001296210               0.999999989               0.000000000               0.001316575               0.999999989              -0.000000000               0.001340232               0.999999989               0.000000000               0.001366645               0.999999989              -0.000000000               0.001395365               0.999999989              -0.000000000               0.001426003               0.999999989              -0.000000000               0.001458142               0.999999989               0.000000000               0.001491425               0.999999989               0.000000000               0.001525227               0.999999989               0.000000000               0.001558860               0.999999989              -0.000000000               0.001591432               0.999999989              -0.000000000               0.001621801               0.999999989 </DataArray>
<DataArray type="Float64"                                    Name="defo"                                                      NumberOfComponents=" 3" format="ascii">
             -0.000797094              -0.000000000               0.999999989              -0.000840891               0.000000000               0.999999989              -0.000859338               0.000000000               0.999999989              -0.000869630               0.000000000               0.999999989              -0.000877838              -0.000000000               0.999999989              -0.000886179               0.000000000               0.999999989              -0.000895244               0.000000000               0.999999989              -0.000905083               0.000000000               0.999999989              -0.000915264              -0.000000000               0.999999989              -0.000925649               0.000000000               0.999999989              -0.000936118               0.000000000               0.999999989              -0.000946405               0.000000000               0.999999989              -0.000956104               0.000000000               0.999999989              -0.000964784               0.000000000               0.999999989              -0.000972058               0.000000000               0.999999989              -0.000977421               0.000000000               0.999999989              -0.000980186              -0.000000000               0.999999989              -0.000792566               0.000114746               0.999999989              -0.000832645               0.000090818               0.999999989              -0.000848719               0.000079692               0.999999989              -0.000857389               0.000074823               0.999999989              -0.000864512               0.000073029               0.999999989              -0.000872059               0.000072733               0.999999989              -0.000880378               0.000072928               0.999999989              -0.000889404               0.000072929               0.999999989              -0.000898809               0.000072256               0.999999989              -0.000908295               0.000070729               0.999999989              -0.000917618               0.000068162               0.999999989              -0.000926458               0.000064208               0.999999989              -0.000934444               0.000058520               0.999999989              -0.000941242               0.000050737               0.999999989              -0.000946445               0.000040328               0.999999989              -0.000949641               0.000026564               0.999999989              -0.000950178               0.000008249               0.999999989              -0.000779173               0.000228442               0.999999989              -0.000808377               0.000181359               0.999999989              -0.000817721               0.000160279               0.999999989              -0.000822173               0.000151391               0.999999989              -0.000826469               0.000148582               0.999999989              -0.000831778               0.000148432               0.999999989              -0.000838047               0.000149043               0.999999989              -0.000844910               0.000149148               0.999999989              -0.000851872               0.000147912               0.999999989              -0.000858542               0.000144973               0.999999989              -0.000864589               0.000139780               0.999999989              -0.000869552               0.000131825               0.999999989              -0.000873107               0.000120719               0.999999989              -0.000874942               0.000105782               0.999999989              -0.000874622               0.000086018               0.999999989              -0.000871792               0.000060332               0.999999989              -0.000866231               0.000027474               0.999999989              -0.000757372               0.000340083               0.999999989              -0.000769499               0.000271425               0.999999989              -0.000769110               0.000242476               0.999999989              -0.000767966               0.000231285               0.999999989              -0.000768561               0.000228460               0.999999989              -0.000770844               0.000229016               0.999999989              -0.000774160               0.000230376               0.999999989              -0.000777921               0.000230727               0.999999989              -0.000781333               0.000228874               0.999999989              -0.000783752               0.000224513               0.999999989              -0.000784733               0.000216830               0.999999989              -0.000783857               0.000205176               0.999999989              -0.000780770               0.000189083               0.999999989              -0.000775082               0.000167777               0.999999989              -0.000766503               0.000140181               0.999999989              -0.000755054               0.000105739               0.999999989              -0.000741157               0.000063866               0.999999989              -0.000727664               0.000448693               0.999999989              -0.000718001               0.000361006               0.999999989              -0.000706781               0.000326688               0.999999989              -0.000699897               0.000315065               0.999999989              -0.000696811               0.000313169               0.999999989              -0.000696091               0.000314976               0.999999989              -0.000696288               0.000317221               0.999999989              -0.000696372               0.000317827               0.999999989              -0.000695332               0.000315487               0.999999989              -0.000692360               0.000309696               0.999999989              -0.000686859               0.000299586               0.999999989              -0.000678458               0.000284538               0.999999989              -0.000666707               0.000264074               0.999999989              -0.000651524               0.000237590               0.999999989              -0.000633066               0.000204733               0.999999989              -0.000611958               0.000165490               0.999999989              -0.000589203               0.000120788               0.999999989              -0.000690613               0.000553327               0.999999989              -0.000656486               0.000450166               0.999999989              -0.000635155               0.000413048               0.999999989              -0.000623701               0.000402342               0.999999989              -0.000617934               0.000402064               0.999999989              -0.000614670               0.000405225               0.999999989              -0.000611833               0.000408455               0.999999989              -0.000607974               0.000409310               0.999999989              -0.000601750               0.000406359               0.999999989              -0.000592364               0.000399059               0.999999989              -0.000579225               0.000386582               0.999999989              -0.000561955               0.000368389               0.999999989              -0.000540583               0.000344230               0.999999989              -0.000515379               0.000314017               0.999999989              -0.000487049               0.000278212               0.999999989              -0.000456644               0.000237821               0.999999989              -0.000425281               0.000194549               0.999999989              -0.000646835               0.000653115               0.999999989              -0.000587958               0.000538984               0.999999989              -0.000558768               0.000501247               0.999999989              -0.000544823               0.000492149               0.999999989              -0.000537700               0.000493607               0.999999989              -0.000532499               0.000497948               0.999999989              -0.000526749               0.000501996               0.999999989              -0.000518496               0.000503089               0.999999989              -0.000506313               0.000499448               0.999999989              -0.000489468               0.000490499               0.999999989              -0.000467586               0.000475672               0.999999989              -0.000440606               0.000454781               0.999999989              -0.000408947               0.000428035               0.999999989              -0.000373399               0.000395813               0.999999989              -0.000335164               0.000359327               0.999999989              -0.000295289               0.000320130               0.999999989              -0.000254919               0.000279870               0.999999989              -0.000597310               0.000746994               0.999999989              -0.000515534               0.000627336               0.999999989              -0.000481772               0.000590530               0.999999989              -0.000467767               0.000583010               0.999999989              -0.000460305               0.000585919               0.999999989              -0.000453643               0.000591233               0.999999989              -0.000444756               0.000595896               0.999999989              -0.000431442               0.000596882               0.999999989              -0.000412350               0.000592273               0.999999989              -0.000386885               0.000581823               0.999999989              -0.000355058               0.000564982               0.999999989              -0.000317193               0.000542391               0.999999989              -0.000274218               0.000514562               0.999999989              -0.000227458               0.000482629               0.999999989              -0.000178431               0.000448017               0.999999989              -0.000128431               0.000412193               0.999999989              -0.000078655               0.000376842               0.999999989              -0.000543453               0.000833329               0.999999989              -0.000441565               0.000715221               0.999999989              -0.000408091               0.000679599               0.999999989              -0.000395710               0.000673082               0.999999989              -0.000388710               0.000677010               0.999999989              -0.000380524               0.000683208               0.999999989              -0.000368049               0.000688081               0.999999989              -0.000348713               0.000688660               0.999999989              -0.000321329               0.000683221               0.999999989              -0.000285909               0.000671470               0.999999989              -0.000242666               0.000653493               0.999999989              -0.000192461               0.000630269               0.999999989              -0.000137004               0.000603374               0.999999989              -0.000078137               0.000574055               0.999999989              -0.000017661               0.000543940               0.999999989               0.000042918               0.000514311               0.999999989               0.000102812               0.000485767               0.999999989              -0.000487560               0.000915324               0.999999989              -0.000379384               0.000814473               0.999999989              -0.000343619               0.000776016               0.999999989              -0.000330755               0.000765391               0.999999989              -0.000324528               0.000766860               0.999999989              -0.000317900               0.000772745               0.999999989              -0.000307940               0.000779329               0.999999989              -0.000292178               0.000784228               0.999999989              -0.000269473               0.000785412               0.999999989              -0.000239440               0.000782029               0.999999989              -0.000201743               0.000773892               0.999999989              -0.000156414               0.000761344               0.999999989              -0.000104776               0.000745099               0.999999989              -0.000048268               0.000726477               0.999999989               0.000011668               0.000706677               0.999999989               0.000073127               0.000686886               0.999999989               0.000135010               0.000667916               0.999999989              -0.000426583               0.000990340               0.999999989              -0.000319391               0.000910969               0.999999989              -0.000281638               0.000875317               0.999999989              -0.000267565               0.000862924               0.999999989              -0.000261253               0.000862851               0.999999989              -0.000255621               0.000868769               0.999999989              -0.000247545               0.000876952               0.999999989              -0.000234982               0.000885064               0.999999989              -0.000216727               0.000891536               0.999999989              -0.000191739               0.000895239               0.999999989              -0.000159633               0.000895667               0.999999989              -0.000120238               0.000892497               0.999999989              -0.000073846               0.000886047               0.999999989              -0.000021189               0.000877060               0.999999989               0.000036254               0.000866715               0.999999989               0.000096913               0.000856044               0.999999989               0.000158988               0.000845890               0.999999989              -0.000361709               0.001056512               0.999999989              -0.000261698               0.001001730               0.999999989              -0.000223603               0.000972978               0.999999989              -0.000208369               0.000961864               0.999999989              -0.000201290               0.000961879               0.999999989              -0.000196026               0.000968542               0.999999989              -0.000189473               0.000978554               0.999999989              -0.000179512               0.000989762               0.999999989              -0.000164922               0.001000867               0.999999989              -0.000144619               0.001010727               0.999999989              -0.000118139               0.001018527               0.999999989              -0.000085055               0.001023732               0.999999989              -0.000045085               0.001026234               0.999999989               0.000001819               0.001026275               0.999999989               0.000055135               0.001024583               0.999999989               0.000113602               0.001022117               0.999999989               0.000175654               0.001020051               0.999999989              -0.000293544               0.001112585               0.999999989              -0.000206415               0.001082850               0.999999989              -0.000170394               0.001063986               0.999999989              -0.000154757               0.001056858               0.999999989              -0.000146968               0.001058834               0.999999989              -0.000141768               0.001067156               0.999999989              -0.000136330               0.001079387               0.999999989              -0.000128429               0.001093908               0.999999989              -0.000116880               0.001109414               0.999999989              -0.000101001               0.001124805               0.999999989              -0.000079961               0.001139272               0.999999989              -0.000053293               0.001152245               0.999999989              -0.000020500               0.001163370               0.999999989               0.000019352               0.001172407               0.999999989               0.000066658               0.001179548               0.999999989               0.000121138               0.001185504               0.999999989               0.000181984               0.001191113               0.999999989              -0.000222642               0.001157464               0.999999989              -0.000153111               0.001150687               0.999999989              -0.000122212               0.001142839               0.999999989              -0.000107722               0.001141334               0.999999989              -0.000100106               0.001146625               0.999999989              -0.000095223               0.001157422               0.999999989              -0.000090465               0.001172434               0.999999989              -0.000084315               0.001190326               0.999999989              -0.000075589               0.001210059               0.999999989              -0.000063757               0.001230621               0.999999989              -0.000048043               0.001251232               0.999999989              -0.000028042               0.001271326               0.999999989              -0.000002871               0.001290396               0.999999989               0.000028691               0.001308140               0.999999989               0.000067757               0.001324325               0.999999989               0.000114996               0.001339147               0.999999989               0.000170939               0.001352989               0.999999989              -0.000149619               0.001190145               0.999999989              -0.000101298               0.001201797               0.999999989              -0.000078579               0.001204071               0.999999989              -0.000067146               0.001208424               0.999999989              -0.000061026               0.001217434               0.999999989              -0.000057144               0.001231013               0.999999989              -0.000053437               0.001248688               0.999999989              -0.000049040               0.001269550               0.999999989              -0.000043082               0.001292817               0.999999989              -0.000035098               0.001317733               0.999999989              -0.000024665               0.001343591               0.999999989              -0.000011427               0.001369801               0.999999989               0.000005581               0.001395957               0.999999989               0.000027627               0.001421589               0.999999989               0.000055856               0.001446222               0.999999989               0.000091516               0.001469549               0.999999989               0.000135909               0.001491362               0.999999989              -0.000075182               0.001209965               0.999999989              -0.000050436               0.001233535               0.999999989              -0.000038366               0.001242972               0.999999989              -0.000032018               0.001251623               0.999999989              -0.000028623               0.001263458               0.999999989              -0.000026454               0.001279332               0.999999989              -0.000024383               0.001299042               0.999999989              -0.000022035               0.001321971               0.999999989              -0.000018915               0.001347625               0.999999989              -0.000014845               0.001375406               0.999999989              -0.000009700               0.001404752               0.999999989              -0.000003087               0.001435260               0.999999989               0.000005419               0.001466544               0.999999989               0.000016709               0.001497987               0.999999989               0.000031559               0.001528971               0.999999989               0.000051039               0.001558787               0.999999989               0.000076261               0.001586707               0.999999989               0.000000000               0.001216668               0.999999989              -0.000000000               0.001244384               0.999999989              -0.000000000               0.001256367               0.999999989              -0.000000000               0.001266583               0.999999989              -0.000000000               0.001279538               0.999999989               0.000000000               0.001296210               0.999999989               0.000000000               0.001316575               0.999999989              -0.000000000               0.001340232               0.999999989               0.000000000               0.001366645               0.999999989              -0.000000000               0.001395365               0.999999989              -0.000000000               0.001426003               0.999999989              -0.000000000               0.001458142               0.999999989               0.000000000               0.001491425               0.999999989               0.000000000               0.001525227               0.999999989               0.000000000               0.001558860               0.999999989              -0.000000000               0.001591432               0.999999989              -0.000000000               0.001621801               0.999999989              -0.000797094              -0.000000000               0.999999989              -0.000840891               0.000000000               0.999999989              -0.000859338               0.000000000               0.999999989              -0.000869630               0.000000000               0.999999989              -0.000877838              -0.000000000               0.999999989              -0.000886179               0.000000000               0.999999989              -0.000895244               0.000000000               0.999999989              -0.000905083               0.000000000               0.999999989              -0.000915264              -0.000000000               0.999999989              -0.000925649               0.000000000               0.999999989              -0.000936118               0.000000000               0.999999989              -0.000946405               0.000000000               0.999999989              -0.000956104               0.000000000               0.999999989              -0.000964784               0.000000000               0.999999989              -0.000972058               0.000000000               0.999999989              -0.000977421               0.000000000               0.999999989              -0.000980186              -0.000000000               0.999999989              -0.000792566              -0.000114746               0.999999989              -0.000832645              -0.000090818               0.999999989              -0.000848719              -0.000079692               0.999999989              -0.000857389              -0.000074823               0.999999989              -0.000864512              -0.000073029               0.999999989              -0.000872059              -0.000072733               0.999999989              -0.000880378              -0.000072928               0.999999989              -0.000889404              -0.000072929               0.999999989              -0.000898809              -0.000072256               0.999999989              -0.000908295              -0.000070729               0.999999989              -0.000917618              -0.000068162               0.999999989              -0.000926458              -0.000064208               0.999999989              -0.000934444              -0.000058520               0.999999989              -0.000941242              -0.000050737               0.999999989              -0.000946445              -0.000040328               0.999999989              -0.000949641              -0.000026564               0.999999989              -0.000950178              -0.000008249               0.999999989              -0.000779173              -0.000228442               0.999999989              -0.000808377              -0.000181359               0.999999989              -0.000817721              -0.000160279               0.999999989              -0.000822173              -0.000151391               0.999999989              -0.000826469              -0.000148582               0.999999989              -0.000831778              -0.000148432               0.999999989              -0.000838047              -0.000149043               0.999999989              -0.000844910              -0.000149148               0.999999989              -0.000851872              -0.000147912               0.999999989              -0.000858542              -0.000144973               0.999999989              -0.000864589              -0.000139780               0.999999989              -0.000869552              -0.000131825               0.999999989              -0.000873107              -0.000120719               0.999999989              -0.000874942              -0.000105782               0.999999989              -0.000874622              -0.000086018               0.999999989              -0.000871792              -0.000060332               0.999999989              -0.000866231              -0.000027474               0.999999989              -0.000757372              -0.000340083               0.999999989              -0.000769499              -0.000271425               0.999999989              -0.000769110              -0.000242476               0.999999989              -0.000767966              -0.000231285               0.999999989              -0.000768561              -0.000228460               0.999999989              -0.000770844              -0.000229016               0.999999989              -0.000774160              -0.000230376               0.999999989              -0.000777921              -0.000230727               0.999999989              -0.000781333              -0.000228874               0.999999989              -0.000783752              -0.000224513               0.999999989              -0.000784733              -0.000216830               0.999999989              -0.000783857              -0.000205176               0.999999989              -0.000780770              -0.000189083               0.999999989              -0.000775082              -0.000167777               0.999999989              -0.000766503              -0.000140181               0.999999989              -0.000755054              -0.000105739               0.999999989              -0.000741157              -0.000063866               0.999999989              -0.000727664              -0.000448693               0.999999989              -0.000718001              -0.000361006               0.999999989              -0.000706781              -0.000326688               0.999999989              -0.000699897              -0.000315065               0.999999989              -0.000696811              -0.000313169               0.999999989              -0.000696091              -0.000314976               0.999999989              -0.000696288              -0.000317221               0.999999989              -0.000696372              -0.000317827               0.999999989              -0.000695332              -0.000315487               0.999999989              -0.000692360              -0.000309696               0.999999989              -0.000686859              -0.000299586               0.999999989              -0.000678458              -0.000284538               0.999999989              -0.000666707              -0.000264074               0.999999989              -0.000651524              -0.000237590               0.999999989              -0.000633066              -0.000204733               0.999999989              -0.000611958              -0.000165490               0.999999989              -0.000589203              -0.000120788               0.999999989              -0.000690613              -0.000553327               0.999999989              -0.000656486              -0.000450166               0.999999989              -0.000635155              -0.000413048               0.999999989              -0.000623701              -0.000402342               0.999999989              -0.000617934              -0.000402064               0.999999989              -0.000614670              -0.000405225               0.999999989              -0.000611833              -0.000408455               0.999999989              -0.000607974              -0.000409310               0.999999989              -0.000601750              -0.000406359               0.999999989              -0.000592364              -0.000399059               0.999999989              -0.000579225              -0.000386582               0.999999989              -0.000561955              -0.000368389               0.999999989              -0.000540583              -0.000344230               0.999999989              -0.000515379              -0.000314017               0.999999989              -0.000487049              -0.000278212               0.999999989              -0.000456644              -0.000237821               0.999999989              -0.000425281              -0.000194549               0.999999989              -0.000646835              -0.000653115               0.999999989              -0.000587958              -0.000538984               0.999999989              -0.000558768              -0.000501247               0.999999989              -0.000544823              -0.000492149               0.999999989              -0.000537700              -0.000493607               0.999999989              -0.000532499              -0.000497948               0.999999989              -0.000526749              -0.000501996               0.999999989              -0.000518496              -0.000503089               0.999999989              -0.000506313              -0.000499448               0.999999989              -0.000489468              -0.000490499               0.999999989              -0.000467586              -0.000475672               0.999999989              -0.000440606              -0.000454781               0.999999989              -0.000408947              -0.000428035               0.999999989              -0.000373399              -0.000395813               0.999999989              -0.000335164              -0.000359327               0.999999989              -0.000295289              -0.000320130               0.999999989              -0.000254919              -0.000279870               0.999999989              -0.000597310              -0.000746994               0.999999989              -0.000515534              -0.000627336               0.999999989              -0.000481772              -0.000590530               0.999999989              -0.000467767              -0.000583010               0.999999989              -0.000460305              -0.000585919               0.999999989              -0.000453643              -0.000591233               0.999999989              -0.000444756              -0.000595896               0.999999989              -0.000431442              -0.000596882               0.999999989              -0.000412350              -0.000592273               0.999999989              -0.000386885              -0.000581823               0.999999989              -0.000355058              -0.000564982               0.999999989              -0.000317193              -0.000542391               0.999999989              -0.000274218              -0.000514562               0.999999989              -0.000227458              -0.000482629               0.999999989              -0.000178431              -0.000448017               0.999999989              -0.000128431              -0.000412193               0.999999989              -0.000078655              -0.000376842               0.999999989              -0.000543453              -0.000833329               0.999999989              -0.000441565              -0.000715221               0.999999989              -0.000408091              -0.000679599               0.999999989              -0.000395710              -0.000673082               0.999999989              -0.000388710              -0.000677010               0.999999989              -0.000380524              -0.000683208               0.999999989              -0.000368049              -0.000688081               0.999999989              -0.000348713              -0.000688660               0.999999989              -0.000321329              -0.000683221               0.999999989              -0.000285909              -0.000671470               0.999999989              -0.000242666              -0.000653493               0.999999989              -0.000192461              -0.000630269               0.999999989              -0.000137004              -0.000603374               0.999999989              -0.000078137              -0.000574055               0.999999989              -0.000017661              -0.000543940               0.999999989               0.000042918              -0.000514311               0.999999989               0.000102812              -0.000485767               0.999999989              -0.000487560              -0.000915324               0.999999989              -0.000379384              -0.000814473               0.999999989              -0.000343619              -0.000776016               0.999999989              -0.000330755              -0.000765391               0.999999989              -0.000324528              -0.000766860               0.999999989              -0.000317900              -0.000772745               0.999999989              -0.000307940              -0.000779329               0.999999989              -0.000292178              -0.000784228               0.999999989              -0.000269473              -0.000785412               0.999999989              -0.000239440              -0.000782029               0.999999989              -0.000201743              -0.000773892               0.999999989              -0.000156414              -0.000761344               0.999999989              -0.000104776              -0.000745099               0.999999989              -0.000048268              -0.000726477               0.999999989               0.000011668              -0.000706677               0.999999989               0.000073127              -0.000686886               0.999999989               0.000135010              -0.000667916               0.999999989              -0.000426583              -0.000990340               0.999999989              -0.000319391              -0.000910969               0.999999989              -0.000281638              -0.000875317               0.999999989              -0.000267565              -0.000862924               0.999999989              -0.000261253              -0.000862851               0.999999989              -0.000255621              -0.000868769               0.999999989              -0.000247545              -0.000876952               0.999999989              -0.000234982              -0.000885064               0.999999989              -0.000216727              -0.000891536               0.999999989              -0.000191739              -0.000895239               0.999999989              -0.000159633              -0.000895667               0.999999989              -0.000120238              -0.000892497               0.999999989              -0.000073846              -0.000886047               0.999999989              -0.000021189              -0.000877060               0.999999989               0.000036254              -0.000866715               0.999999989               0.000096913              -0.000856044               0.999999989               0.000158988              -0.000845890               0.999999989              -0.000361709              -0.001056512               0.999999989              -0.000261698              -0.001001730               0.999999989              -0.000223603              -0.000972978               0.999999989              -0.000208369              -0.000961864               0.999999989              -0.000201290              -0.000961879               0.999999989              -0.000196026              -0.000968542               0.999999989              -0.000189473              -0.000978554               0.999999989              -0.000179512              -0.000989762               0.999999989              -0.000164922              -0.001000867               0.999999989              -0.000144619              -0.001010727               0.999999989              -0.000118139              -0.001018527               0.999999989              -0.000085055              -0.001023732               0.999999989              -0.000045085              -0.001026234               0.999999989               0.000001819              -0.001026275               0.999999989               0.000055135              -0.001024583               0.999999989               0.000113602              -0.001022117               0.999999989               0.000175654              -0.001020051               0.999999989              -0.000293544              -0.001112585               0.999999989              -0.000206415              -0.001082850               0.999999989              -0.000170394              -0.001063986               0.999999989              -0.000154757              -0.001056858               0.999999989              -0.000146968              -0.001058834               0.999999989              -0.000141768              -0.001067156               0.999999989              -0.000136330              -0.001079387               0.999999989              -0.000128429              -0.001093908               0.999999989              -0.000116880              -0.001109414               0.999999989              -0.000101001              -0.001124805               0.999999989              -0.000079961              -0.001139272               0.999999989              -0.000053293              -0.001152245               0.999999989              -0.000020500              -0.001163370               0.999999989               0.000019352              -0.001172407               0.999999989               0.000066658              -0.001179548               0.999999989               0.000121138              -0.001185504               0.999999989               0.000181984              -0.001191113               0.999999989              -0.000222642              -0.001157464               0.999999989              -0.000153111              -0.001150687               0.999999989              -0.000122212              -0.001142839               0.999999989              -0.000107722              -0.001141334               0.999999989              -0.000100106              -0.001146625               0.999999989              -0.000095223              -0.001157422               0.999999989              -0.000090465              -0.001172434               0.999999989              -0.000084315              -0.001190326               0.999999989              -0.000075589              -0.001210059               0.999999989              -0.000063757              -0.001230621               0.999999989              -0.000048043              -0.001251232               0.999999989              -0.000028042              -0.001271326               0.999999989              -0.000002871              -0.001290396               0.999999989               0.000028691              -0.001308140               0.999999989               0.000067757              -0.001324325               0.999999989               0.000114996              -0.001339147               0.999999989               0.000170939              -0.001352989               0.999999989              -0.000149619              -0.001190145               0.999999989              -0.000101298              -0.001201797               0.999999989              -0.000078579              -0.001204071               0.999999989              -0.000067146              -0.001208424               0.999999989              -0.000061026              -0.001217434               0.999999989              -0.000057144              -0.001231013               0.999999989              -0.000053437              -0.001248688               0.999999989              -0.000049040              -0.001269550               0.999999989              -0.000043082              -0.001292817               0.999999989              -0.000035098              -0.001317733               0.999999989              -0.000024665              -0.001343591               0.999999989              -0.000011427              -0.001369801               0.999999989               0.000005581              -0.001395957               0.999999989               0.000027627              -0.001421589               0.999999989               0.000055856              -0.001446222               0.999999989               0.000091516              -0.001469549               0.999999989               0.000135909              -0.001491362               0.999999989              -0.000075182              -0.001209965               0.999999989              -0.000050436              -0.001233535               0.999999989              -0.000038366              -0.001242972               0.999999989              -0.000032018              -0.001251623               0.999999989              -0.000028623              -0.001263458               0.999999989              -0.000026454              -0.001279332               0.999999989              -0.000024383              -0.001299042               0.999999989              -0.000022035              -0.001321971               0.999999989              -0.000018915              -0.001347625               0.999999989              -0.000014845              -0.001375406               0.999999989              -0.000009700              -0.001404752               0.999999989              -0.000003087              -0.001435260               0.999999989               0.000005419              -0.001466544               0.999999989               0.000016709              -0.001497987               0.999999989               0.000031559              -0.001528971               0.999999989               0.000051039              -0.001558787               0.999999989               0.000076261              -0.001586707               0.999999989              -0.000000000              -0.001216668               0.999999989              -0.000000000              -0.001244384               0.999999989              -0.000000000              -0.001256367               0.999999989              -0.000000000              -0.001266583               0.999999989              -0.000000000              -0.001279538               0.999999989               0.000000000              -0.001296210               0.999999989               0.000000000              -0.001316575               0.999999989               0.000000000              -0.001340232               0.999999989              -0.000000000              -0.001366645               0.999999989               0.000000000              -0.001395365               0.999999989              -0.000000000              -0.001426003               0.999999989              -0.000000000              -0.001458142               0.999999989              -0.000000000              -0.001491425               0.999999989              -0.000000000              -0.001525227               0.999999989              -0.000000000              -0.001558860               0.999999989              -0.000000000              -0.001591432               0.999999989               0.000000000              -0.001621801               0.999999989               0.000797094               0.000000000               0.999999989               0.000840891              -0.000000000               0.999999989               0.000859338              -0.000000000               0.999999989               0.000869630              -0.000000000               0.999999989               0.000877838               0.000000000               0.999999989               0.000886179               0.000000000               0.999999989               0.000895244              -0.000000000               0.999999989               0.000905083              -0.000000000               0.999999989               0.000915264               0.000000000               0.999999989               0.000925649              -0.000000000               0.999999989               0.000936118               0.000000000               0.999999989               0.000946405               0.000000000               0.999999989               0.000956104               0.000000000               0.999999989               0.000964784              -0.000000000               0.999999989               0.000972058              -0.000000000               0.999999989               0.000977421               0.000000000               0.999999989               0.000980186               0.000000000               0.999999989               0.000792566              -0.000114746               0.999999989               0.000832645              -0.000090818               0.999999989               0.000848719              -0.000079692               0.999999989               0.000857389              -0.000074823               0.999999989               0.000864512              -0.000073029               0.999999989               0.000872059              -0.000072733               0.999999989               0.000880378              -0.000072928               0.999999989               0.000889404              -0.000072929               0.999999989               0.000898809              -0.000072256               0.999999989               0.000908295              -0.000070729               0.999999989               0.000917618              -0.000068162               0.999999989               0.000926458              -0.000064208               0.999999989               0.000934444              -0.000058520               0.999999989               0.000941242              -0.000050737               0.999999989               0.000946445              -0.000040328               0.999999989               0.000949641              -0.000026564               0.999999989               0.000950178              -0.000008249               0.999999989               0.000779173              -0.000228442               0.999999989               0.000808377              -0.000181359               0.999999989               0.000817721              -0.000160279               0.999999989               0.000822173              -0.000151391               0.999999989               0.000826469              -0.000148582               0.999999989               0.000831778              -0.000148432               0.999999989               0.000838047              -0.000149043               0.999999989               0.000844910              -0.000149148               0.999999989               0.000851872              -0.000147912               0.999999989               0.000858542              -0.000144973               0.999999989               0.000864589              -0.000139780               0.999999989               0.000869552              -0.000131825               0.999999989               0.000873107              -0.000120719               0.999999989               0.000874942              -0.000105782               0.999999989               0.000874622              -0.000086018               0.999999989               0.000871792              -0.000060332               0.999999989               0.000866231              -0.000027474               0.999999989               0.000757372              -0.000340083               0.999999989               0.000769499              -0.000271425               0.999999989               0.000769110              -0.000242476               0.999999989               0.000767966              -0.000231285               0.999999989               0.000768561              -0.000228460               0.999999989               0.000770844              -0.000229016               0.999999989               0.000774160              -0.000230376               0.999999989               0.000777921              -0.000230727               0.999999989               0.000781333              -0.000228874               0.999999989               0.000783752              -0.000224513               0.999999989               0.000784733              -0.000216830               0.999999989               0.000783857              -0.000205176               0.999999989               0.000780770              -0.000189083               0.999999989               0.000775082              -0.000167777               0.999999989               0.000766503              -0.000140181               0.999999989               0.000755054              -0.000105739               0.999999989               0.000741157              -0.000063866               0.999999989               0.000727664              -0.000448693               0.999999989               0.000718001              -0.000361006               0.999999989               0.000706781              -0.000326688               0.999999989               0.000699897              -0.000315065               0.999999989               0.000696811              -0.000313169               0.999999989               0.000696091              -0.000314976               0.999999989               0.000696288              -0.000317221               0.999999989               0.000696372              -0.000317827               0.999999989               0.000695332              -0.000315487               0.999999989               0.000692360              -0.000309696               0.999999989               0.000686859              -0.000299586               0.999999989               0.000678458              -0.000284538               0.999999989               0.000666707              -0.000264074               0.999999989               0.000651524              -0.000237590               0.999999989               0.000633066              -0.000204733               0.999999989               0.000611958              -0.000165490               0.999999989               0.000589203              -0.000120788               0.999999989               0.000690613              -0.000553327               0.999999989               0.000656486              -0.000450166               0.999999989               0.000635155              -0.000413048               0.999999989               0.000623701              -0.000402342               0.999999989               0.000617934              -0.000402064               0.999999989               0.000614670              -0.000405225               0.999999989               0.000611833              -0.000408455               0.999999989               0.000607974              -0.000409310               0.999999989               0.000601750              -0.000406359               0.999999989               0.000592364              -0.000399059               0.999999989               0.000579225              -0.000386582               0.999999989               0.000561955              -0.000368389               0.999999989               0.000540583              -0.000344230               0.999999989               0.000515379              -0.000314017               0.999999989               0.000487049              -0.000278212               0.999999989               0.000456644              -0.000237821               0.999999989               0.000425281              -0.000194549               0.999999989               0.000646835              -0.000653115               0.999999989               0.000587958              -0.000538984               0.999999989               0.000558768              -0.000501247               0.999999989               0.000544823              -0.000492149               0.999999989               0.000537700              -0.000493607               0.999999989               0.000532499              -0.000497948               0.999999989               0.000526749              -0.000501996               0.999999989               0.000518496              -0.000503089               0.999999989               0.000506313              -0.000499448               0.999999989               0.000489468              -0.000490499               0.999999989               0.000467586              -0.000475672               0.999999989               0.000440606              -0.000454781               0.999999989               0.000408947              -0.000428035               0.999999989               0.000373399              -0.000395813               0.999999989               0.000335164              -0.000359327               0.999999989               0.000295289              -0.000320130               0.999999989               0.000254919              -0.000279870               0.999999989               0.000597310              -0.000746994               0.999999989               0.000515534              -0.000627336               0.999999989               0.000481772              -0.000590530               0.999999989               0.000467767              -0.000583010               0.999999989               0.000460305              -0.000585919               0.999999989               0.000453643              -0.000591233               0.999999989               0.000444756              -0.000595896               0.999999989               0.000431442              -0.000596882               0.999999989               0.000412350              -0.000592273               0.999999989               0.000386885              -0.000581823               0.999999989               0.000355058              -0.000564982               0.999999989               0.000317193              -0.000542391               0.999999989               0.000274218              -0.000514562               0.999999989               0.000227458              -0.000482629               0.999999989               0.000178431              -0.000448017               0.999999989               0.000128431              -0.000412193               0.999999989               0.000078655              -0.000376842               0.999999989               0.000543453              -0.000833329               0.999999989               0.000441565              -0.000715221               0.999999989               0.000408091              -0.000679599               0.999999989               0.000395710              -0.000673082               0.999999989               0.000388710              -0.000677010               0.999999989               0.000380524              -0.000683208               0.999999989               0.000368049              -0.000688081               0.999999989               0.000348713              -0.000688660               0.999999989               0.000321329              -0.000683221               0.999999989               0.000285909              -0.000671470               0.999999989               0.000242666              -0.000653493               0.999999989               0.000192461              -0.000630269               0.999999989               0.000137004              -0.000603374               0.999999989               0.000078137              -0.000574055               0.999999989               0.000017661              -0.000543940               0.999999989              -0.000042918              -0.000514311               0.999999989              -0.000102812              -0.000485767               0.999999989               0.000487560              -0.000915324               0.999999989               0.000379384              -0.000814473               0.999999989               0.000343619              -0.000776016               0.999999989               0.000330755              -0.000765391               0.999999989               0.000324528              -0.000766860               0.999999989               0.000317900              -0.000772745               0.999999989               0.000307940              -0.000779329               0.999999989               0.000292178              -0.000784228               0.999999989               0.000269473              -0.000785412               0.999999989               0.000239440              -0.000782029               0.999999989               0.000201743              -0.000773892               0.999999989               0.000156414              -0.000761344               0.999999989               0.000104776              -0.000745099               0.999999989               0.000048268              -0.000726477               0.999999989              -0.000011668              -0.000706677               0.999999989              -0.000073127              -0.000686886               0.999999989              -0.000135010              -0.000667916               0.999999989               0.000426583              -0.000990340               0.999999989               0.000319391              -0.000910969               0.999999989               0.000281638              -0.000875317               0.999999989               0.000267565              -0.000862924               0.999999989               0.000261253              -0.000862851               0.999999989               0.000255621              -0.000868769               0.999999989               0.000247545              -0.000876952               0.999999989               0.000234982              -0.000885064               0.999999989               0.000216727              -0.000891536               0.999999989               0.000191739              -0.000895239               0.999999989               0.000159633              -0.000895667               0.999999989               0.000120238              -0.000892497               0.999999989               0.000073846              -0.000886047               0.999999989               0.000021189              -0.000877060               0.999999989              -0.000036254              -0.000866715               0.999999989              -0.000096913              -0.000856044               0.999999989              -0.000158988              -0.000845890               0.999999989               0.000361709              -0.001056512               0.999999989               0.000261698              -0.001001730               0.999999989               0.000223603              -0.000972978               0.999999989               0.000208369              -0.000961864               0.999999989               0.000201290              -0.000961879               0.999999989               0.000196026              -0.000968542               0.999999989               0.000189473              -0.000978554               0.999999989               0.000179512              -0.000989762               0.999999989               0.000164922              -0.001000867               0.999999989               0.000144619              -0.001010727               0.999999989               0.000118139              -0.001018527               0.999999989               0.000085055              -0.001023732               0.999999989               0.000045085              -0.001026234               0.999999989              -0.000001819              -0.001026275               0.999999989              -0.000055135              -0.001024583               0.999999989              -0.000113602              -0.001022117               0.999999989              -0.000175654              -0.001020051               0.999999989               0.000293544              -0.001112585               0.999999989               0.000206415              -0.001082850               0.999999989               0.000170394              -0.001063986               0.999999989               0.000154757              -0.001056858               0.999999989               0.000146968              -0.001058834               0.999999989               0.000141768              -0.001067156               0.999999989               0.000136330              -0.001079387               0.999999989               0.000128429              -0.001093908               0.999999989               0.000116880              -0.001109414               0.999999989               0.000101001              -0.001124805               0.999999989               0.000079961              -0.001139272               0.999999989               0.000053293              -0.001152245               0.999999989               0.000020500              -0.001163370               0.999999989              -0.000019352              -0.001172407               0.999999989              -0.000066658              -0.001179548               0.999999989              -0.000121138              -0.001185504               0.999999989              -0.000181984              -0.001191113               0.999999989               0.000222642              -0.001157464               0.999999989               0.000153111              -0.001150687               0.999999989               0.000122212              -0.001142839               0.999999989               0.000107722              -0.001141334               0.999999989               0.000100106              -0.001146625               0.999999989               0.000095223              -0.001157422               0.999999989               0.000090465              -0.001172434               0.999999989               0.000084315              -0.001190326               0.999999989               0.000075589              -0.001210059               0.999999989               0.000063757              -0.001230621               0.999999989               0.000048043              -0.001251232               0.999999989               0.000028042              -0.001271326               0.999999989               0.000002871              -0.001290396               0.999999989              -0.000028691              -0.001308140               0.999999989              -0.000067757              -0.001324325               0.999999989              -0.000114996              -0.001339147               0.999999989              -0.000170939              -0.001352989               0.999999989               0.000149619              -0.001190145               0.999999989               0.000101298              -0.001201797               0.999999989               0.000078579              -0.001204071               0.999999989               0.000067146              -0.001208424               0.999999989               0.000061026              -0.001217434               0.999999989               0.000057144              -0.001231013               0.999999989               0.000053437              -0.001248688               0.999999989               0.000049040              -0.001269550               0.999999989               0.000043082              -0.001292817               0.999999989               0.000035098              -0.001317733               0.999999989               0.000024665              -0.001343591               0.999999989               0.000011427              -0.001369801               0.999999989              -0.000005581              -0.001395957               0.999999989              -0.000027627              -0.001421589               0.999999989              -0.000055856              -0.001446222               0.999999989              -0.000091516              -0.001469549               0.999999989              -0.000135909              -0.001491362               0.999999989               0.000075182              -0.001209965               0.999999989               0.000050436              -0.001233535               0.999999989               0.000038366              -0.001242972               0.999999989               0.000032018              -0.001251623               0.999999989               0.000028623              -0.001263458               0.999999989               0.000026454              -0.001279332               0.999999989               0.000024383              -0.001299042               0.999999989               0.000022035              -0.001321971               0.999999989               0.000018915              -0.001347625               0.999999989               0.000014845              -0.001375406               0.999999989               0.000009700              -0.001404752               0.999999989               0.000003087              -0.001435260               0.999999989              -0.000005419              -0.001466544               0.999999989              -0.000016709              -0.001497987               0.999999989              -0.000031559              -0.001528971               0.999999989              -0.000051039              -0.001558787               0.999999989              -0.000076261              -0.001586707               0.999999989              -0.000000000              -0.001216668               0.999999989              -0.000000000              -0.001244384               0.999999989              -0.000000000              -0.001256367               0.999999989              -0.000000000              -0.001266583               0.999999989              -0.000000000              -0.001279538               0.999999989               0.000000000              -0.001296210               0.999999989               0.000000000              -0.001316575               0.999999989               0.000000000              -0.001340232               0.999999989              -0.000000000              -0.001366645               0.999999989               0.000000000              -0.001395365               0.999999989              -0.000000000              -0.001426003               0.999999989              -0.000000000              -0.001458142               0.999999989              -0.000000000              -0.001491425               0.999999989              -0.000000000              -0.001525227               0.999999989              -0.000000000              -0.001558860               0.999999989              -0.000000000              -0.001591432               0.999999989               0.000000000              -0.001621801               0.999999989               0.000797094               0.000000000               0.999999989               0.000840891              -0.000000000               0.999999989               0.000859338              -0.000000000               0.999999989               0.000869630              -0.000000000               0.999999989               0.000877838               0.000000000               0.999999989               0.000886179               0.000000000               0.999999989               0.000895244              -0.000000000               0.999999989               0.000905083              -0.000000000               0.999999989               0.000915264               0.000000000               0.999999989               0.000925649              -0.000000000               0.999999989               0.000936118               0.000000000               0.999999989               0.000946405               0.000000000               0.999999989               0.000956104               0.000000000               0.999999989               0.000964784              -0.000000000               0.999999989               0.000972058              -0.000000000               0.999999989               0.000977421               0.000000000               0.999999989               0.000980186               0.000000000               0.999999989               0.000792566               0.000114746               0.999999989               0.000832645               0.000090818               0.999999989               0.000848719               0.000079692               0.999999989               0.000857389               0.000074823               0.999999989               0.000864512               0.000073029               0.999999989               0.000872059               0.000072733               0.999999989               0.000880378               0.000072928               0.999999989               0.000889404               0.000072929               0.999999989               0.000898809               0.000072256               0.999999989               0.000908295               0.000070729               0.999999989               0.000917618               0.000068162               0.999999989               0.000926458               0.000064208               0.999999989               0.000934444               0.000058520               0.999999989               0.000941242               0.000050737               0.999999989               0.000946445               0.000040328               0.999999989               0.000949641               0.000026564               0.999999989               0.000950178               0.000008249               0.999999989               0.000779173               0.000228442               0.999999989               0.000808377               0.000181359               0.999999989               0.000817721               0.000160279               0.999999989               0.000822173               0.000151391               0.999999989               0.000826469               0.000148582               0.999999989               0.000831778               0.000148432               0.999999989               0.000838047               0.000149043               0.999999989               0.000844910               0.000149148               0.999999989               0.000851872               0.000147912               0.999999989               0.000858542               0.000144973               0.999999989               0.000864589               0.000139780               0.999999989               0.000869552               0.000131825               0.999999989               0.000873107               0.000120719               0.999999989               0.000874942               0.000105782               0.999999989               0.000874622               0.000086018               0.999999989               0.000871792               0.000060332               0.999999989               0.000866231               0.000027474               0.999999989               0.000757372               0.000340083               0.999999989               0.000769499               0.000271425               0.999999989               0.000769110               0.000242476               0.999999989               0.000767966               0.000231285               0.999999989               0.000768561               0.000228460               0.999999989               0.000770844               0.000229016               0.999999989               0.000774160               0.000230376               0.999999989               0.000777921               0.000230727               0.999999989               0.000781333               0.000228874               0.999999989               0.000783752               0.000224513               0.999999989               0.000784733               0.000216830               0.999999989               0.000783857               0.000205176               0.999999989               0.000780770               0.000189083               0.999999989               0.000775082               0.000167777               0.999999989               0.000766503               0.000140181               0.999999989               0.000755054               0.000105739               0.999999989               0.000741157               0.000063866               0.999999989               0.000727664               0.000448693               0.999999989               0.000718001               0.000361006               0.999999989               0.000706781               0.000326688               0.999999989               0.000699897               0.000315065               0.999999989               0.000696811               0.000313169               0.999999989               0.000696091               0.000314976               0.999999989               0.000696288               0.000317221               0.999999989               0.000696372               0.000317827               0.999999989               0.000695332               0.000315487               0.999999989               0.000692360               0.000309696               0.999999989               0.000686859               0.000299586               0.999999989               0.000678458               0.000284538               0.999999989               0.000666707               0.000264074               0.999999989               0.000651524               0.000237590               0.999999989               0.000633066               0.000204733               0.999999989               0.000611958               0.000165490               0.999999989               0.000589203               0.000120788               0.999999989               0.000690613               0.000553327               0.999999989               0.000656486               0.000450166               0.999999989               0.000635155               0.000413048               0.999999989               0.000623701               0.000402342               0.999999989               0.000617934               0.000402064               0.999999989               0.000614670               0.000405225               0.999999989               0.000611833               0.000408455               0.999999989               0.000607974               0.000409310               0.999999989               0.000601750               0.000406359               0.999999989               0.000592364               0.000399059               0.999999989               0.000579225               0.000386582               0.999999989               0.000561955               0.000368389               0.999999989               0.000540583               0.000344230               0.999999989               0.000515379               0.000314017               0.999999989               0.000487049               0.000278212               0.999999989               0.000456644               0.000237821               0.999999989               0.000425281               0.000194549               0.999999989               0.000646835               0.000653115               0.999999989               0.000587958               0.000538984               0.999999989               0.000558768               0.000501247               0.999999989               0.000544823               0.000492149               0.999999989               0.000537700               0.000493607               0.999999989               0.000532499               0.000497948               0.999999989               0.000526749               0.000501996               0.999999989               0.000518496               0.000503089               0.999999989               0.000506313               0.000499448               0.999999989               0.000489468               0.000490499               0.999999989               0.000467586               0.000475672               0.999999989               0.000440606               0.000454781               0.999999989               0.000408947               0.000428035               0.999999989               0.000373399               0.000395813               0.999999989               0.000335164               0.000359327               0.999999989               0.000295289               0.000320130               0.999999989               0.000254919               0.000279870               0.999999989               0.000597310               0.000746994               0.999999989               0.000515534               0.000627336               0.999999989               0.000481772               0.000590530               0.999999989               0.000467767               0.000583010               0.999999989               0.000460305               0.000585919               0.999999989               0.000453643               0.000591233               0.999999989               0.000444756               0.000595896               0.999999989               0.000431442               0.000596882               0.999999989               0.000412350               0.000592273               0.999999989               0.000386885               0.000581823               0.999999989               0.000355058               0.000564982               0.999999989               0.000317193               0.000542391               0.999999989               0.000274218               0.000514562               0.999999989               0.000227458               0.000482629               0.999999989               0.000178431               0.000448017               0.999999989               0.000128431               0.000412193               0.999999989               0.000078655               0.000376842               0.999999989               0.000543453               0.000833329               0.999999989               0.000441565               0.000715221               0.999999989               0.000408091               0.000679599               0.999999989               0.000395710               0.000673082               0.999999989               0.000388710               0.000677010               0.999999989               0.000380524               0.000683208               0.999999989               0.000368049               0.000688081               0.999999989               0.000348713               0.000688660               0.999999989               0.000321329               0.000683221               0.999999989               0.000285909               0.000671470               0.999999989               0.000242666               0.000653493               0.999999989               0.000192461               0.000630269               0.999999989               0.000137004               0.000603374               0.999999989               0.000078137               0.000574055               0.999999989               0.000017661               0.000543940               0.999999989              -0.000042918               0.000514311               0.999999989              -0.000102812               0.000485767               0.999999989               0.000487560               0.000915324               0.999999989               0.000379384               0.000814473               0.999999989               0.000343619               0.000776016               0.999999989               0.000330755               0.000765391               0.999999989               0.000324528               0.000766860               0.999999989               0.000317900               0.000772745               0.999999989               0.000307940               0.000779329               0.999999989               0.000292178               0.000784228               0.999999989               0.000269473               0.000785412               0.999999989               0.000239440               0.000782029               0.999999989               0.000201743               0.000773892               0.999999989               0.000156414               0.000761344               0.999999989               0.000104776               0.000745099               0.999999989               0.000048268               0.000726477               0.999999989              -0.000011668               0.000706677               0.999999989              -0.000073127               0.000686886               0.999999989              -0.000135010               0.000667916               0.999999989               0.000426583               0.000990340               0.999999989               0.000319391               0.000910969               0.999999989               0.000281638               0.000875317               0.999999989               0.000267565               0.000862924               0.999999989               0.000261253               0.000862851               0.999999989               0.000255621               0.000868769               0.999999989               0.000247545               0.000876952               0.999999989               0.000234982               0.000885064               0.999999989               0.000216727               0.000891536               0.999999989               0.000191739               0.000895239               0.999999989               0.000159633               0.000895667               0.999999989               0.000120238               0.000892497               0.999999989               0.000073846               0.000886047               0.999999989               0.000021189               0.000877060               0.999999989              -0.000036254               0.000866715               0.999999989              -0.000096913               0.000856044               0.999999989              -0.000158988               0.000845890               0.999999989               0.000361709               0.001056512               0.999999989               0.000261698               0.001001730               0.999999989               0.000223603               0.000972978               0.999999989               0.000208369               0.000961864               0.999999989               0.000201290               0.000961879               0.999999989               0.000196026               0.000968542               0.999999989               0.000189473               0.000978554               0.999999989               0.000179512               0.000989762               0.999999989               0.000164922               0.001000867               0.999999989               0.000144619               0.001010727               0.999999989               0.000118139               0.001018527               0.999999989               0.000085055               0.001023732               0.999999989               0.000045085               0.001026234               0.999999989              -0.000001819               0.001026275               0.999999989              -0.000055135               0.001024583               0.999999989              -0.000113602               0.001022117               0.999999989              -0.000175654               0.001020051               0.999999989               0.000293544               0.001112585               0.999999989               0.000206415               0.001082850               0.999999989               0.000170394               0.001063986               0.999999989               0.000154757               0.001056858               0.999999989               0.000146968               0.001058834               0.999999989               0.000141768               0.001067156               0.999999989               0.000136330               0.001079387               0.999999989               0.000128429               0.001093908               0.999999989               0.000116880               0.001109414               0.999999989               0.000101001               0.001124805               0.999999989               0.000079961               0.001139272               0.999999989               0.000053293               0.001152245               0.999999989               0.000020500               0.001163370               0.999999989              -0.000019352               0.001172407               0.999999989              -0.000066658               0.001179548               0.999999989              -0.000121138               0.001185504               0.999999989              -0.000181984               0.001191113               0.999999989               0.000222642               0.001157464               0.999999989               0.000153111               0.001150687               0.999999989               0.000122212               0.001142839               0.999999989               0.000107722               0.001141334               0.999999989               0.000100106               0.001146625               0.999999989               0.000095223               0.001157422               0.999999989               0.000090465               0.001172434               0.999999989               0.000084315               0.001190326               0.999999989               0.000075589               0.001210059               0.999999989               0.000063757               0.001230621               0.999999989               0.000048043               0.001251232               0.999999989               0.000028042               0.001271326               0.999999989               0.000002871               0.001290396               0.999999989              -0.000028691               0.001308140               0.999999989              -0.000067757               0.001324325               0.999999989              -0.000114996               0.001339147               0.999999989              -0.000170939               0.001352989               0.999999989               0.000149619               0.001190145               0.999999989               0.000101298               0.001201797               0.999999989               0.000078579               0.001204071               0.999999989               0.000067146               0.001208424               0.999999989               0.000061026               0.001217434               0.999999989               0.000057144               0.001231013               0.999999989               0.000053437               0.001248688               0.999999989               0.000049040               0.001269550               0.999999989               0.000043082               0.001292817               0.999999989               0.000035098               0.001317733               0.999999989               0.000024665               0.001343591               0.999999989               0.000011427               0.001369801               0.999999989              -0.000005581               0.001395957               0.999999989              -0.000027627               0.001421589               0.999999989              -0.000055856               0.001446222               0.999999989              -0.000091516               0.001469549               0.999999989              -0.000135909               0.001491362               0.999999989               0.000075182               0.001209965               0.999999989               0.000050436               0.001233535               0.999999989               0.000038366               0.001242972               0.999999989               0.000032018               0.001251623               0.999999989               0.000028623               0.001263458               0.999999989               0.000026454               0.001279332               0.999999989               0.000024383               0.001299042               0.999999989               0.000022035               0.001321971               0.999999989               0.000018915               0.001347625               0.999999989               0.000014845               0.001375406               0.999999989               0.000009700               0.001404752               0.999999989               0.000003087               0.001435260               0.999999989              -0.000005419               0.001466544               0.999999989              -0.000016709               0.001497987               0.999999989              -0.000031559               0.001528971               0.999999989              -0.000051039               0.001558787               0.999999989              -0.000076261               0.001586707               0.999999989               0.000000000               0.001216668               0.999999989              -0.000000000               0.001244384               0.999999989              -0.000000000               0.001256367               0.999999989              -0.000000000               0.001266583               0.999999989              -0.000000000               0.001279538               0.999999989               0.000000000               0.001296210               0.999999989               0.000000000               0.001316575               0.999999989              -0.000000000               0.001340232               0.999999989               0.000000000               0.001366645               0.999999989              -0.000000000               0.001395365               0.999999989              -0.000000000               0.001426003               0.999999989              -0.000000000               0.001458142               0.999999989               0.000000000               0.001491425               0.999999989               0.000000000               0.001525227               0.999999989               0.000000000               0.001558860               0.999999989              -0.000000000               0.001591432               0.999999989              -0.000000000               0.001621801               0.999999989 </DataArray>
<DataArray type="Float64"                                    Name="stress"                                                      NumberOfComponents="10" format="ascii">
              0.001952791               0.020810075               0.000000000              -0.001868958               0.007559608               0.005690650               0.000000000               0.000000000               0.000000000               0.000000000               0.001852455               0.015935753              -0.000000000              -0.001297295               0.005744296               0.004447001               0.000000000               0.000000000               0.000000000               0.000000000               0.002357153               0.011964036               0.000000000              -0.000611571               0.004191829               0.003580258               0.000000000               0.000000000               0.000000000               0.000000000               0.002155565               0.009710571               0.000000000              -0.000405484               0.003371986               0.002966502               0.000000000               0.000000000               0.000000000               0.000000000               0.001771293               0.008275822              -0.000000000              -0.000370242               0.002881994               0.002511752               0.000000000               0.000000000               0.000000000               0.000000000               0.001381971               0.007270541               0.000000000              -0.000390577               0.002553682               0.002163105               0.000000000               0.000000000               0.000000000               0.000000000               0.001040773               0.006497979               0.000000000              -0.000421957               0.002306624               0.001884667               0.000000000               0.000000000               0.000000000               0.000000000               0.000764110               0.005851703              -0.000000000              -0.000444920               0.002098855               0.001653935               0.000000000               0.000000000               0.000000000               0.000000000               0.000542360               0.005270227               0.000000000              -0.000455392               0.001908522               0.001453130               0.000000000               0.000000000               0.000000000               0.000000000               0.000350725               0.004719744               0.000000000              -0.000458445               0.001726047               0.001267602               0.000000000               0.000000000               0.000000000               0.000000000               0.000188809               0.004182869              -0.000000000              -0.000452054               0.001544960               0.001092906               0.000000000               0.000000000               0.000000000               0.000000000               0.000064808               0.003643484              -0.000000000              -0.000431131               0.001358193               0.000927062               0.000000000               0.000000000               0.000000000               0.000000000              -0.000019704               0.003086354              -0.000000000              -0.000393182               0.001159835               0.000766653               0.000000000               0.000000000               0.000000000               0.000000000              -0.000069664               0.002495841              -0.000000000              -0.000338103               0.000944640               0.000606537               0.000000000               0.000000000               0.000000000               0.000000000              -0.000086633               0.001853464               0.000000000              -0.000264170               0.000705872               0.000441702               0.000000000               0.000000000               0.000000000               0.000000000              -0.000061277               0.001137465              -0.000000000              -0.000165162               0.000434205               0.000269044               0.000000000               0.000000000               0.000000000               0.000000000              -0.000094990               0.000590869              -0.000000000              -0.000109480               0.000233447               0.000123968               0.000000000               0.000000000               0.000000000               0.000000000               0.002001638               0.020358265              -0.001367461              -0.001794165               0.007384075               0.005589910               0.000000000               0.000000000               0.000000000               0.000000000               0.001788403               0.015652173              -0.000608070              -0.001285867               0.005645961               0.004360094               0.000000000               0.000000000               0.000000000               0.000000000               0.002174341               0.011853704               0.000138797              -0.000666333               0.004173306               0.003506973               0.000000000               0.000000000               0.000000000               0.000000000               0.001926199               0.009684815               0.000443543              -0.000488276               0.003390998               0.002902722               0.000000000               0.000000000               0.000000000               0.000000000               0.001530981               0.008296311               0.000558950              -0.000462920               0.002919716               0.002456796               0.000000000               0.000000000               0.000000000               0.000000000               0.001150690               0.007312485               0.000590084              -0.000482551               0.002598321               0.002115770               0.000000000               0.000000000               0.000000000               0.000000000               0.000828911               0.006548039               0.000581642              -0.000507662               0.002351878               0.001844216               0.000000000               0.000000000               0.000000000               0.000000000               0.000570178               0.005902886               0.000554354              -0.000524043               0.002142290               0.001618247               0.000000000               0.000000000               0.000000000               0.000000000               0.000366671               0.005322250               0.000520904              -0.000527778               0.001949992               0.001422213               0.000000000               0.000000000               0.000000000               0.000000000               0.000200280               0.004774780               0.000487886              -0.000521741               0.001765491               0.001243750               0.000000000               0.000000000               0.000000000               0.000000000               0.000066989               0.004239272               0.000453645              -0.000504787               0.001581339               0.001076552               0.000000000               0.000000000               0.000000000               0.000000000              -0.000029727               0.003702847               0.000416642              -0.000474003               0.001392271               0.000918268               0.000000000               0.000000000               0.000000000               0.000000000              -0.000091863               0.003155264               0.000374070              -0.000428856               0.001194696               0.000765840               0.000000000               0.000000000               0.000000000               0.000000000              -0.000120726               0.002583037               0.000319483              -0.000368151               0.000983721               0.000615569               0.000000000               0.000000000               0.000000000               0.000000000              -0.000117403               0.001969148               0.000245812              -0.000290169               0.000753099               0.000462930               0.000000000               0.000000000               0.000000000               0.000000000              -0.000075267               0.001299474               0.000140962              -0.000190659               0.000496707               0.000306048               0.000000000               0.000000000               0.000000000               0.000000000              -0.000096196               0.000800633               0.000090004              -0.000136152               0.000312259               0.000176107               0.000000000               0.000000000               0.000000000               0.000000000               0.002118681               0.019070912              -0.002532930              -0.001589356               0.006886692               0.005297336               0.000000000               0.000000000               0.000000000               0.000000000               0.001594278               0.014848352              -0.001124221              -0.001258187               0.005368797               0.004110610               0.000000000               0.000000000               0.000000000               0.000000000               0.001647352               0.011541277               0.000244990              -0.000824900               0.004122021               0.003297120               0.000000000               0.000000000               0.000000000               0.000000000               0.001284078               0.009615609               0.000781097              -0.000720420               0.003445311               0.002724891               0.000000000               0.000000000               0.000000000               0.000000000               0.000877590               0.008346804               0.000976831              -0.000714253               0.003020324               0.002306072               0.000000000               0.000000000               0.000000000               0.000000000               0.000531132               0.007415402               0.001025085              -0.000727749               0.002714359               0.001986609               0.000000000               0.000000000               0.000000000               0.000000000               0.000260971               0.006671067               0.001005992              -0.000736018               0.002469006               0.001732988               0.000000000               0.000000000               0.000000000               0.000000000               0.000060923               0.006031070               0.000954084              -0.000731036               0.002254015               0.001522979               0.000000000               0.000000000               0.000000000               0.000000000              -0.000081132               0.005451215               0.000894569              -0.000711825               0.002054328               0.001342503               0.000000000               0.000000000               0.000000000               0.000000000              -0.000182827               0.004907874               0.000834230              -0.000682043               0.001863289               0.001181246               0.000000000               0.000000000               0.000000000               0.000000000              -0.000248511               0.004380311               0.000769138              -0.000640729               0.001673665               0.001032936               0.000000000               0.000000000               0.000000000               0.000000000              -0.000279310               0.003858978               0.000700555              -0.000587112               0.001482017               0.000894905               0.000000000               0.000000000               0.000000000               0.000000000              -0.000280878               0.003338076               0.000622863              -0.000522588               0.001286877               0.000764289               0.000000000               0.000000000               0.000000000               0.000000000              -0.000249866               0.002810964               0.000523040              -0.000445069               0.001085335               0.000640266               0.000000000               0.000000000               0.000000000               0.000000000              -0.000187722               0.002271098               0.000392018              -0.000354282               0.000875119               0.000520837               0.000000000               0.000000000               0.000000000               0.000000000              -0.000101323               0.001723475               0.000219087              -0.000253430               0.000658963               0.000405533               0.000000000               0.000000000               0.000000000               0.000000000              -0.000094005               0.001342684               0.000136299              -0.000203087               0.000515252               0.000312166               0.000000000               0.000000000               0.000000000               0.000000000               0.002209385               0.017125832              -0.003337486              -0.001312208               0.006145956               0.004833748               0.000000000               0.000000000               0.000000000               0.000000000               0.001250320               0.013647215              -0.001482941              -0.001237030               0.004961369               0.003724340               0.000000000               0.000000000               0.000000000               0.000000000               0.000839396               0.011069654               0.000291581              -0.001068931               0.004046158               0.002977227               0.000000000               0.000000000               0.000000000               0.000000000               0.000350517               0.009493066               0.000945626              -0.001055187               0.003516053               0.002460866               0.000000000               0.000000000               0.000000000               0.000000000              -0.000037515               0.008381411               0.001169648              -0.001061742               0.003147690               0.002085947               0.000000000               0.000000000               0.000000000               0.000000000              -0.000309377               0.007519839               0.001215504              -0.001055994               0.002858586               0.001802592               0.000000000               0.000000000               0.000000000               0.000000000              -0.000492776               0.006801253               0.001183251              -0.001034945               0.002612043               0.001577098               0.000000000               0.000000000               0.000000000               0.000000000              -0.000603245               0.006169281               0.001112846              -0.000997375               0.002388865               0.001391490               0.000000000               0.000000000               0.000000000               0.000000000              -0.000647831               0.005597479               0.001036629              -0.000942620               0.002180014               0.001237394               0.000000000               0.000000000               0.000000000               0.000000000              -0.000648903               0.005065116               0.000961052              -0.000876476               0.001980514               0.001104037               0.000000000               0.000000000               0.000000000               0.000000000              -0.000619761               0.004555548               0.000878555              -0.000801852               0.001785785               0.000983933               0.000000000               0.000000000               0.000000000               0.000000000              -0.000561462               0.004063646               0.000791581              -0.000718503               0.001594036               0.000875533               0.000000000               0.000000000               0.000000000               0.000000000              -0.000476430               0.003586266               0.000694367              -0.000626943               0.001404391               0.000777448               0.000000000               0.000000000               0.000000000               0.000000000              -0.000365105               0.003126451               0.000570776              -0.000527719               0.001218046               0.000690327               0.000000000               0.000000000               0.000000000               0.000000000              -0.000237910               0.002695260               0.000415105              -0.000426123               0.001040452               0.000614329               0.000000000               0.000000000               0.000000000               0.000000000              -0.000116939               0.002309646               0.000225528              -0.000332557               0.000880727               0.000548170               0.000000000               0.000000000               0.000000000               0.000000000              -0.000084402               0.002076217               0.000133608              -0.000291177               0.000789124               0.000497947               0.000000000               0.000000000               0.000000000               0.000000000               0.002144628               0.014760207              -0.003701067              -0.001040790               0.005266949               0.004226159               0.000000000               0.000000000               0.000000000               0.000000000               0.000734225               0.012208575              -0.001663875              -0.001250735               0.004486396               0.003235661               0.000000000               0.000000000               0.000000000               0.000000000              -0.000151387               0.010493339               0.000254704              -0.001368434               0.003953889               0.002585455               0.000000000               0.000000000               0.000000000               0.000000000              -0.000711752               0.009291402               0.000911535              -0.001428329               0.003573213               0.002144884               0.000000000               0.000000000               0.000000000               0.000000000              -0.001028604               0.008343889               0.001116294              -0.001428709               0.003257505               0.001828795               0.000000000               0.000000000               0.000000000               0.000000000              -0.001185969               0.007554113               0.001148679              -0.001389000               0.002981012               0.001592013               0.000000000               0.000000000               0.000000000               0.000000000              -0.001242756               0.006870768               0.001106609              -0.001324876               0.002731858               0.001406982               0.000000000               0.000000000               0.000000000               0.000000000              -0.001228142               0.006259876               0.001031670              -0.001243035               0.002500949               0.001257914               0.000000000               0.000000000               0.000000000               0.000000000              -0.001153233               0.005706615               0.000954540              -0.001145786               0.002284115               0.001138328               0.000000000               0.000000000               0.000000000               0.000000000              -0.001038091               0.005193617               0.000878252              -0.001038484               0.002077349               0.001038866               0.000000000               0.000000000               0.000000000               0.000000000              -0.000899179               0.004710261               0.000794682              -0.000925973               0.001878729               0.000952756               0.000000000               0.000000000               0.000000000               0.000000000              -0.000738875               0.004257092               0.000705685              -0.000809213               0.001688754               0.000879541               0.000000000               0.000000000               0.000000000               0.000000000              -0.000562165               0.003836974               0.000603615              -0.000690432               0.001509123               0.000818691               0.000000000               0.000000000               0.000000000               0.000000000              -0.000382789               0.003460452               0.000478775              -0.000576101               0.001345506               0.000769405               0.000000000               0.000000000               0.000000000               0.000000000              -0.000218702               0.003148988               0.000329544              -0.000475636               0.001208197               0.000732562               0.000000000               0.000000000               0.000000000               0.000000000              -0.000095889               0.002921501               0.000167505              -0.000401145               0.001107539               0.000706394               0.000000000               0.000000000               0.000000000               0.000000000              -0.000054485               0.002818081               0.000090501              -0.000372691               0.001063581               0.000690890               0.000000000               0.000000000               0.000000000               0.000000000               0.001804948               0.012221912              -0.003636365              -0.000850885               0.004357557               0.003506673               0.000000000               0.000000000               0.000000000               0.000000000               0.000050491               0.010691589              -0.001694691              -0.001317512               0.004002998               0.002685485               0.000000000               0.000000000               0.000000000               0.000000000              -0.001208470               0.009862574               0.000110297              -0.001685994               0.003849490               0.002163496               0.000000000               0.000000000               0.000000000               0.000000000              -0.001744619               0.009002191               0.000683077              -0.001779502               0.003593867               0.001814366               0.000000000               0.000000000               0.000000000               0.000000000              -0.001923131               0.008201221               0.000846380              -0.001746323               0.003315821               0.001569498               0.000000000               0.000000000               0.000000000               0.000000000              -0.001927180               0.007478590               0.000872812              -0.001657512               0.003045342               0.001387830               0.000000000               0.000000000               0.000000000               0.000000000              -0.001834234               0.006840346               0.000838407              -0.001542877               0.002794385               0.001251507               0.000000000               0.000000000               0.000000000               0.000000000              -0.001674142               0.006267201               0.000774539              -0.001411200               0.002559446               0.001148246               0.000000000               0.000000000               0.000000000               0.000000000              -0.001470349               0.005741874               0.000711279              -0.001269112               0.002336976               0.001067864               0.000000000               0.000000000               0.000000000               0.000000000              -0.001244612               0.005253500               0.000649940              -0.001123414               0.002125621               0.001002206               0.000000000               0.000000000               0.000000000               0.000000000              -0.001002901               0.004803967               0.000579884              -0.000976581               0.001926833               0.000950252               0.000000000               0.000000000               0.000000000               0.000000000              -0.000757874               0.004398598               0.000500935              -0.000834026               0.001744193               0.000910168               0.000000000               0.000000000               0.000000000               0.000000000              -0.000522078               0.004045568               0.000407183              -0.000701474               0.001582333               0.000880860               0.000000000               0.000000000               0.000000000               0.000000000              -0.000313380               0.003756497               0.000298965              -0.000587078               0.001447846               0.000860768               0.000000000               0.000000000               0.000000000               0.000000000              -0.000151555               0.003548360               0.000184703              -0.000500377               0.001349567               0.000849190               0.000000000               0.000000000               0.000000000               0.000000000              -0.000052623               0.003432203               0.000082178              -0.000448758               0.001293642               0.000844884               0.000000000               0.000000000               0.000000000               0.000000000              -0.000020705               0.003400081               0.000037403              -0.000432773               0.001277607               0.000844833               0.000000000               0.000000000               0.000000000               0.000000000               0.001131265               0.009720894              -0.003225380              -0.000790888               0.003503894               0.002713006               0.000000000               0.000000000               0.000000000               0.000000000              -0.000766028               0.009219375              -0.001628113              -0.001439680               0.003552987               0.002113307               0.000000000               0.000000000               0.000000000               0.000000000              -0.002218943               0.009204148              -0.000148887              -0.001982617               0.003728891               0.001746274               0.000000000               0.000000000               0.000000000               0.000000000              -0.002619478               0.008625961               0.000299288              -0.002060544               0.003562140               0.001501596               0.000000000               0.000000000               0.000000000               0.000000000              -0.002608022               0.007947667               0.000433585              -0.001971462               0.003306350               0.001334888               0.000000000               0.000000000               0.000000000               0.000000000              -0.002434570               0.007297321               0.000472498              -0.001825124               0.003040791               0.001215667               0.000000000               0.000000000               0.000000000               0.000000000              -0.002184201               0.006711981               0.000468981              -0.001658069               0.002789994               0.001131925               0.000000000               0.000000000               0.000000000               0.000000000              -0.001883449               0.006178888               0.000436076              -0.001478651               0.002552492               0.001073841               0.000000000               0.000000000               0.000000000               0.000000000              -0.001561676               0.005687240               0.000399628              -0.001296530               0.002327905               0.001031374               0.000000000               0.000000000               0.000000000               0.000000000              -0.001242073               0.005236367               0.000363564              -0.001120321               0.002118878               0.000998558               0.000000000               0.000000000               0.000000000               0.000000000              -0.000929104               0.004832722               0.000319836              -0.000952502               0.001928392               0.000975890               0.000000000               0.000000000               0.000000000               0.000000000              -0.000635025               0.004493137               0.000266184              -0.000799775               0.001764289               0.000964514               0.000000000               0.000000000               0.000000000               0.000000000              -0.000381738               0.004223057               0.000199178              -0.000671032               0.001631349               0.000960317               0.000000000               0.000000000               0.000000000               0.000000000              -0.000189065               0.004030202               0.000125489              -0.000574673               0.001534945               0.000960272               0.000000000               0.000000000               0.000000000               0.000000000              -0.000062927               0.003918274               0.000060186              -0.000513380               0.001477205               0.000963824               0.000000000               0.000000000               0.000000000               0.000000000              -0.000006051               0.003878777               0.000017254              -0.000487115               0.001455284               0.000968169               0.000000000               0.000000000               0.000000000               0.000000000               0.000005714               0.003885040               0.000000891              -0.000483486               0.001456162               0.000972676               0.000000000               0.000000000               0.000000000               0.000000000               0.000159758               0.007418033              -0.002564580              -0.000867345               0.002761767               0.001894422               0.000000000               0.000000000               0.000000000               0.000000000              -0.001668366               0.007879310              -0.001512087              -0.001610548               0.003163259               0.001552711               0.000000000               0.000000000               0.000000000               0.000000000              -0.003084631               0.008521681              -0.000512042              -0.002221941               0.003581179               0.001359238               0.000000000               0.000000000               0.000000000               0.000000000              -0.003250521               0.008161733              -0.000176327              -0.002239156               0.003466936               0.001227779               0.000000000               0.000000000               0.000000000               0.000000000              -0.003022831               0.007598490              -0.000038975              -0.002083368               0.003227260               0.001143893               0.000000000               0.000000000               0.000000000               0.000000000              -0.002675026               0.007031913               0.000034291              -0.001882119               0.002971321               0.001089201               0.000000000               0.000000000               0.000000000               0.000000000              -0.002276983               0.006502239               0.000078110              -0.001666644               0.002722939               0.001056295               0.000000000               0.000000000               0.000000000               0.000000000              -0.001856402               0.006008472               0.000091470              -0.001447206               0.002485206               0.001038000               0.000000000               0.000000000               0.000000000               0.000000000              -0.001442720               0.005560600               0.000096445              -0.001236092               0.002265545               0.001029453               0.000000000               0.000000000               0.000000000               0.000000000              -0.001053949               0.005163634               0.000095956              -0.001040682               0.002068088               0.001027406               0.000000000               0.000000000               0.000000000               0.000000000              -0.000698819               0.004827913               0.000089056              -0.000865544               0.001897803               0.001032259               0.000000000               0.000000000               0.000000000               0.000000000              -0.000394604               0.004568750               0.000077111              -0.000719068               0.001762591               0.001043522               0.000000000               0.000000000               0.000000000               0.000000000              -0.000161520               0.004395559               0.000052225              -0.000610013               0.001668509               0.001058496               0.000000000               0.000000000               0.000000000               0.000000000              -0.000012561               0.004307005               0.000022468              -0.000543085               0.001616682               0.001073598               0.000000000               0.000000000               0.000000000               0.000000000               0.000055000               0.004292942              -0.000001711              -0.000515992               0.001602964               0.001086972               0.000000000               0.000000000               0.000000000               0.000000000               0.000051939               0.004332152              -0.000009208              -0.000522040               0.001618050               0.001096009               0.000000000               0.000000000               0.000000000               0.000000000               0.000035864               0.004378053              -0.000011207              -0.000533806               0.001637272               0.001103466               0.000000000               0.000000000               0.000000000               0.000000000              -0.000989788               0.005477724              -0.001762185              -0.001055884               0.002177851               0.001121966               0.000000000               0.000000000               0.000000000               0.000000000              -0.002553733               0.006681214              -0.001387539              -0.001792798               0.002824648               0.001031850               0.000000000               0.000000000               0.000000000               0.000000000              -0.003764686               0.007837347              -0.000950779              -0.002391420               0.003409563               0.001018143               0.000000000               0.000000000               0.000000000               0.000000000              -0.003681279               0.007707841              -0.000685899              -0.002343954               0.003350573               0.001006619               0.000000000               0.000000000               0.000000000               0.000000000              -0.003264583               0.007285588              -0.000518053              -0.002134912               0.003140142               0.001005230               0.000000000               0.000000000               0.000000000               0.000000000              -0.002772240               0.006817905              -0.000397735              -0.001891823               0.002903220               0.001011397               0.000000000               0.000000000               0.000000000               0.000000000              -0.002259902               0.006355637              -0.000300992              -0.001641914               0.002665829               0.001023915               0.000000000               0.000000000               0.000000000               0.000000000              -0.001748353               0.005912461              -0.000228795              -0.001394686               0.002435696               0.001041010               0.000000000               0.000000000               0.000000000               0.000000000              -0.001264928               0.005510874              -0.000176237              -0.001163204               0.002224674               0.001061470               0.000000000               0.000000000               0.000000000               0.000000000              -0.000823530               0.005161354              -0.000133762              -0.000953991               0.002038431               0.001084440               0.000000000               0.000000000               0.000000000               0.000000000              -0.000437914               0.004880929              -0.000093992              -0.000774332               0.001885071               0.001110739               0.000000000               0.000000000               0.000000000               0.000000000              -0.000135364               0.004681026              -0.000055410              -0.000635888               0.001772289               0.001136401               0.000000000               0.000000000               0.000000000               0.000000000               0.000073579               0.004565874              -0.000028762              -0.000543141               0.001702990               0.001159849               0.000000000               0.000000000               0.000000000               0.000000000               0.000191996               0.004537647              -0.000013572              -0.000495206               0.001677603               0.001182397               0.000000000               0.000000000               0.000000000               0.000000000               0.000229535               0.004588719              -0.000006324              -0.000487513               0.001692062               0.001204549               0.000000000               0.000000000               0.000000000               0.000000000               0.000209916               0.004692214              -0.000004579              -0.000507807               0.001733325               0.001225518               0.000000000               0.000000000               0.000000000               0.000000000               0.000180960               0.004760759              -0.000004205              -0.000527234               0.001762648               0.001235415               0.000000000               0.000000000               0.000000000               0.000000000              -0.002318404               0.003682380              -0.000922537              -0.001329696               0.001670680               0.000340983               0.000000000               0.000000000               0.000000000               0.000000000              -0.003300911               0.005296974              -0.001251479              -0.001899959               0.002398960               0.000499001               0.000000000               0.000000000               0.000000000               0.000000000              -0.004178565               0.006824446              -0.001409214              -0.002420012               0.003081463               0.000661451               0.000000000               0.000000000               0.000000000               0.000000000              -0.003958383               0.007043888              -0.001228619              -0.002364874               0.003136230               0.000771356               0.000000000               0.000000000               0.000000000               0.000000000              -0.003463527               0.006867751              -0.001031659              -0.002157286               0.003008323               0.000851037               0.000000000               0.000000000               0.000000000               0.000000000              -0.002913464               0.006581299              -0.000863692              -0.001915207               0.002832146               0.000916940               0.000000000               0.000000000               0.000000000               0.000000000              -0.002365791               0.006266156              -0.000716179              -0.001670437               0.002645510               0.000975073               0.000000000               0.000000000               0.000000000               0.000000000              -0.001829255               0.005936598              -0.000588883              -0.001428042               0.002454860               0.001026818               0.000000000               0.000000000               0.000000000               0.000000000              -0.001316625               0.005616295              -0.000488733              -0.001195768               0.002270669               0.001074901               0.000000000               0.000000000               0.000000000               0.000000000              -0.000847302               0.005328223              -0.000398993              -0.000983764               0.002103978               0.001120214               0.000000000               0.000000000               0.000000000               0.000000000              -0.000431630               0.005086722              -0.000307614              -0.000797700               0.001961457               0.001163757               0.000000000               0.000000000               0.000000000               0.000000000              -0.000088212               0.004897425              -0.000220170              -0.000645256               0.001847544               0.001202288               0.000000000               0.000000000               0.000000000               0.000000000               0.000167478               0.004772837              -0.000142918              -0.000533799               0.001768863               0.001235064               0.000000000               0.000000000               0.000000000               0.000000000               0.000336180               0.004729318              -0.000076316              -0.000465096               0.001731456               0.001266360               0.000000000               0.000000000               0.000000000               0.000000000               0.000429459               0.004766421              -0.000031242              -0.000434754               0.001733709               0.001298955               0.000000000               0.000000000               0.000000000               0.000000000               0.000463995               0.004866162              -0.000009363              -0.000434271               0.001766795               0.001332524               0.000000000               0.000000000               0.000000000               0.000000000               0.000458936               0.004927596              -0.000000863              -0.000443847               0.001790465               0.001346617               0.000000000               0.000000000               0.000000000               0.000000000              -0.003996657               0.002068517              -0.000111109              -0.001757308               0.001275266              -0.000482041               0.000000000               0.000000000               0.000000000               0.000000000              -0.004141672               0.003904587              -0.001062245              -0.002041196               0.001981914              -0.000059282               0.000000000               0.000000000               0.000000000               0.000000000              -0.004516907               0.005625359              -0.001780083              -0.002397005               0.002674102               0.000277097               0.000000000               0.000000000               0.000000000               0.000000000              -0.004166287               0.006178584              -0.001746611              -0.002334675               0.002837732               0.000503057               0.000000000               0.000000000               0.000000000               0.000000000              -0.003632871               0.006286839              -0.001555861              -0.002148177               0.002811651               0.000663474               0.000000000               0.000000000               0.000000000               0.000000000              -0.003058204               0.006219266              -0.001357702              -0.001924230               0.002714478               0.000790248               0.000000000               0.000000000               0.000000000               0.000000000              -0.002493375               0.006067334              -0.001175498              -0.001693428               0.002586900               0.000893472               0.000000000               0.000000000               0.000000000               0.000000000              -0.001943762               0.005873081              -0.001010219              -0.001463042               0.002445355               0.000982312               0.000000000               0.000000000               0.000000000               0.000000000              -0.001415967               0.005664640              -0.000863522              -0.001239065               0.002301216               0.001062151               0.000000000               0.000000000               0.000000000               0.000000000              -0.000924296               0.005457097              -0.000726988              -0.001028746               0.002161929               0.001133183               0.000000000               0.000000000               0.000000000               0.000000000              -0.000472457               0.005257270              -0.000596276              -0.000834328               0.002030515               0.001196187               0.000000000               0.000000000               0.000000000               0.000000000              -0.000068575               0.005075841              -0.000468565              -0.000660194               0.001911995               0.001251801               0.000000000               0.000000000               0.000000000               0.000000000               0.000266301               0.004936189              -0.000341990              -0.000517160               0.001817766               0.001300607               0.000000000               0.000000000               0.000000000               0.000000000               0.000517436               0.004858227              -0.000220916              -0.000413239               0.001757139               0.001343900               0.000000000               0.000000000               0.000000000               0.000000000               0.000683023               0.004851069              -0.000118658              -0.000350249               0.001733757               0.001383507               0.000000000               0.000000000               0.000000000               0.000000000               0.000768326               0.004906465              -0.000045282              -0.000325185               0.001743867               0.001418682               0.000000000               0.000000000               0.000000000               0.000000000               0.000785145               0.004946483              -0.000015872              -0.000323880               0.001756771               0.001432891               0.000000000               0.000000000               0.000000000               0.000000000              -0.005914920               0.000758818               0.000592524              -0.002312945               0.001023914              -0.001289031               0.000000000               0.000000000               0.000000000               0.000000000              -0.005109291               0.002587099              -0.000808388              -0.002239368               0.001608811              -0.000630557               0.000000000               0.000000000               0.000000000               0.000000000              -0.004802128               0.004251732              -0.001964830              -0.002332260               0.002194648              -0.000137611               0.000000000               0.000000000               0.000000000               0.000000000              -0.004245933               0.005038987              -0.002108519              -0.002222093               0.002420343               0.000198249               0.000000000               0.000000000               0.000000000               0.000000000              -0.003652506               0.005410889              -0.001973051              -0.002046046               0.002485627               0.000439580               0.000000000               0.000000000               0.000000000               0.000000000              -0.003061653               0.005566390              -0.001782227              -0.001843914               0.002470082               0.000626168               0.000000000               0.000000000               0.000000000               0.000000000              -0.002487879               0.005597796              -0.001589712              -0.001632676               0.002410138               0.000777463               0.000000000               0.000000000               0.000000000               0.000000000              -0.001937788               0.005568155              -0.001405542              -0.001422687               0.002330262               0.000907575               0.000000000               0.000000000               0.000000000               0.000000000              -0.001412440               0.005499001              -0.001232832              -0.001217038               0.002238661               0.001021623               0.000000000               0.000000000               0.000000000               0.000000000              -0.000907348               0.005398370              -0.001071869              -0.001015050               0.002137788               0.001122739               0.000000000               0.000000000               0.000000000               0.000000000              -0.000430287               0.005274704              -0.000919458              -0.000820694               0.002031782               0.001211088               0.000000000               0.000000000               0.000000000               0.000000000               0.000015564               0.005146561              -0.000768721              -0.000637482               0.001927997               0.001290515               0.000000000               0.000000000               0.000000000               0.000000000               0.000417554               0.005031944              -0.000610782              -0.000472409               0.001834768               0.001362358               0.000000000               0.000000000               0.000000000               0.000000000               0.000749504               0.004947733              -0.000443058              -0.000337402               0.001761695               0.001424293               0.000000000               0.000000000               0.000000000               0.000000000               0.000988298               0.004911173              -0.000276348              -0.000243284               0.001718136               0.001474852               0.000000000               0.000000000               0.000000000               0.000000000               0.001126495               0.004936760              -0.000126107              -0.000194659               0.001710456               0.001515798               0.000000000               0.000000000               0.000000000               0.000000000               0.001159534               0.004960803              -0.000054386              -0.000185275               0.001715343               0.001530068               0.000000000               0.000000000               0.000000000               0.000000000              -0.007950550              -0.000185195               0.001080437              -0.002958305               0.000924363              -0.002033941               0.000000000               0.000000000               0.000000000               0.000000000              -0.006155603               0.001416469              -0.000532566              -0.002485407               0.001300616              -0.001184790               0.000000000               0.000000000               0.000000000               0.000000000              -0.005052070               0.002824529              -0.001932701              -0.002247588               0.001690694              -0.000556895               0.000000000               0.000000000               0.000000000               0.000000000              -0.004218939               0.003721566              -0.002229198              -0.002047294               0.001922939              -0.000124355               0.000000000               0.000000000               0.000000000               0.000000000              -0.003523014               0.004292448              -0.002176723              -0.001857682               0.002050028               0.000192346               0.000000000               0.000000000               0.000000000               0.000000000              -0.002906307               0.004647735              -0.002025363              -0.001670829               0.002106172               0.000435343               0.000000000               0.000000000               0.000000000               0.000000000              -0.002337678               0.004869325              -0.001846511              -0.001485292               0.002118189               0.000632897               0.000000000               0.000000000               0.000000000               0.000000000              -0.001794224               0.005012645              -0.001664909              -0.001299412               0.002104002               0.000804590               0.000000000               0.000000000               0.000000000               0.000000000              -0.001273908               0.005090556              -0.001495254              -0.001114033               0.002068179               0.000954146               0.000000000               0.000000000               0.000000000               0.000000000              -0.000765474               0.005116255              -0.001336415              -0.000926583               0.002014262               0.001087679               0.000000000               0.000000000               0.000000000               0.000000000              -0.000270439               0.005105982              -0.001183747              -0.000739661               0.001948530               0.001208869               0.000000000               0.000000000               0.000000000               0.000000000               0.000210809               0.005074790              -0.001033104              -0.000555294               0.001876678               0.001321383               0.000000000               0.000000000               0.000000000               0.000000000               0.000665193               0.005028320              -0.000864858              -0.000379092               0.001802454               0.001423362               0.000000000               0.000000000               0.000000000               0.000000000               0.001069907               0.004977855              -0.000668903              -0.000221016               0.001732941               0.001511924               0.000000000               0.000000000               0.000000000               0.000000000               0.001401934               0.004950440              -0.000453655              -0.000093080               0.001681157               0.001588077               0.000000000               0.000000000               0.000000000               0.000000000               0.001635972               0.004963108              -0.000229451              -0.000006899               0.001656653               0.001649753               0.000000000               0.000000000               0.000000000               0.000000000               0.001727628               0.004978679              -0.000117429               0.000025525               0.001651035               0.001676560               0.000000000               0.000000000               0.000000000               0.000000000              -0.009909164              -0.000775932               0.001263814              -0.003618942               0.000947663              -0.002671279               0.000000000               0.000000000               0.000000000               0.000000000              -0.007192763               0.000461394              -0.000287821              -0.002754958               0.001072110              -0.001682848               0.000000000               0.000000000               0.000000000               0.000000000              -0.005277079               0.001483325              -0.001681154              -0.002164317               0.001215872              -0.000948445               0.000000000               0.000000000               0.000000000               0.000000000              -0.004122712               0.002376449              -0.002058054              -0.001843070               0.001406496              -0.000436574               0.000000000               0.000000000               0.000000000               0.000000000              -0.003289902               0.003067278              -0.002082221              -0.001617120               0.001561454              -0.000055666               0.000000000               0.000000000               0.000000000               0.000000000              -0.002622769               0.003586085              -0.001980956              -0.001431796               0.001672614               0.000240818               0.000000000               0.000000000               0.000000000               0.000000000              -0.002050012               0.003977685              -0.001836295              -0.001265963               0.001747869               0.000481906               0.000000000               0.000000000               0.000000000               0.000000000              -0.001515714               0.004275655              -0.001682573              -0.001102848               0.001792820               0.000689972               0.000000000               0.000000000               0.000000000               0.000000000              -0.001001609               0.004497483              -0.001536613              -0.000937787               0.001811741               0.000873954               0.000000000               0.000000000               0.000000000               0.000000000              -0.000499147               0.004654493              -0.001400932              -0.000768991               0.001807812               0.001038821               0.000000000               0.000000000               0.000000000               0.000000000               0.000004782               0.004766944              -0.001272709              -0.000594074               0.001786990               0.001192916               0.000000000               0.000000000               0.000000000               0.000000000               0.000511593               0.004845923              -0.001142644              -0.000413893               0.001753255               0.001339363               0.000000000               0.000000000               0.000000000               0.000000000               0.001011054               0.004896606              -0.000986982              -0.000232931               0.001709829               0.001476898               0.000000000               0.000000000               0.000000000               0.000000000               0.001492482               0.004924024              -0.000794625              -0.000055823               0.001659932               0.001604110               0.000000000               0.000000000               0.000000000               0.000000000               0.001942133               0.004944996              -0.000566955               0.000110174               0.001611591               0.001721765               0.000000000               0.000000000               0.000000000               0.000000000               0.002334465               0.004973595              -0.000302547               0.000253722               0.001573274               0.001826997               0.000000000               0.000000000               0.000000000               0.000000000               0.002555322               0.005005952              -0.000169982               0.000332498               0.001557801               0.001890300               0.000000000               0.000000000               0.000000000               0.000000000              -0.011548013              -0.001080207               0.001105454              -0.004195476               0.001038416              -0.003157060               0.000000000               0.000000000               0.000000000               0.000000000              -0.008083024              -0.000230344              -0.000114958              -0.003002339               0.000923992              -0.002078347               0.000000000               0.000000000               0.000000000               0.000000000              -0.005463392               0.000384788              -0.001236177              -0.002096869               0.000827213              -0.001269656               0.000000000               0.000000000               0.000000000               0.000000000              -0.003996126               0.001200138              -0.001585396              -0.001648562               0.000949559              -0.000699003               0.000000000               0.000000000               0.000000000               0.000000000              -0.003025697               0.001941407              -0.001648236              -0.001377310               0.001106231              -0.000271079               0.000000000               0.000000000               0.000000000               0.000000000              -0.002301258               0.002567547              -0.001593381              -0.001183913               0.001250477               0.000066564               0.000000000               0.000000000               0.000000000               0.000000000              -0.001705834               0.003084171              -0.001494406              -0.001025207               0.001369782               0.000344575               0.000000000               0.000000000               0.000000000               0.000000000              -0.001172942               0.003504643              -0.001384680              -0.000877932               0.001460846               0.000582914               0.000000000               0.000000000               0.000000000               0.000000000              -0.000665859               0.003849332              -0.001276804              -0.000730862               0.001526718               0.000795856               0.000000000               0.000000000               0.000000000               0.000000000              -0.000168394               0.004126758              -0.001178828              -0.000578992               0.001568569               0.000989577               0.000000000               0.000000000               0.000000000               0.000000000               0.000336286               0.004352332              -0.001089837              -0.000417934               0.001590074               0.001172140               0.000000000               0.000000000               0.000000000               0.000000000               0.000853732               0.004541093              -0.000997047              -0.000247487               0.001596178               0.001348691               0.000000000               0.000000000               0.000000000               0.000000000               0.001390454               0.004697687              -0.000879513              -0.000065791               0.001587810               0.001522019               0.000000000               0.000000000               0.000000000               0.000000000               0.001947098               0.004816018              -0.000727375               0.000128158               0.001562604               0.001690762               0.000000000               0.000000000               0.000000000               0.000000000               0.002524167               0.004902105              -0.000535743               0.000333796               0.001522753               0.001856550               0.000000000               0.000000000               0.000000000               0.000000000               0.003110727               0.004961485              -0.000293614               0.000546331               0.001471701               0.002018033               0.000000000               0.000000000               0.000000000               0.000000000               0.003508771               0.005022552              -0.000173125               0.000687963               0.001444846               0.002132809               0.000000000               0.000000000               0.000000000               0.000000000              -0.012641616              -0.001195775               0.000640629              -0.004591131               0.001131778              -0.003459354               0.000000000               0.000000000               0.000000000               0.000000000              -0.008688912              -0.000638606              -0.000030313              -0.003178514               0.000846630              -0.002331884               0.000000000               0.000000000               0.000000000               0.000000000              -0.005589691              -0.000338157              -0.000654383              -0.002053863               0.000571898              -0.001481965               0.000000000               0.000000000               0.000000000               0.000000000              -0.003886854               0.000387980              -0.000864036              -0.001506066               0.000631344              -0.000874722               0.000000000               0.000000000               0.000000000               0.000000000              -0.002815013               0.001143982              -0.000913411              -0.001198626               0.000780864              -0.000417762               0.000000000               0.000000000               0.000000000               0.000000000              -0.002049880               0.001825322              -0.000890399              -0.000996868               0.000940723              -0.000056145               0.000000000               0.000000000               0.000000000               0.000000000              -0.001433923               0.002411641              -0.000839999              -0.000839174               0.001083597               0.000244422               0.000000000               0.000000000               0.000000000               0.000000000              -0.000894044               0.002910501              -0.000782440              -0.000699078               0.001203183               0.000504105               0.000000000               0.000000000               0.000000000               0.000000000              -0.000385584               0.003338478              -0.000724458              -0.000561903               0.001300116               0.000738213               0.000000000               0.000000000               0.000000000               0.000000000               0.000111934               0.003702010              -0.000674102              -0.000420775               0.001374249               0.000953474               0.000000000               0.000000000               0.000000000               0.000000000               0.000613751               0.004015559              -0.000629172              -0.000271788               0.001429102               0.001157314               0.000000000               0.000000000               0.000000000               0.000000000               0.001133717               0.004293230              -0.000582545              -0.000111510               0.001468232               0.001356722               0.000000000               0.000000000               0.000000000               0.000000000               0.001688978               0.004530352              -0.000522305               0.000067072               0.001487745               0.001554817               0.000000000               0.000000000               0.000000000               0.000000000               0.002298121               0.004719119              -0.000440558               0.000271903               0.001482390               0.001754292               0.000000000               0.000000000               0.000000000               0.000000000               0.002976939               0.004858673              -0.000331529               0.000509013               0.001449870               0.001958883               0.000000000               0.000000000               0.000000000               0.000000000               0.003738089               0.004944974              -0.000184642               0.000783654               0.001387090               0.002170744               0.000000000               0.000000000               0.000000000               0.000000000               0.004305434               0.005032399              -0.000111893               0.000985478               0.001348957               0.002334435               0.000000000               0.000000000               0.000000000               0.000000000              -0.013027357              -0.001220036               0.000000000              -0.004732751               0.001170897              -0.003561854               0.000000000               0.000000000               0.000000000               0.000000000              -0.008905297              -0.000773208               0.000000000              -0.003242833               0.000823203              -0.002419630               0.000000000               0.000000000               0.000000000               0.000000000              -0.005635437              -0.000592189               0.000000000              -0.002039264               0.000482355              -0.001556909               0.000000000               0.000000000               0.000000000               0.000000000              -0.003844299               0.000098888               0.000000000              -0.001453972               0.000517616              -0.000936356               0.000000000               0.000000000               0.000000000               0.000000000              -0.002736689               0.000854890               0.000000000              -0.001133118               0.000662665              -0.000470453               0.000000000               0.000000000               0.000000000               0.000000000              -0.001958383               0.001547909               0.000000000              -0.000927880               0.000825257              -0.000102623               0.000000000               0.000000000               0.000000000               0.000000000              -0.001333277               0.002157499              -0.000000000              -0.000769665               0.000975714               0.000206049               0.000000000               0.000000000               0.000000000               0.000000000              -0.000788128               0.002683797               0.000000000              -0.000631021               0.001104930               0.000473909               0.000000000               0.000000000               0.000000000               0.000000000              -0.000275700               0.003140930               0.000000000              -0.000496003               0.001212300               0.000716298               0.000000000               0.000000000               0.000000000               0.000000000               0.000224465               0.003540279              -0.000000000              -0.000358360               0.001299535               0.000941175               0.000000000               0.000000000               0.000000000               0.000000000               0.000724743               0.003891085               0.000000000              -0.000214607               0.001368551               0.001153944               0.000000000               0.000000000               0.000000000               0.000000000               0.001245743               0.004204684               0.000000000              -0.000058432               0.001421025               0.001362593               0.000000000               0.000000000               0.000000000               0.000000000               0.001805530               0.004474307              -0.000000000               0.000117784               0.001452159               0.001569944               0.000000000               0.000000000               0.000000000               0.000000000               0.002431919               0.004692033              -0.000000000               0.000325462               0.001455508               0.001780970               0.000000000               0.000000000               0.000000000               0.000000000               0.003149580               0.004853582              -0.000000000               0.000574389               0.001426382               0.002000770               0.000000000               0.000000000               0.000000000               0.000000000               0.003983467               0.004947078              -0.000000000               0.000875407               0.001357207               0.002232614               0.000000000               0.000000000               0.000000000               0.000000000               0.004624489               0.005041986              -0.000000000               0.001103924               0.001312670               0.002416595               0.000000000               0.000000000               0.000000000               0.000000000               0.000000000               0.000000000               0.000000000               0.000000000               0.000000000               0.000000000               0.000000000               0.000000000               0.000000000               0.000000000               0.000000000               0.000000000               0.000000000               0.000000000               0.000000000               0.000000000               0.000000000               0.000000000               0.000000000               0.000000000               0.000000000               0.000000000               0.000000000               0.000000000               0.000000000               0.000000000               0.000000000               0.000000000               0.000000000               0.000000000               0.000000000               0.000000000               0.000000000               0.000000000               0.000000000               0.000000000               0.000000000               0.000000000               0.000000000               0.000000000               0.000000000               0.000000000               0.000000000               0.000000000               0.000000000               0.000000000               0.000000000               0.000000000               0.000000000               0.000000000               0.000000000               0.000000000               0.000000000               0.000000000               0.000000000               0.000000000               0.000000000               0.000000000               0.000000000               0.000000000               0.000000000               0.000000000               0.000000000               0.000000000               0.000000000               0.000000000               0.000000000               0.000000000               0.000000000               0.000000000               0.000000000               0.000000000               0.000000000               0.000000000               0.000000000               0.000000000               0.000000000               0.000000000               0.000000000               0.000000000               0.000000000               0.000000000               0.000000000               0.000000000               0.000000000               0.000000000               0.000000000               0.000000000               0.000000000               0.000000000               0.000000000               0.000000000               0.000000000               0.000000000               0.000000000               0.000000000               0.000000000               0.000000000               0.000000000               0.000000000               0.000000000               0.000000000               0.000000000               0.000000000               0.000000000               0.000000000               0.000000000               0.000000000               0.000000000               0.000000000               0.000000000               0.000000000               0.000000000               0.000000000               0.000000000               0.000000000               0.000000000               0.000000000               0.000000000               0.000000000               0.000000000               0.000000000               0.000000000               0.000000000               0.000000000               0.000000000               0.000000000               0.000000000               0.000000000               0.000000000               0.000000000               0.000000000               0.000000000               0.000000000               0.000000000               0.000000000               0.000000000               0.000000000               0.000000000               0.000000000               0.000000000               0.000000000               0.000000000               0.000000000               0.000000000               0.000000000               0.000000000               0.000000000               0.000000000               0.000000000               0.000000000               0.000000000               0.000000000               0.000000000               0.000000000               0.000000000               0.000000000               0.000000000               0.000000000               0.000000000               0.000000000               0.000000000               0.000000000               0.000000000               0.000000000               0.000000000               0.000000000               0.000000000               0.000000000               0.000000000               0.002001638               0.020358265               0.001367461              -0.001794165               0.007384075               0.005589910               0.000000000               0.000000000               0.000000000               0.000000000               0.001788403               0.015652173               0.000608070              -0.001285867               0.005645961               0.004360094               0.000000000               0.000000000               0.000000000               0.000000000               0.002174341               0.011853704              -0.000138797              -0.000666333               0.004173306               0.003506973               0.000000000               0.000000000               0.000000000               0.000000000               0.001926199               0.009684815              -0.000443543              -0.000488276               0.003390998               0.002902722               0.000000000               0.000000000               0.000000000               0.000000000               0.001530981               0.008296311              -0.000558950              -0.000462920               0.002919716               0.002456796               0.000000000               0.000000000               0.000000000               0.000000000               0.001150690               0.007312485              -0.000590084              -0.000482551               0.002598321               0.002115770               0.000000000               0.000000000               0.000000000               0.000000000               0.000828911               0.006548039              -0.000581642              -0.000507662               0.002351878               0.001844216               0.000000000               0.000000000               0.000000000               0.000000000               0.000570178               0.005902886              -0.000554354              -0.000524043               0.002142290               0.001618247               0.000000000               0.000000000               0.000000000               0.000000000               0.000366671               0.005322250              -0.000520904              -0.000527778               0.001949992               0.001422213               0.000000000               0.000000000               0.000000000               0.000000000               0.000200280               0.004774780              -0.000487886              -0.000521741               0.001765491               0.001243750               0.000000000               0.000000000               0.000000000               0.000000000               0.000066989               0.004239272              -0.000453645              -0.000504787               0.001581339               0.001076552               0.000000000               0.000000000               0.000000000               0.000000000              -0.000029727               0.003702847              -0.000416642              -0.000474003               0.001392271               0.000918268               0.000000000               0.000000000               0.000000000               0.000000000              -0.000091863               0.003155264              -0.000374070              -0.000428856               0.001194696               0.000765840               0.000000000               0.000000000               0.000000000               0.000000000              -0.000120726               0.002583037              -0.000319483              -0.000368151               0.000983721               0.000615569               0.000000000               0.000000000               0.000000000               0.000000000              -0.000117403               0.001969148              -0.000245812              -0.000290169               0.000753099               0.000462930               0.000000000               0.000000000               0.000000000               0.000000000              -0.000075267               0.001299474              -0.000140962              -0.000190659               0.000496707               0.000306048               0.000000000               0.000000000               0.000000000               0.000000000              -0.000096196               0.000800633              -0.000090004              -0.000136152               0.000312259               0.000176107               0.000000000               0.000000000               0.000000000               0.000000000               0.002118681               0.019070912               0.002532930              -0.001589356               0.006886692               0.005297336               0.000000000               0.000000000               0.000000000               0.000000000               0.001594278               0.014848352               0.001124221              -0.001258187               0.005368797               0.004110610               0.000000000               0.000000000               0.000000000               0.000000000               0.001647352               0.011541277              -0.000244990              -0.000824900               0.004122021               0.003297120               0.000000000               0.000000000               0.000000000               0.000000000               0.001284078               0.009615609              -0.000781097              -0.000720420               0.003445311               0.002724891               0.000000000               0.000000000               0.000000000               0.000000000               0.000877590               0.008346804              -0.000976831              -0.000714253               0.003020324               0.002306072               0.000000000               0.000000000               0.000000000               0.000000000               0.000531132               0.007415402              -0.001025085              -0.000727749               0.002714359               0.001986609               0.000000000               0.000000000               0.000000000               0.000000000               0.000260971               0.006671067              -0.001005992              -0.000736018               0.002469006               0.001732988               0.000000000               0.000000000               0.000000000               0.000000000               0.000060923               0.006031070              -0.000954084              -0.000731036               0.002254015               0.001522979               0.000000000               0.000000000               0.000000000               0.000000000              -0.000081132               0.005451215              -0.000894569              -0.000711825               0.002054328               0.001342503               0.000000000               0.000000000               0.000000000               0.000000000              -0.000182827               0.004907874              -0.000834230              -0.000682043               0.001863289               0.001181246               0.000000000               0.000000000               0.000000000               0.000000000              -0.000248511               0.004380311              -0.000769138              -0.000640729               0.001673665               0.001032936               0.000000000               0.000000000               0.000000000               0.000000000              -0.000279310               0.003858978              -0.000700555              -0.000587112               0.001482017               0.000894905               0.000000000               0.000000000               0.000000000               0.000000000              -0.000280878               0.003338076              -0.000622863              -0.000522588               0.001286877               0.000764289               0.000000000               0.000000000               0.000000000               0.000000000              -0.000249866               0.002810964              -0.000523040              -0.000445069               0.001085335               0.000640266               0.000000000               0.000000000               0.000000000               0.000000000              -0.000187722               0.002271098              -0.000392018              -0.000354282               0.000875119               0.000520837               0.000000000               0.000000000               0.000000000               0.000000000              -0.000101323               0.001723475              -0.000219087              -0.000253430               0.000658963               0.000405533               0.000000000               0.000000000               0.000000000               0.000000000              -0.000094005               0.001342684              -0.000136299              -0.000203087               0.000515252               0.000312166               0.000000000               0.000000000               0.000000000               0.000000000               0.002209385               0.017125832               0.003337486              -0.001312208               0.006145956               0.004833748               0.000000000               0.000000000               0.000000000               0.000000000               0.001250320               0.013647215               0.001482941              -0.001237030               0.004961369               0.003724340               0.000000000               0.000000000               0.000000000               0.000000000               0.000839396               0.011069654              -0.000291581              -0.001068931               0.004046158               0.002977227               0.000000000               0.000000000               0.000000000               0.000000000               0.000350517               0.009493066              -0.000945626              -0.001055187               0.003516053               0.002460866               0.000000000               0.000000000               0.000000000               0.000000000              -0.000037515               0.008381411              -0.001169648              -0.001061742               0.003147690               0.002085947               0.000000000               0.000000000               0.000000000               0.000000000              -0.000309377               0.007519839              -0.001215504              -0.001055994               0.002858586               0.001802592               0.000000000               0.000000000               0.000000000               0.000000000              -0.000492776               0.006801253              -0.001183251              -0.001034945               0.002612043               0.001577098               0.000000000               0.000000000               0.000000000               0.000000000              -0.000603245               0.006169281              -0.001112846              -0.000997375               0.002388865               0.001391490               0.000000000               0.000000000               0.000000000               0.000000000              -0.000647831               0.005597479              -0.001036629              -0.000942620               0.002180014               0.001237394               0.000000000               0.000000000               0.000000000               0.000000000              -0.000648903               0.005065116              -0.000961052              -0.000876476               0.001980514               0.001104037               0.000000000               0.000000000               0.000000000               0.000000000              -0.000619761               0.004555548              -0.000878555              -0.000801852               0.001785785               0.000983933               0.000000000               0.000000000               0.000000000               0.000000000              -0.000561462               0.004063646              -0.000791581              -0.000718503               0.001594036               0.000875533               0.000000000               0.000000000               0.000000000               0.000000000              -0.000476430               0.003586266              -0.000694367              -0.000626943               0.001404391               0.000777448               0.000000000               0.000000000               0.000000000               0.000000000              -0.000365105               0.003126451              -0.000570776              -0.000527719               0.001218046               0.000690327               0.000000000               0.000000000               0.000000000               0.000000000              -0.000237910               0.002695260              -0.000415105              -0.000426123               0.001040452               0.000614329               0.000000000               0.000000000               0.000000000               0.000000000              -0.000116939               0.002309646              -0.000225528              -0.000332557               0.000880727               0.000548170               0.000000000               0.000000000               0.000000000               0.000000000              -0.000084402               0.002076217              -0.000133608              -0.000291177               0.000789124               0.000497947               0.000000000               0.000000000               0.000000000               0.000000000               0.002144628               0.014760207               0.003701067              -0.001040790               0.005266949               0.004226159               0.000000000               0.000000000               0.000000000               0.000000000               0.000734225               0.012208575               0.001663875              -0.001250735               0.004486396               0.003235661               0.000000000               0.000000000               0.000000000               0.000000000              -0.000151387               0.010493339              -0.000254704              -0.001368434               0.003953889               0.002585455               0.000000000               0.000000000               0.000000000               0.000000000              -0.000711752               0.009291402              -0.000911535              -0.001428329               0.003573213               0.002144884               0.000000000               0.000000000               0.000000000               0.000000000              -0.001028604               0.008343889              -0.001116294              -0.001428709               0.003257505               0.001828795               0.000000000               0.000000000               0.000000000               0.000000000              -0.001185969               0.007554113              -0.001148679              -0.001389000               0.002981012               0.001592013               0.000000000               0.000000000               0.000000000               0.000000000              -0.001242756               0.006870768              -0.001106609              -0.001324876               0.002731858               0.001406982               0.000000000               0.000000000               0.000000000               0.000000000              -0.001228142               0.006259876              -0.001031670              -0.001243035               0.002500949               0.001257914               0.000000000               0.000000000               0.000000000               0.000000000              -0.001153233               0.005706615              -0.000954540              -0.001145786               0.002284115               0.001138328               0.000000000               0.000000000               0.000000000               0.000000000              -0.001038091               0.005193617              -0.000878252              -0.001038484               0.002077349               0.001038866               0.000000000               0.000000000               0.000000000               0.000000000              -0.000899179               0.004710261              -0.000794682              -0.000925973               0.001878729               0.000952756               0.000000000               0.000000000               0.000000000               0.000000000              -0.000738875               0.004257092              -0.000705685              -0.000809213               0.001688754               0.000879541               0.000000000               0.000000000               0.000000000               0.000000000              -0.000562165               0.003836974              -0.000603615              -0.000690432               0.001509123               0.000818691               0.000000000               0.000000000               0.000000000               0.000000000              -0.000382789               0.003460452              -0.000478775              -0.000576101               0.001345506               0.000769405               0.000000000               0.000000000               0.000000000               0.000000000              -0.000218702               0.003148988              -0.000329544              -0.000475636               0.001208197               0.000732562               0.000000000               0.000000000               0.000000000               0.000000000              -0.000095889               0.002921501              -0.000167505              -0.000401145               0.001107539               0.000706394               0.000000000               0.000000000               0.000000000               0.000000000              -0.000054485               0.002818081              -0.000090501              -0.000372691               0.001063581               0.000690890               0.000000000               0.000000000               0.000000000               0.000000000               0.001804948               0.012221912               0.003636365              -0.000850885               0.004357557               0.003506673               0.000000000               0.000000000               0.000000000               0.000000000               0.000050491               0.010691589               0.001694691              -0.001317512               0.004002998               0.002685485               0.000000000               0.000000000               0.000000000               0.000000000              -0.001208470               0.009862574              -0.000110297              -0.001685994               0.003849490               0.002163496               0.000000000               0.000000000               0.000000000               0.000000000              -0.001744619               0.009002191              -0.000683077              -0.001779502               0.003593867               0.001814366               0.000000000               0.000000000               0.000000000               0.000000000              -0.001923131               0.008201221              -0.000846380              -0.001746323               0.003315821               0.001569498               0.000000000               0.000000000               0.000000000               0.000000000              -0.001927180               0.007478590              -0.000872812              -0.001657512               0.003045342               0.001387830               0.000000000               0.000000000               0.000000000               0.000000000              -0.001834234               0.006840346              -0.000838407              -0.001542877               0.002794385               0.001251507               0.000000000               0.000000000               0.000000000               0.000000000              -0.001674142               0.006267201              -0.000774539              -0.001411200               0.002559446               0.001148246               0.000000000               0.000000000               0.000000000               0.000000000              -0.001470349               0.005741874              -0.000711279              -0.001269112               0.002336976               0.001067864               0.000000000               0.000000000               0.000000000               0.000000000              -0.001244612               0.005253500              -0.000649940              -0.001123414               0.002125621               0.001002206               0.000000000               0.000000000               0.000000000               0.000000000              -0.001002901               0.004803967              -0.000579884              -0.000976581               0.001926833               0.000950252               0.000000000               0.000000000               0.000000000               0.000000000              -0.000757874               0.004398598              -0.000500935              -0.000834026               0.001744193               0.000910168               0.000000000               0.000000000               0.000000000               0.000000000              -0.000522078               0.004045568              -0.000407183              -0.000701474               0.001582333               0.000880860               0.000000000               0.000000000               0.000000000               0.000000000              -0.000313380               0.003756497              -0.000298965              -0.000587078               0.001447846               0.000860768               0.000000000               0.000000000               0.000000000               0.000000000              -0.000151555               0.003548360              -0.000184703              -0.000500377               0.001349567               0.000849190               0.000000000               0.000000000               0.000000000               0.000000000              -0.000052623               0.003432203              -0.000082178              -0.000448758               0.001293642               0.000844884               0.000000000               0.000000000               0.000000000               0.000000000              -0.000020705               0.003400081              -0.000037403              -0.000432773               0.001277607               0.000844833               0.000000000               0.000000000               0.000000000               0.000000000               0.001131265               0.009720894               0.003225380              -0.000790888               0.003503894               0.002713006               0.000000000               0.000000000               0.000000000               0.000000000              -0.000766028               0.009219375               0.001628113              -0.001439680               0.003552987               0.002113307               0.000000000               0.000000000               0.000000000               0.000000000              -0.002218943               0.009204148               0.000148887              -0.001982617               0.003728891               0.001746274               0.000000000               0.000000000               0.000000000               0.000000000              -0.002619478               0.008625961              -0.000299288              -0.002060544               0.003562140               0.001501596               0.000000000               0.000000000               0.000000000               0.000000000              -0.002608022               0.007947667              -0.000433585              -0.001971462               0.003306350               0.001334888               0.000000000               0.000000000               0.000000000               0.000000000              -0.002434570               0.007297321              -0.000472498              -0.001825124               0.003040791               0.001215667               0.000000000               0.000000000               0.000000000               0.000000000              -0.002184201               0.006711981              -0.000468981              -0.001658069               0.002789994               0.001131925               0.000000000               0.000000000               0.000000000               0.000000000              -0.001883449               0.006178888              -0.000436076              -0.001478651               0.002552492               0.001073841               0.000000000               0.000000000               0.000000000               0.000000000              -0.001561676               0.005687240              -0.000399628              -0.001296530               0.002327905               0.001031374               0.000000000               0.000000000               0.000000000               0.000000000              -0.001242073               0.005236367              -0.000363564              -0.001120321               0.002118878               0.000998558               0.000000000               0.000000000               0.000000000               0.000000000              -0.000929104               0.004832722              -0.000319836              -0.000952502               0.001928392               0.000975890               0.000000000               0.000000000               0.000000000               0.000000000              -0.000635025               0.004493137              -0.000266184              -0.000799775               0.001764289               0.000964514               0.000000000               0.000000000               0.000000000               0.000000000              -0.000381738               0.004223057              -0.000199178              -0.000671032               0.001631349               0.000960317               0.000000000               0.000000000               0.000000000               0.000000000              -0.000189065               0.004030202              -0.000125489              -0.000574673               0.001534945               0.000960272               0.000000000               0.000000000               0.000000000               0.000000000              -0.000062927               0.003918274              -0.000060186              -0.000513380               0.001477205               0.000963824               0.000000000               0.000000000               0.000000000               0.000000000              -0.000006051               0.003878777              -0.000017254              -0.000487115               0.001455284               0.000968169               0.000000000               0.000000000               0.000000000               0.000000000               0.000005714               0.003885040              -0.000000891              -0.000483486               0.001456162               0.000972676               0.000000000               0.000000000               0.000000000               0.000000000               0.000159758               0.007418033               0.002564580              -0.000867345               0.002761767               0.001894422               0.000000000               0.000000000               0.000000000               0.000000000              -0.001668366               0.007879310               0.001512087              -0.001610548               0.003163259               0.001552711               0.000000000               0.000000000               0.000000000               0.000000000              -0.003084631               0.008521681               0.000512042              -0.002221941               0.003581179               0.001359238               0.000000000               0.000000000               0.000000000               0.000000000              -0.003250521               0.008161733               0.000176327              -0.002239156               0.003466936               0.001227779               0.000000000               0.000000000               0.000000000               0.000000000              -0.003022831               0.007598490               0.000038975              -0.002083368               0.003227260               0.001143893               0.000000000               0.000000000               0.000000000               0.000000000              -0.002675026               0.007031913              -0.000034291              -0.001882119               0.002971321               0.001089201               0.000000000               0.000000000               0.000000000               0.000000000              -0.002276983               0.006502239              -0.000078110              -0.001666644               0.002722939               0.001056295               0.000000000               0.000000000               0.000000000               0.000000000              -0.001856402               0.006008472              -0.000091470              -0.001447206               0.002485206               0.001038000               0.000000000               0.000000000               0.000000000               0.000000000              -0.001442720               0.005560600              -0.000096445              -0.001236092               0.002265545               0.001029453               0.000000000               0.000000000               0.000000000               0.000000000              -0.001053949               0.005163634              -0.000095956              -0.001040682               0.002068088               0.001027406               0.000000000               0.000000000               0.000000000               0.000000000              -0.000698819               0.004827913              -0.000089056              -0.000865544               0.001897803               0.001032259               0.000000000               0.000000000               0.000000000               0.000000000              -0.000394604               0.004568750              -0.000077111              -0.000719068               0.001762591               0.001043522               0.000000000               0.000000000               0.000000000               0.000000000              -0.000161520               0.004395559              -0.000052225              -0.000610013               0.001668509               0.001058496               0.000000000               0.000000000               0.000000000               0.000000000              -0.000012561               0.004307005              -0.000022468              -0.000543085               0.001616682               0.001073598               0.000000000               0.000000000               0.000000000               0.000000000               0.000055000               0.004292942               0.000001711              -0.000515992               0.001602964               0.001086972               0.000000000               0.000000000               0.000000000               0.000000000               0.000051939               0.004332152               0.000009208              -0.000522040               0.001618050               0.001096009               0.000000000               0.000000000               0.000000000               0.000000000               0.000035864               0.004378053               0.000011207              -0.000533806               0.001637272               0.001103466               0.000000000               0.000000000               0.000000000               0.000000000              -0.000989788               0.005477724               0.001762185              -0.001055884               0.002177851               0.001121966               0.000000000               0.000000000               0.000000000               0.000000000              -0.002553733               0.006681214               0.001387539              -0.001792798               0.002824648               0.001031850               0.000000000               0.000000000               0.000000000               0.000000000              -0.003764686               0.007837347               0.000950779              -0.002391420               0.003409563               0.001018143               0.000000000               0.000000000               0.000000000               0.000000000              -0.003681279               0.007707841               0.000685899              -0.002343954               0.003350573               0.001006619               0.000000000               0.000000000               0.000000000               0.000000000              -0.003264583               0.007285588               0.000518053              -0.002134912               0.003140142               0.001005230               0.000000000               0.000000000               0.000000000               0.000000000              -0.002772240               0.006817905               0.000397735              -0.001891823               0.002903220               0.001011397               0.000000000               0.000000000               0.000000000               0.000000000              -0.002259902               0.006355637               0.000300992              -0.001641914               0.002665829               0.001023915               0.000000000               0.000000000               0.000000000               0.000000000              -0.001748353               0.005912461               0.000228795              -0.001394686               0.002435696               0.001041010               0.000000000               0.000000000               0.000000000               0.000000000              -0.001264928               0.005510874               0.000176237              -0.001163204               0.002224674               0.001061470               0.000000000               0.000000000               0.000000000               0.000000000              -0.000823530               0.005161354               0.000133762              -0.000953991               0.002038431               0.001084440               0.000000000               0.000000000               0.000000000               0.000000000              -0.000437914               0.004880929               0.000093992              -0.000774332               0.001885071               0.001110739               0.000000000               0.000000000               0.000000000               0.000000000              -0.000135364               0.004681026               0.000055410              -0.000635888               0.001772289               0.001136401               0.000000000               0.000000000               0.000000000               0.000000000               0.000073579               0.004565874               0.000028762              -0.000543141               0.001702990               0.001159849               0.000000000               0.000000000               0.000000000               0.000000000               0.000191996               0.004537647               0.000013572              -0.000495206               0.001677603               0.001182397               0.000000000               0.000000000               0.000000000               0.000000000               0.000229535               0.004588719               0.000006324              -0.000487513               0.001692062               0.001204549               0.000000000               0.000000000               0.000000000               0.000000000               0.000209916               0.004692214               0.000004579              -0.000507807               0.001733325               0.001225518               0.000000000               0.000000000               0.000000000               0.000000000               0.000180960               0.004760759               0.000004205              -0.000527234               0.001762648               0.001235415               0.000000000               0.000000000               0.000000000               0.000000000              -0.002318404               0.003682380               0.000922537              -0.001329696               0.001670680               0.000340983               0.000000000               0.000000000               0.000000000               0.000000000              -0.003300911               0.005296974               0.001251479              -0.001899959               0.002398960               0.000499001               0.000000000               0.000000000               0.000000000               0.000000000              -0.004178565               0.006824446               0.001409214              -0.002420012               0.003081463               0.000661451               0.000000000               0.000000000               0.000000000               0.000000000              -0.003958383               0.007043888               0.001228619              -0.002364874               0.003136230               0.000771356               0.000000000               0.000000000               0.000000000               0.000000000              -0.003463527               0.006867751               0.001031659              -0.002157286               0.003008323               0.000851037               0.000000000               0.000000000               0.000000000               0.000000000              -0.002913464               0.006581299               0.000863692              -0.001915207               0.002832146               0.000916940               0.000000000               0.000000000               0.000000000               0.000000000              -0.002365791               0.006266156               0.000716179              -0.001670437               0.002645510               0.000975073               0.000000000               0.000000000               0.000000000               0.000000000              -0.001829255               0.005936598               0.000588883              -0.001428042               0.002454860               0.001026818               0.000000000               0.000000000               0.000000000               0.000000000              -0.001316625               0.005616295               0.000488733              -0.001195768               0.002270669               0.001074901               0.000000000               0.000000000               0.000000000               0.000000000              -0.000847302               0.005328223               0.000398993              -0.000983764               0.002103978               0.001120214               0.000000000               0.000000000               0.000000000               0.000000000              -0.000431630               0.005086722               0.000307614              -0.000797700               0.001961457               0.001163757               0.000000000               0.000000000               0.000000000               0.000000000              -0.000088212               0.004897425               0.000220170              -0.000645256               0.001847544               0.001202288               0.000000000               0.000000000               0.000000000               0.000000000               0.000167478               0.004772837               0.000142918              -0.000533799               0.001768863               0.001235064               0.000000000               0.000000000               0.000000000               0.000000000               0.000336180               0.004729318               0.000076316              -0.000465096               0.001731456               0.001266360               0.000000000               0.000000000               0.000000000               0.000000000               0.000429459               0.004766421               0.000031242              -0.000434754               0.001733709               0.001298955               0.000000000               0.000000000               0.000000000               0.000000000               0.000463995               0.004866162               0.000009363              -0.000434271               0.001766795               0.001332524               0.000000000               0.000000000               0.000000000               0.000000000               0.000458936               0.004927596               0.000000863              -0.000443847               0.001790465               0.001346617               0.000000000               0.000000000               0.000000000               0.000000000              -0.003996657               0.002068517               0.000111109              -0.001757308               0.001275266              -0.000482041               0.000000000               0.000000000               0.000000000               0.000000000              -0.004141672               0.003904587               0.001062245              -0.002041196               0.001981914              -0.000059282               0.000000000               0.000000000               0.000000000               0.000000000              -0.004516907               0.005625359               0.001780083              -0.002397005               0.002674102               0.000277097               0.000000000               0.000000000               0.000000000               0.000000000              -0.004166287               0.006178584               0.001746611              -0.002334675               0.002837732               0.000503057               0.000000000               0.000000000               0.000000000               0.000000000              -0.003632871               0.006286839               0.001555861              -0.002148177               0.002811651               0.000663474               0.000000000               0.000000000               0.000000000               0.000000000              -0.003058204               0.006219266               0.001357702              -0.001924230               0.002714478               0.000790248               0.000000000               0.000000000               0.000000000               0.000000000              -0.002493375               0.006067334               0.001175498              -0.001693428               0.002586900               0.000893472               0.000000000               0.000000000               0.000000000               0.000000000              -0.001943762               0.005873081               0.001010219              -0.001463042               0.002445355               0.000982312               0.000000000               0.000000000               0.000000000               0.000000000              -0.001415967               0.005664640               0.000863522              -0.001239065               0.002301216               0.001062151               0.000000000               0.000000000               0.000000000               0.000000000              -0.000924296               0.005457097               0.000726988              -0.001028746               0.002161929               0.001133183               0.000000000               0.000000000               0.000000000               0.000000000              -0.000472457               0.005257270               0.000596276              -0.000834328               0.002030515               0.001196187               0.000000000               0.000000000               0.000000000               0.000000000              -0.000068575               0.005075841               0.000468565              -0.000660194               0.001911995               0.001251801               0.000000000               0.000000000               0.000000000               0.000000000               0.000266301               0.004936189               0.000341990              -0.000517160               0.001817766               0.001300607               0.000000000               0.000000000               0.000000000               0.000000000               0.000517436               0.004858227               0.000220916              -0.000413239               0.001757139               0.001343900               0.000000000               0.000000000               0.000000000               0.000000000               0.000683023               0.004851069               0.000118658              -0.000350249               0.001733757               0.001383507               0.000000000               0.000000000               0.000000000               0.000000000               0.000768326               0.004906465               0.000045282              -0.000325185               0.001743867               0.001418682               0.000000000               0.000000000               0.000000000               0.000000000               0.000785145               0.004946483               0.000015872              -0.000323880               0.001756771               0.001432891               0.000000000               0.000000000               0.000000000               0.000000000              -0.005914920               0.000758818              -0.000592524              -0.002312945               0.001023914              -0.001289031               0.000000000               0.000000000               0.000000000               0.000000000              -0.005109291               0.002587099               0.000808388              -0.002239368               0.001608811              -0.000630557               0.000000000               0.000000000               0.000000000               0.000000000              -0.004802128               0.004251732               0.001964830              -0.002332260               0.002194648              -0.000137611               0.000000000               0.000000000               0.000000000               0.000000000              -0.004245933               0.005038987               0.002108519              -0.002222093               0.002420343               0.000198249               0.000000000               0.000000000               0.000000000               0.000000000              -0.003652506               0.005410889               0.001973051              -0.002046046               0.002485627               0.000439580               0.000000000               0.000000000               0.000000000               0.000000000              -0.003061653               0.005566390               0.001782227              -0.001843914               0.002470082               0.000626168               0.000000000               0.000000000               0.000000000               0.000000000              -0.002487879               0.005597796               0.001589712              -0.001632676               0.002410138               0.000777463               0.000000000               0.000000000               0.000000000               0.000000000              -0.001937788               0.005568155               0.001405542              -0.001422687               0.002330262               0.000907575               0.000000000               0.000000000               0.000000000               0.000000000              -0.001412440               0.005499001               0.001232832              -0.001217038               0.002238661               0.001021623               0.000000000               0.000000000               0.000000000               0.000000000              -0.000907348               0.005398370               0.001071869              -0.001015050               0.002137788               0.001122739               0.000000000               0.000000000               0.000000000               0.000000000              -0.000430287               0.005274704               0.000919458              -0.000820694               0.002031782               0.001211088               0.000000000               0.000000000               0.000000000               0.000000000               0.000015564               0.005146561               0.000768721              -0.000637482               0.001927997               0.001290515               0.000000000               0.000000000               0.000000000               0.000000000               0.000417554               0.005031944               0.000610782              -0.000472409               0.001834768               0.001362358               0.000000000               0.000000000               0.000000000               0.000000000               0.000749504               0.004947733               0.000443058              -0.000337402               0.001761695               0.001424293               0.000000000               0.000000000               0.000000000               0.000000000               0.000988298               0.004911173               0.000276348              -0.000243284               0.001718136               0.001474852               0.000000000               0.000000000               0.000000000               0.000000000               0.001126495               0.004936760               0.000126107              -0.000194659               0.001710456               0.001515798               0.000000000               0.000000000               0.000000000               0.000000000               0.001159534               0.004960803               0.000054386              -0.000185275               0.001715343               0.001530068               0.000000000               0.000000000               0.000000000               0.000000000              -0.007950550              -0.000185195              -0.001080437              -0.002958305               0.000924363              -0.002033941               0.000000000               0.000000000               0.000000000               0.000000000              -0.006155603               0.001416469               0.000532566              -0.002485407               0.001300616              -0.001184790               0.000000000               0.000000000               0.000000000               0.000000000              -0.005052070               0.002824529               0.001932701              -0.002247588               0.001690694              -0.000556895               0.000000000               0.000000000               0.000000000               0.000000000              -0.004218939               0.003721566               0.002229198              -0.002047294               0.001922939              -0.000124355               0.000000000               0.000000000               0.000000000               0.000000000              -0.003523014               0.004292448               0.002176723              -0.001857682               0.002050028               0.000192346               0.000000000               0.000000000               0.000000000               0.000000000              -0.002906307               0.004647735               0.002025363              -0.001670829               0.002106172               0.000435343               0.000000000               0.000000000               0.000000000               0.000000000              -0.002337678               0.004869325               0.001846511              -0.001485292               0.002118189               0.000632897               0.000000000               0.000000000               0.000000000               0.000000000              -0.001794224               0.005012645               0.001664909              -0.001299412               0.002104002               0.000804590               0.000000000               0.000000000               0.000000000               0.000000000              -0.001273908               0.005090556               0.001495254              -0.001114033               0.002068179               0.000954146               0.000000000               0.000000000               0.000000000               0.000000000              -0.000765474               0.005116255               0.001336415              -0.000926583               0.002014262               0.001087679               0.000000000               0.000000000               0.000000000               0.000000000              -0.000270439               0.005105982               0.001183747              -0.000739661               0.001948530               0.001208869               0.000000000               0.000000000               0.000000000               0.000000000               0.000210809               0.005074790               0.001033104              -0.000555294               0.001876678               0.001321383               0.000000000               0.000000000               0.000000000               0.000000000               0.000665193               0.005028320               0.000864858              -0.000379092               0.001802454               0.001423362               0.000000000               0.000000000               0.000000000               0.000000000               0.001069907               0.004977855               0.000668903              -0.000221016               0.001732941               0.001511924               0.000000000               0.000000000               0.000000000               0.000000000               0.001401934               0.004950440               0.000453655              -0.000093080               0.001681157               0.001588077               0.000000000               0.000000000               0.000000000               0.000000000               0.001635972               0.004963108               0.000229451              -0.000006899               0.001656653               0.001649753               0.000000000               0.000000000               0.000000000               0.000000000               0.001727628               0.004978679               0.000117429               0.000025525               0.001651035               0.001676560               0.000000000               0.000000000               0.000000000               0.000000000              -0.009909164              -0.000775932              -0.001263814              -0.003618942               0.000947663              -0.002671279               0.000000000               0.000000000               0.000000000               0.000000000              -0.007192763               0.000461394               0.000287821              -0.002754958               0.001072110              -0.001682848               0.000000000               0.000000000               0.000000000               0.000000000              -0.005277079               0.001483325               0.001681154              -0.002164317               0.001215872              -0.000948445               0.000000000               0.000000000               0.000000000               0.000000000              -0.004122712               0.002376449               0.002058054              -0.001843070               0.001406496              -0.000436574               0.000000000               0.000000000               0.000000000               0.000000000              -0.003289902               0.003067278               0.002082221              -0.001617120               0.001561454              -0.000055666               0.000000000               0.000000000               0.000000000               0.000000000              -0.002622769               0.003586085               0.001980956              -0.001431796               0.001672614               0.000240818               0.000000000               0.000000000               0.000000000               0.000000000              -0.002050012               0.003977685               0.001836295              -0.001265963               0.001747869               0.000481906               0.000000000               0.000000000               0.000000000               0.000000000              -0.001515714               0.004275655               0.001682573              -0.001102848               0.001792820               0.000689972               0.000000000               0.000000000               0.000000000               0.000000000              -0.001001609               0.004497483               0.001536613              -0.000937787               0.001811741               0.000873954               0.000000000               0.000000000               0.000000000               0.000000000              -0.000499147               0.004654493               0.001400932              -0.000768991               0.001807812               0.001038821               0.000000000               0.000000000               0.000000000               0.000000000               0.000004782               0.004766944               0.001272709              -0.000594074               0.001786990               0.001192916               0.000000000               0.000000000               0.000000000               0.000000000               0.000511593               0.004845923               0.001142644              -0.000413893               0.001753255               0.001339363               0.000000000               0.000000000               0.000000000               0.000000000               0.001011054               0.004896606               0.000986982              -0.000232931               0.001709829               0.001476898               0.000000000               0.000000000               0.000000000               0.000000000               0.001492482               0.004924024               0.000794625              -0.000055823               0.001659932               0.001604110               0.000000000               0.000000000               0.000000000               0.000000000               0.001942133               0.004944996               0.000566955               0.000110174               0.001611591               0.001721765               0.000000000               0.000000000               0.000000000               0.000000000               0.002334465               0.004973595               0.000302547               0.000253722               0.001573274               0.001826997               0.000000000               0.000000000               0.000000000               0.000000000               0.002555322               0.005005952               0.000169982               0.000332498               0.001557801               0.001890300               0.000000000               0.000000000               0.000000000               0.000000000              -0.011548013              -0.001080207              -0.001105454              -0.004195476               0.001038416              -0.003157060               0.000000000               0.000000000               0.000000000               0.000000000              -0.008083024              -0.000230344               0.000114958              -0.003002339               0.000923992              -0.002078347               0.000000000               0.000000000               0.000000000               0.000000000              -0.005463392               0.000384788               0.001236177              -0.002096869               0.000827213              -0.001269656               0.000000000               0.000000000               0.000000000               0.000000000              -0.003996126               0.001200138               0.001585396              -0.001648562               0.000949559              -0.000699003               0.000000000               0.000000000               0.000000000               0.000000000              -0.003025697               0.001941407               0.001648236              -0.001377310               0.001106231              -0.000271079               0.000000000               0.000000000               0.000000000               0.000000000              -0.002301258               0.002567547               0.001593381              -0.001183913               0.001250477               0.000066564               0.000000000               0.000000000               0.000000000               0.000000000              -0.001705834               0.003084171               0.001494406              -0.001025207               0.001369782               0.000344575               0.000000000               0.000000000               0.000000000               0.000000000              -0.001172942               0.003504643               0.001384680              -0.000877932               0.001460846               0.000582914               0.000000000               0.000000000               0.000000000               0.000000000              -0.000665859               0.003849332               0.001276804              -0.000730862               0.001526718               0.000795856               0.000000000               0.000000000               0.000000000               0.000000000              -0.000168394               0.004126758               0.001178828              -0.000578992               0.001568569               0.000989577               0.000000000               0.000000000               0.000000000               0.000000000               0.000336286               0.004352332               0.001089837              -0.000417934               0.001590074               0.001172140               0.000000000               0.000000000               0.000000000               0.000000000               0.000853732               0.004541093               0.000997047              -0.000247487               0.001596178               0.001348691               0.000000000               0.000000000               0.000000000               0.000000000               0.001390454               0.004697687               0.000879513              -0.000065791               0.001587810               0.001522019               0.000000000               0.000000000               0.000000000               0.000000000               0.001947098               0.004816018               0.000727375               0.000128158               0.001562604               0.001690762               0.000000000               0.000000000               0.000000000               0.000000000               0.002524167               0.004902105               0.000535743               0.000333796               0.001522753               0.001856550               0.000000000               0.000000000               0.000000000               0.000000000               0.003110727               0.004961485               0.000293614               0.000546331               0.001471701               0.002018033               0.000000000               0.000000000               0.000000000               0.000000000               0.003508771               0.005022552               0.000173125               0.000687963               0.001444846               0.002132809               0.000000000               0.000000000               0.000000000               0.000000000              -0.012641616              -0.001195775              -0.000640629              -0.004591131               0.001131778              -0.003459354               0.000000000               0.000000000               0.000000000               0.000000000              -0.008688912              -0.000638606               0.000030313              -0.003178514               0.000846630              -0.002331884               0.000000000               0.000000000               0.000000000               0.000000000              -0.005589691              -0.000338157               0.000654383              -0.002053863               0.000571898              -0.001481965               0.000000000               0.000000000               0.000000000               0.000000000              -0.003886854               0.000387980               0.000864036              -0.001506066               0.000631344              -0.000874722               0.000000000               0.000000000               0.000000000               0.000000000              -0.002815013               0.001143982               0.000913411              -0.001198626               0.000780864              -0.000417762               0.000000000               0.000000000               0.000000000               0.000000000              -0.002049880               0.001825322               0.000890399              -0.000996868               0.000940723              -0.000056145               0.000000000               0.000000000               0.000000000               0.000000000              -0.001433923               0.002411641               0.000839999              -0.000839174               0.001083597               0.000244422               0.000000000               0.000000000               0.000000000               0.000000000              -0.000894044               0.002910501               0.000782440              -0.000699078               0.001203183               0.000504105               0.000000000               0.000000000               0.000000000               0.000000000              -0.000385584               0.003338478               0.000724458              -0.000561903               0.001300116               0.000738213               0.000000000               0.000000000               0.000000000               0.000000000               0.000111934               0.003702010               0.000674102              -0.000420775               0.001374249               0.000953474               0.000000000               0.000000000               0.000000000               0.000000000               0.000613751               0.004015559               0.000629172              -0.000271788               0.001429102               0.001157314               0.000000000               0.000000000               0.000000000               0.000000000               0.001133717               0.004293230               0.000582545              -0.000111510               0.001468232               0.001356722               0.000000000               0.000000000               0.000000000               0.000000000               0.001688978               0.004530352               0.000522305               0.000067072               0.001487745               0.001554817               0.000000000               0.000000000               0.000000000               0.000000000               0.002298121               0.004719119               0.000440558               0.000271903               0.001482390               0.001754292               0.000000000               0.000000000               0.000000000               0.000000000               0.002976939               0.004858673               0.000331529               0.000509013               0.001449870               0.001958883               0.000000000               0.000000000               0.000000000               0.000000000               0.003738089               0.004944974               0.000184642               0.000783654               0.001387090               0.002170744               0.000000000               0.000000000               0.000000000               0.000000000               0.004305434               0.005032399               0.000111893               0.000985478               0.001348957               0.002334435               0.000000000               0.000000000               0.000000000               0.000000000              -0.013027357              -0.001220036               0.000000000              -0.004732751               0.001170897              -0.003561854               0.000000000               0.000000000               0.000000000               0.000000000              -0.008905297              -0.000773208              -0.000000000              -0.003242833               0.000823203              -0.002419630               0.000000000               0.000000000               0.000000000               0.000000000              -0.005635437              -0.000592189              -0.000000000              -0.002039264               0.000482355              -0.001556909               0.000000000               0.000000000               0.000000000               0.000000000              -0.003844299               0.000098888              -0.000000000              -0.001453972               0.000517616              -0.000936356               0.000000000               0.000000000               0.000000000               0.000000000              -0.002736689               0.000854890               0.000000000              -0.001133118               0.000662665              -0.000470453               0.000000000               0.000000000               0.000000000               0.000000000              -0.001958383               0.001547909               0.000000000              -0.000927880               0.000825257              -0.000102623               0.000000000               0.000000000               0.000000000               0.000000000              -0.001333277               0.002157499              -0.000000000              -0.000769665               0.000975714               0.000206049               0.000000000               0.000000000               0.000000000               0.000000000              -0.000788128               0.002683797               0.000000000              -0.000631021               0.001104930               0.000473909               0.000000000               0.000000000               0.000000000               0.000000000              -0.000275700               0.003140930              -0.000000000              -0.000496003               0.001212300               0.000716298               0.000000000               0.000000000               0.000000000               0.000000000               0.000224465               0.003540279              -0.000000000              -0.000358360               0.001299535               0.000941175               0.000000000               0.000000000               0.000000000               0.000000000               0.000724743               0.003891085               0.000000000              -0.000214607               0.001368551               0.001153944               0.000000000               0.000000000               0.000000000               0.000000000               0.001245743               0.004204684               0.000000000              -0.000058432               0.001421025               0.001362593               0.000000000               0.000000000               0.000000000               0.000000000               0.001805530               0.004474307               0.000000000               0.000117784               0.001452159               0.001569944               0.000000000               0.000000000               0.000000000               0.000000000               0.002431919               0.004692033              -0.000000000               0.000325462               0.001455508               0.001780970               0.000000000               0.000000000               0.000000000               0.000000000               0.003149580               0.004853582              -0.000000000               0.000574389               0.001426382               0.002000770               0.000000000               0.000000000               0.000000000               0.000000000               0.003983467               0.004947078               0.000000000               0.000875407               0.001357207               0.002232614               0.000000000               0.000000000               0.000000000               0.000000000               0.004624489               0.005041986              -0.000000000               0.001103924               0.001312670               0.002416595               0.000000000               0.000000000               0.000000000               0.000000000               0.001952791               0.020810075               0.000000000              -0.001868958               0.007559608               0.005690650               0.000000000               0.000000000               0.000000000               0.000000000               0.001852455               0.015935753               0.000000000              -0.001297295               0.005744296               0.004447001               0.000000000               0.000000000               0.000000000               0.000000000               0.002357153               0.011964036              -0.000000000              -0.000611571               0.004191829               0.003580258               0.000000000               0.000000000               0.000000000               0.000000000               0.002155565               0.009710571              -0.000000000              -0.000405484               0.003371986               0.002966502               0.000000000               0.000000000               0.000000000               0.000000000               0.001771293               0.008275822              -0.000000000              -0.000370242               0.002881994               0.002511752               0.000000000               0.000000000               0.000000000               0.000000000               0.001381971               0.007270541               0.000000000              -0.000390577               0.002553682               0.002163105               0.000000000               0.000000000               0.000000000               0.000000000               0.001040773               0.006497979               0.000000000              -0.000421957               0.002306624               0.001884667               0.000000000               0.000000000               0.000000000               0.000000000               0.000764110               0.005851703              -0.000000000              -0.000444920               0.002098855               0.001653935               0.000000000               0.000000000               0.000000000               0.000000000               0.000542360               0.005270227              -0.000000000              -0.000455392               0.001908522               0.001453130               0.000000000               0.000000000               0.000000000               0.000000000               0.000350725               0.004719744              -0.000000000              -0.000458445               0.001726047               0.001267602               0.000000000               0.000000000               0.000000000               0.000000000               0.000188809               0.004182869              -0.000000000              -0.000452054               0.001544960               0.001092906               0.000000000               0.000000000               0.000000000               0.000000000               0.000064808               0.003643484               0.000000000              -0.000431131               0.001358193               0.000927062               0.000000000               0.000000000               0.000000000               0.000000000              -0.000019704               0.003086354               0.000000000              -0.000393182               0.001159835               0.000766653               0.000000000               0.000000000               0.000000000               0.000000000              -0.000069664               0.002495841               0.000000000              -0.000338103               0.000944640               0.000606537               0.000000000               0.000000000               0.000000000               0.000000000              -0.000086633               0.001853464              -0.000000000              -0.000264170               0.000705872               0.000441702               0.000000000               0.000000000               0.000000000               0.000000000              -0.000061277               0.001137465              -0.000000000              -0.000165162               0.000434205               0.000269044               0.000000000               0.000000000               0.000000000               0.000000000              -0.000094990               0.000590869              -0.000000000              -0.000109480               0.000233447               0.000123968               0.000000000               0.000000000               0.000000000               0.000000000               0.002001638               0.020358265              -0.001367461              -0.001794165               0.007384075               0.005589910               0.000000000               0.000000000               0.000000000               0.000000000               0.001788403               0.015652173              -0.000608070              -0.001285867               0.005645961               0.004360094               0.000000000               0.000000000               0.000000000               0.000000000               0.002174341               0.011853704               0.000138797              -0.000666333               0.004173306               0.003506973               0.000000000               0.000000000               0.000000000               0.000000000               0.001926199               0.009684815               0.000443543              -0.000488276               0.003390998               0.002902722               0.000000000               0.000000000               0.000000000               0.000000000               0.001530981               0.008296311               0.000558950              -0.000462920               0.002919716               0.002456796               0.000000000               0.000000000               0.000000000               0.000000000               0.001150690               0.007312485               0.000590084              -0.000482551               0.002598321               0.002115770               0.000000000               0.000000000               0.000000000               0.000000000               0.000828911               0.006548039               0.000581642              -0.000507662               0.002351878               0.001844216               0.000000000               0.000000000               0.000000000               0.000000000               0.000570178               0.005902886               0.000554354              -0.000524043               0.002142290               0.001618247               0.000000000               0.000000000               0.000000000               0.000000000               0.000366671               0.005322250               0.000520904              -0.000527778               0.001949992               0.001422213               0.000000000               0.000000000               0.000000000               0.000000000               0.000200280               0.004774780               0.000487886              -0.000521741               0.001765491               0.001243750               0.000000000               0.000000000               0.000000000               0.000000000               0.000066989               0.004239272               0.000453645              -0.000504787               0.001581339               0.001076552               0.000000000               0.000000000               0.000000000               0.000000000              -0.000029727               0.003702847               0.000416642              -0.000474003               0.001392271               0.000918268               0.000000000               0.000000000               0.000000000               0.000000000              -0.000091863               0.003155264               0.000374070              -0.000428856               0.001194696               0.000765840               0.000000000               0.000000000               0.000000000               0.000000000              -0.000120726               0.002583037               0.000319483              -0.000368151               0.000983721               0.000615569               0.000000000               0.000000000               0.000000000               0.000000000              -0.000117403               0.001969148               0.000245812              -0.000290169               0.000753099               0.000462930               0.000000000               0.000000000               0.000000000               0.000000000              -0.000075267               0.001299474               0.000140962              -0.000190659               0.000496707               0.000306048               0.000000000               0.000000000               0.000000000               0.000000000              -0.000096196               0.000800633               0.000090004              -0.000136152               0.000312259               0.000176107               0.000000000               0.000000000               0.000000000               0.000000000               0.002118681               0.019070912              -0.002532930              -0.001589356               0.006886692               0.005297336               0.000000000               0.000000000               0.000000000               0.000000000               0.001594278               0.014848352              -0.001124221              -0.001258187               0.005368797               0.004110610               0.000000000               0.000000000               0.000000000               0.000000000               0.001647352               0.011541277               0.000244990              -0.000824900               0.004122021               0.003297120               0.000000000               0.000000000               0.000000000               0.000000000               0.001284078               0.009615609               0.000781097              -0.000720420               0.003445311               0.002724891               0.000000000               0.000000000               0.000000000               0.000000000               0.000877590               0.008346804               0.000976831              -0.000714253               0.003020324               0.002306072               0.000000000               0.000000000               0.000000000               0.000000000               0.000531132               0.007415402               0.001025085              -0.000727749               0.002714359               0.001986609               0.000000000               0.000000000               0.000000000               0.000000000               0.000260971               0.006671067               0.001005992              -0.000736018               0.002469006               0.001732988               0.000000000               0.000000000               0.000000000               0.000000000               0.000060923               0.006031070               0.000954084              -0.000731036               0.002254015               0.001522979               0.000000000               0.000000000               0.000000000               0.000000000              -0.000081132               0.005451215               0.000894569              -0.000711825               0.002054328               0.001342503               0.000000000               0.000000000               0.000000000               0.000000000              -0.000182827               0.004907874               0.000834230              -0.000682043               0.001863289               0.001181246               0.000000000               0.000000000               0.000000000               0.000000000              -0.000248511               0.004380311               0.000769138              -0.000640729               0.001673665               0.001032936               0.000000000               0.000000000               0.000000000               0.000000000              -0.000279310               0.003858978               0.000700555              -0.000587112               0.001482017               0.000894905               0.000000000               0.000000000               0.000000000               0.000000000              -0.000280878               0.003338076               0.000622863              -0.000522588               0.001286877               0.000764289               0.000000000               0.000000000               0.000000000               0.000000000              -0.000249866               0.002810964               0.000523040              -0.000445069               0.001085335               0.000640266               0.000000000               0.000000000               0.000000000               0.000000000              -0.000187722               0.002271098               0.000392018              -0.000354282               0.000875119               0.000520837               0.000000000               0.000000000               0.000000000               0.000000000              -0.000101323               0.001723475               0.000219087              -0.000253430               0.000658963               0.000405533               0.000000000               0.000000000               0.000000000               0.000000000              -0.000094005               0.001342684               0.000136299              -0.000203087               0.000515252               0.000312166               0.000000000               0.000000000               0.000000000               0.000000000               0.002209385               0.017125832              -0.003337486              -0.001312208               0.006145956               0.004833748               0.000000000               0.000000000               0.000000000               0.000000000               0.001250320               0.013647215              -0.001482941              -0.001237030               0.004961369               0.003724340               0.000000000               0.000000000               0.000000000               0.000000000               0.000839396               0.011069654               0.000291581              -0.001068931               0.004046158               0.002977227               0.000000000               0.000000000               0.000000000               0.000000000               0.000350517               0.009493066               0.000945626              -0.001055187               0.003516053               0.002460866               0.000000000               0.000000000               0.000000000               0.000000000              -0.000037515               0.008381411               0.001169648              -0.001061742               0.003147690               0.002085947               0.000000000               0.000000000               0.000000000               0.000000000              -0.000309377               0.007519839               0.001215504              -0.001055994               0.002858586               0.001802592               0.000000000               0.000000000               0.000000000               0.000000000              -0.000492776               0.006801253               0.001183251              -0.001034945               0.002612043               0.001577098               0.000000000               0.000000000               0.000000000               0.000000000              -0.000603245               0.006169281               0.001112846              -0.000997375               0.002388865               0.001391490               0.000000000               0.000000000               0.000000000               0.000000000              -0.000647831               0.005597479               0.001036629              -0.000942620               0.002180014               0.001237394               0.000000000               0.000000000               0.000000000               0.000000000              -0.000648903               0.005065116               0.000961052              -0.000876476               0.001980514               0.001104037               0.000000000               0.000000000               0.000000000               0.000000000              -0.000619761               0.004555548               0.000878555              -0.000801852               0.001785785               0.000983933               0.000000000               0.000000000               0.000000000               0.000000000              -0.000561462               0.004063646               0.000791581              -0.000718503               0.001594036               0.000875533               0.000000000               0.000000000               0.000000000               0.000000000              -0.000476430               0.003586266               0.000694367              -0.000626943               0.001404391               0.000777448               0.000000000               0.000000000               0.000000000               0.000000000              -0.000365105               0.003126451               0.000570776              -0.000527719               0.001218046               0.000690327               0.000000000               0.000000000               0.000000000               0.000000000              -0.000237910               0.002695260               0.000415105              -0.000426123               0.001040452               0.000614329               0.000000000               0.000000000               0.000000000               0.000000000              -0.000116939               0.002309646               0.000225528              -0.000332557               0.000880727               0.000548170               0.000000000               0.000000000               0.000000000               0.000000000              -0.000084402               0.002076217               0.000133608              -0.000291177               0.000789124               0.000497947               0.000000000               0.000000000               0.000000000               0.000000000               0.002144628               0.014760207              -0.003701067              -0.001040790               0.005266949               0.004226159               0.000000000               0.000000000               0.000000000               0.000000000               0.000734225               0.012208575              -0.001663875              -0.001250735               0.004486396               0.003235661               0.000000000               0.000000000               0.000000000               0.000000000              -0.000151387               0.010493339               0.000254704              -0.001368434               0.003953889               0.002585455               0.000000000               0.000000000               0.000000000               0.000000000              -0.000711752               0.009291402               0.000911535              -0.001428329               0.003573213               0.002144884               0.000000000               0.000000000               0.000000000               0.000000000              -0.001028604               0.008343889               0.001116294              -0.001428709               0.003257505               0.001828795               0.000000000               0.000000000               0.000000000               0.000000000              -0.001185969               0.007554113               0.001148679              -0.001389000               0.002981012               0.001592013               0.000000000               0.000000000               0.000000000               0.000000000              -0.001242756               0.006870768               0.001106609              -0.001324876               0.002731858               0.001406982               0.000000000               0.000000000               0.000000000               0.000000000              -0.001228142               0.006259876               0.001031670              -0.001243035               0.002500949               0.001257914               0.000000000               0.000000000               0.000000000               0.000000000              -0.001153233               0.005706615               0.000954540              -0.001145786               0.002284115               0.001138328               0.000000000               0.000000000               0.000000000               0.000000000              -0.001038091               0.005193617               0.000878252              -0.001038484               0.002077349               0.001038866               0.000000000               0.000000000               0.000000000               0.000000000              -0.000899179               0.004710261               0.000794682              -0.000925973               0.001878729               0.000952756               0.000000000               0.000000000               0.000000000               0.000000000              -0.000738875               0.004257092               0.000705685              -0.000809213               0.001688754               0.000879541               0.000000000               0.000000000               0.000000000               0.000000000              -0.000562165               0.003836974               0.000603615              -0.000690432               0.001509123               0.000818691               0.000000000               0.000000000               0.000000000               0.000000000              -0.000382789               0.003460452               0.000478775              -0.000576101               0.001345506               0.000769405               0.000000000               0.000000000               0.000000000               0.000000000              -0.000218702               0.003148988               0.000329544              -0.000475636               0.001208197               0.000732562               0.000000000               0.000000000               0.000000000               0.000000000              -0.000095889               0.002921501               0.000167505              -0.000401145               0.001107539               0.000706394               0.000000000               0.000000000               0.000000000               0.000000000              -0.000054485               0.002818081               0.000090501              -0.000372691               0.001063581               0.000690890               0.000000000               0.000000000               0.000000000               0.000000000               0.001804948               0.012221912              -0.003636365              -0.000850885               0.004357557               0.003506673               0.000000000               0.000000000               0.000000000               0.000000000               0.000050491               0.010691589              -0.001694691              -0.001317512               0.004002998               0.002685485               0.000000000               0.000000000               0.000000000               0.000000000              -0.001208470               0.009862574               0.000110297              -0.001685994               0.003849490               0.002163496               0.000000000               0.000000000               0.000000000               0.000000000              -0.001744619               0.009002191               0.000683077              -0.001779502               0.003593867               0.001814366               0.000000000               0.000000000               0.000000000               0.000000000              -0.001923131               0.008201221               0.000846380              -0.001746323               0.003315821               0.001569498               0.000000000               0.000000000               0.000000000               0.000000000              -0.001927180               0.007478590               0.000872812              -0.001657512               0.003045342               0.001387830               0.000000000               0.000000000               0.000000000               0.000000000              -0.001834234               0.006840346               0.000838407              -0.001542877               0.002794385               0.001251507               0.000000000               0.000000000               0.000000000               0.000000000              -0.001674142               0.006267201               0.000774539              -0.001411200               0.002559446               0.001148246               0.000000000               0.000000000               0.000000000               0.000000000              -0.001470349               0.005741874               0.000711279              -0.001269112               0.002336976               0.001067864               0.000000000               0.000000000               0.000000000               0.000000000              -0.001244612               0.005253500               0.000649940              -0.001123414               0.002125621               0.001002206               0.000000000               0.000000000               0.000000000               0.000000000              -0.001002901               0.004803967               0.000579884              -0.000976581               0.001926833               0.000950252               0.000000000               0.000000000               0.000000000               0.000000000              -0.000757874               0.004398598               0.000500935              -0.000834026               0.001744193               0.000910168               0.000000000               0.000000000               0.000000000               0.000000000              -0.000522078               0.004045568               0.000407183              -0.000701474               0.001582333               0.000880860               0.000000000               0.000000000               0.000000000               0.000000000              -0.000313380               0.003756497               0.000298965              -0.000587078               0.001447846               0.000860768               0.000000000               0.000000000               0.000000000               0.000000000              -0.000151555               0.003548360               0.000184703              -0.000500377               0.001349567               0.000849190               0.000000000               0.000000000               0.000000000               0.000000000              -0.000052623               0.003432203               0.000082178              -0.000448758               0.001293642               0.000844884               0.000000000               0.000000000               0.000000000               0.000000000              -0.000020705               0.003400081               0.000037403              -0.000432773               0.001277607               0.000844833               0.000000000               0.000000000               0.000000000               0.000000000               0.001131265               0.009720894              -0.003225380              -0.000790888               0.003503894               0.002713006               0.000000000               0.000000000               0.000000000               0.000000000              -0.000766028               0.009219375              -0.001628113              -0.001439680               0.003552987               0.002113307               0.000000000               0.000000000               0.000000000               0.000000000              -0.002218943               0.009204148              -0.000148887              -0.001982617               0.003728891               0.001746274               0.000000000               0.000000000               0.000000000               0.000000000              -0.002619478               0.008625961               0.000299288              -0.002060544               0.003562140               0.001501596               0.000000000               0.000000000               0.000000000               0.000000000              -0.002608022               0.007947667               0.000433585              -0.001971462               0.003306350               0.001334888               0.000000000               0.000000000               0.000000000               0.000000000              -0.002434570               0.007297321               0.000472498              -0.001825124               0.003040791               0.001215667               0.000000000               0.000000000               0.000000000               0.000000000              -0.002184201               0.006711981               0.000468981              -0.001658069               0.002789994               0.001131925               0.000000000               0.000000000               0.000000000               0.000000000              -0.001883449               0.006178888               0.000436076              -0.001478651               0.002552492               0.001073841               0.000000000               0.000000000               0.000000000               0.000000000              -0.001561676               0.005687240               0.000399628              -0.001296530               0.002327905               0.001031374               0.000000000               0.000000000               0.000000000               0.000000000              -0.001242073               0.005236367               0.000363564              -0.001120321               0.002118878               0.000998558               0.000000000               0.000000000               0.000000000               0.000000000              -0.000929104               0.004832722               0.000319836              -0.000952502               0.001928392               0.000975890               0.000000000               0.000000000               0.000000000               0.000000000              -0.000635025               0.004493137               0.000266184              -0.000799775               0.001764289               0.000964514               0.000000000               0.000000000               0.000000000               0.000000000              -0.000381738               0.004223057               0.000199178              -0.000671032               0.001631349               0.000960317               0.000000000               0.000000000               0.000000000               0.000000000              -0.000189065               0.004030202               0.000125489              -0.000574673               0.001534945               0.000960272               0.000000000               0.000000000               0.000000000               0.000000000              -0.000062927               0.003918274               0.000060186              -0.000513380               0.001477205               0.000963824               0.000000000               0.000000000               0.000000000               0.000000000              -0.000006051               0.003878777               0.000017254              -0.000487115               0.001455284               0.000968169               0.000000000               0.000000000               0.000000000               0.000000000               0.000005714               0.003885040               0.000000891              -0.000483486               0.001456162               0.000972676               0.000000000               0.000000000               0.000000000               0.000000000               0.000159758               0.007418033              -0.002564580              -0.000867345               0.002761767               0.001894422               0.000000000               0.000000000               0.000000000               0.000000000              -0.001668366               0.007879310              -0.001512087              -0.001610548               0.003163259               0.001552711               0.000000000               0.000000000               0.000000000               0.000000000              -0.003084631               0.008521681              -0.000512042              -0.002221941               0.003581179               0.001359238               0.000000000               0.000000000               0.000000000               0.000000000              -0.003250521               0.008161733              -0.000176327              -0.002239156               0.003466936               0.001227779               0.000000000               0.000000000               0.000000000               0.000000000              -0.003022831               0.007598490              -0.000038975              -0.002083368               0.003227260               0.001143893               0.000000000               0.000000000               0.000000000               0.000000000              -0.002675026               0.007031913               0.000034291              -0.001882119               0.002971321               0.001089201               0.000000000               0.000000000               0.000000000               0.000000000              -0.002276983               0.006502239               0.000078110              -0.001666644               0.002722939               0.001056295               0.000000000               0.000000000               0.000000000               0.000000000              -0.001856402               0.006008472               0.000091470              -0.001447206               0.002485206               0.001038000               0.000000000               0.000000000               0.000000000               0.000000000              -0.001442720               0.005560600               0.000096445              -0.001236092               0.002265545               0.001029453               0.000000000               0.000000000               0.000000000               0.000000000              -0.001053949               0.005163634               0.000095956              -0.001040682               0.002068088               0.001027406               0.000000000               0.000000000               0.000000000               0.000000000              -0.000698819               0.004827913               0.000089056              -0.000865544               0.001897803               0.001032259               0.000000000               0.000000000               0.000000000               0.000000000              -0.000394604               0.004568750               0.000077111              -0.000719068               0.001762591               0.001043522               0.000000000               0.000000000               0.000000000               0.000000000              -0.000161520               0.004395559               0.000052225              -0.000610013               0.001668509               0.001058496               0.000000000               0.000000000               0.000000000               0.000000000              -0.000012561               0.004307005               0.000022468              -0.000543085               0.001616682               0.001073598               0.000000000               0.000000000               0.000000000               0.000000000               0.000055000               0.004292942              -0.000001711              -0.000515992               0.001602964               0.001086972               0.000000000               0.000000000               0.000000000               0.000000000               0.000051939               0.004332152              -0.000009208              -0.000522040               0.001618050               0.001096009               0.000000000               0.000000000               0.000000000               0.000000000               0.000035864               0.004378053              -0.000011207              -0.000533806               0.001637272               0.001103466               0.000000000               0.000000000               0.000000000               0.000000000              -0.000989788               0.005477724              -0.001762185              -0.001055884               0.002177851               0.001121966               0.000000000               0.000000000               0.000000000               0.000000000              -0.002553733               0.006681214              -0.001387539              -0.001792798               0.002824648               0.001031850               0.000000000               0.000000000               0.000000000               0.000000000              -0.003764686               0.007837347              -0.000950779              -0.002391420               0.003409563               0.001018143               0.000000000               0.000000000               0.000000000               0.000000000              -0.003681279               0.007707841              -0.000685899              -0.002343954               0.003350573               0.001006619               0.000000000               0.000000000               0.000000000               0.000000000              -0.003264583               0.007285588              -0.000518053              -0.002134912               0.003140142               0.001005230               0.000000000               0.000000000               0.000000000               0.000000000              -0.002772240               0.006817905              -0.000397735              -0.001891823               0.002903220               0.001011397               0.000000000               0.000000000               0.000000000               0.000000000              -0.002259902               0.006355637              -0.000300992              -0.001641914               0.002665829               0.001023915               0.000000000               0.000000000               0.000000000               0.000000000              -0.001748353               0.005912461              -0.000228795              -0.001394686               0.002435696               0.001041010               0.000000000               0.000000000               0.000000000               0.000000000              -0.001264928               0.005510874              -0.000176237              -0.001163204               0.002224674               0.001061470               0.000000000               0.000000000               0.000000000               0.000000000              -0.000823530               0.005161354              -0.000133762              -0.000953991               0.002038431               0.001084440               0.000000000               0.000000000               0.000000000               0.000000000              -0.000437914               0.004880929              -0.000093992              -0.000774332               0.001885071               0.001110739               0.000000000               0.000000000               0.000000000               0.000000000              -0.000135364               0.004681026              -0.000055410              -0.000635888               0.001772289               0.001136401               0.000000000               0.000000000               0.000000000               0.000000000               0.000073579               0.004565874              -0.000028762              -0.000543141               0.001702990               0.001159849               0.000000000               0.000000000               0.000000000               0.000000000               0.000191996               0.004537647              -0.000013572              -0.000495206               0.001677603               0.001182397               0.000000000               0.000000000               0.000000000               0.000000000               0.000229535               0.004588719              -0.000006324              -0.000487513               0.001692062               0.001204549               0.000000000               0.000000000               0.000000000               0.000000000               0.000209916               0.004692214              -0.000004579              -0.000507807               0.001733325               0.001225518               0.000000000               0.000000000               0.000000000               0.000000000               0.000180960               0.004760759              -0.000004205              -0.000527234               0.001762648               0.001235415               0.000000000               0.000000000               0.000000000               0.000000000              -0.002318404               0.003682380              -0.000922537              -0.001329696               0.001670680               0.000340983               0.000000000               0.000000000               0.000000000               0.000000000              -0.003300911               0.005296974              -0.001251479              -0.001899959               0.002398960               0.000499001               0.000000000               0.000000000               0.000000000               0.000000000              -0.004178565               0.006824446              -0.001409214              -0.002420012               0.003081463               0.000661451               0.000000000               0.000000000               0.000000000               0.000000000              -0.003958383               0.007043888              -0.001228619              -0.002364874               0.003136230               0.000771356               0.000000000               0.000000000               0.000000000               0.000000000              -0.003463527               0.006867751              -0.001031659              -0.002157286               0.003008323               0.000851037               0.000000000               0.000000000               0.000000000               0.000000000              -0.002913464               0.006581299              -0.000863692              -0.001915207               0.002832146               0.000916940               0.000000000               0.000000000               0.000000000               0.000000000              -0.002365791               0.006266156              -0.000716179              -0.001670437               0.002645510               0.000975073               0.000000000               0.000000000               0.000000000               0.000000000              -0.001829255               0.005936598              -0.000588883              -0.001428042               0.002454860               0.001026818               0.000000000               0.000000000               0.000000000               0.000000000              -0.001316625               0.005616295              -0.000488733              -0.001195768               0.002270669               0.001074901               0.000000000               0.000000000               0.000000000               0.000000000              -0.000847302               0.005328223              -0.000398993              -0.000983764               0.002103978               0.001120214               0.000000000               0.000000000               0.000000000               0.000000000              -0.000431630               0.005086722              -0.000307614              -0.000797700               0.001961457               0.001163757               0.000000000               0.000000000               0.000000000               0.000000000              -0.000088212               0.004897425              -0.000220170              -0.000645256               0.001847544               0.001202288               0.000000000               0.000000000               0.000000000               0.000000000               0.000167478               0.004772837              -0.000142918              -0.000533799               0.001768863               0.001235064               0.000000000               0.000000000               0.000000000               0.000000000               0.000336180               0.004729318              -0.000076316              -0.000465096               0.001731456               0.001266360               0.000000000               0.000000000               0.000000000               0.000000000               0.000429459               0.004766421              -0.000031242              -0.000434754               0.001733709               0.001298955               0.000000000               0.000000000               0.000000000               0.000000000               0.000463995               0.004866162              -0.000009363              -0.000434271               0.001766795               0.001332524               0.000000000               0.000000000               0.000000000               0.000000000               0.000458936               0.004927596              -0.000000863              -0.000443847               0.001790465               0.001346617               0.000000000               0.000000000               0.000000000               0.000000000              -0.003996657               0.002068517              -0.000111109              -0.001757308               0.001275266              -0.000482041               0.000000000               0.000000000               0.000000000               0.000000000              -0.004141672               0.003904587              -0.001062245              -0.002041196               0.001981914              -0.000059282               0.000000000               0.000000000               0.000000000               0.000000000              -0.004516907               0.005625359              -0.001780083              -0.002397005               0.002674102               0.000277097               0.000000000               0.000000000               0.000000000               0.000000000              -0.004166287               0.006178584              -0.001746611              -0.002334675               0.002837732               0.000503057               0.000000000               0.000000000               0.000000000               0.000000000              -0.003632871               0.006286839              -0.001555861              -0.002148177               0.002811651               0.000663474               0.000000000               0.000000000               0.000000000               0.000000000              -0.003058204               0.006219266              -0.001357702              -0.001924230               0.002714478               0.000790248               0.000000000               0.000000000               0.000000000               0.000000000              -0.002493375               0.006067334              -0.001175498              -0.001693428               0.002586900               0.000893472               0.000000000               0.000000000               0.000000000               0.000000000              -0.001943762               0.005873081              -0.001010219              -0.001463042               0.002445355               0.000982312               0.000000000               0.000000000               0.000000000               0.000000000              -0.001415967               0.005664640              -0.000863522              -0.001239065               0.002301216               0.001062151               0.000000000               0.000000000               0.000000000               0.000000000              -0.000924296               0.005457097              -0.000726988              -0.001028746               0.002161929               0.001133183               0.000000000               0.000000000               0.000000000               0.000000000              -0.000472457               0.005257270              -0.000596276              -0.000834328               0.002030515               0.001196187               0.000000000               0.000000000               0.000000000               0.000000000              -0.000068575               0.005075841              -0.000468565              -0.000660194               0.001911995               0.001251801               0.000000000               0.000000000               0.000000000               0.000000000               0.000266301               0.004936189              -0.000341990              -0.000517160               0.001817766               0.001300607               0.000000000               0.000000000               0.000000000               0.000000000               0.000517436               0.004858227              -0.000220916              -0.000413239               0.001757139               0.001343900               0.000000000               0.000000000               0.000000000               0.000000000               0.000683023               0.004851069              -0.000118658              -0.000350249               0.001733757               0.001383507               0.000000000               0.000000000               0.000000000               0.000000000               0.000768326               0.004906465              -0.000045282              -0.000325185               0.001743867               0.001418682               0.000000000               0.000000000               0.000000000               0.000000000               0.000785145               0.004946483              -0.000015872              -0.000323880               0.001756771               0.001432891               0.000000000               0.000000000               0.000000000               0.000000000              -0.005914920               0.000758818               0.000592524              -0.002312945               0.001023914              -0.001289031               0.000000000               0.000000000               0.000000000               0.000000000              -0.005109291               0.002587099              -0.000808388              -0.002239368               0.001608811              -0.000630557               0.000000000               0.000000000               0.000000000               0.000000000              -0.004802128               0.004251732              -0.001964830              -0.002332260               0.002194648              -0.000137611               0.000000000               0.000000000               0.000000000               0.000000000              -0.004245933               0.005038987              -0.002108519              -0.002222093               0.002420343               0.000198249               0.000000000               0.000000000               0.000000000               0.000000000              -0.003652506               0.005410889              -0.001973051              -0.002046046               0.002485627               0.000439580               0.000000000               0.000000000               0.000000000               0.000000000              -0.003061653               0.005566390              -0.001782227              -0.001843914               0.002470082               0.000626168               0.000000000               0.000000000               0.000000000               0.000000000              -0.002487879               0.005597796              -0.001589712              -0.001632676               0.002410138               0.000777463               0.000000000               0.000000000               0.000000000               0.000000000              -0.001937788               0.005568155              -0.001405542              -0.001422687               0.002330262               0.000907575               0.000000000               0.000000000               0.000000000               0.000000000              -0.001412440               0.005499001              -0.001232832              -0.001217038               0.002238661               0.001021623               0.000000000               0.000000000               0.000000000               0.000000000              -0.000907348               0.005398370              -0.001071869              -0.001015050               0.002137788               0.001122739               0.000000000               0.000000000               0.000000000               0.000000000              -0.000430287               0.005274704              -0.000919458              -0.000820694               0.002031782               0.001211088               0.000000000               0.000000000               0.000000000               0.000000000               0.000015564               0.005146561              -0.000768721              -0.000637482               0.001927997               0.001290515               0.000000000               0.000000000               0.000000000               0.000000000               0.000417554               0.005031944              -0.000610782              -0.000472409               0.001834768               0.001362358               0.000000000               0.000000000               0.000000000               0.000000000               0.000749504               0.004947733              -0.000443058              -0.000337402               0.001761695               0.001424293               0.000000000               0.000000000               0.000000000               0.000000000               0.000988298               0.004911173              -0.000276348              -0.000243284               0.001718136               0.001474852               0.000000000               0.000000000               0.000000000               0.000000000               0.001126495               0.004936760              -0.000126107              -0.000194659               0.001710456               0.001515798               0.000000000               0.000000000               0.000000000               0.000000000               0.001159534               0.004960803              -0.000054386              -0.000185275               0.001715343               0.001530068               0.000000000               0.000000000               0.000000000               0.000000000              -0.007950550              -0.000185195               0.001080437              -0.002958305               0.000924363              -0.002033941               0.000000000               0.000000000               0.000000000               0.000000000              -0.006155603               0.001416469              -0.000532566              -0.002485407               0.001300616              -0.001184790               0.000000000               0.000000000               0.000000000               0.000000000              -0.005052070               0.002824529              -0.001932701              -0.002247588               0.001690694              -0.000556895               0.000000000               0.000000000               0.000000000               0.000000000              -0.004218939               0.003721566              -0.002229198              -0.002047294               0.001922939              -0.000124355               0.000000000               0.000000000               0.000000000               0.000000000              -0.003523014               0.004292448              -0.002176723              -0.001857682               0.002050028               0.000192346               0.000000000               0.000000000               0.000000000               0.000000000              -0.002906307               0.004647735              -0.002025363              -0.001670829               0.002106172               0.000435343               0.000000000               0.000000000               0.000000000               0.000000000              -0.002337678               0.004869325              -0.001846511              -0.001485292               0.002118189               0.000632897               0.000000000               0.000000000               0.000000000               0.000000000              -0.001794224               0.005012645              -0.001664909              -0.001299412               0.002104002               0.000804590               0.000000000               0.000000000               0.000000000               0.000000000              -0.001273908               0.005090556              -0.001495254              -0.001114033               0.002068179               0.000954146               0.000000000               0.000000000               0.000000000               0.000000000              -0.000765474               0.005116255              -0.001336415              -0.000926583               0.002014262               0.001087679               0.000000000               0.000000000               0.000000000               0.000000000              -0.000270439               0.005105982              -0.001183747              -0.000739661               0.001948530               0.001208869               0.000000000               0.000000000               0.000000000               0.000000000               0.000210809               0.005074790              -0.001033104              -0.000555294               0.001876678               0.001321383               0.000000000               0.000000000               0.000000000               0.000000000               0.000665193               0.005028320              -0.000864858              -0.000379092               0.001802454               0.001423362               0.000000000               0.000000000               0.000000000               0.000000000               0.001069907               0.004977855              -0.000668903              -0.000221016               0.001732941               0.001511924               0.000000000               0.000000000               0.000000000               0.000000000               0.001401934               0.004950440              -0.000453655              -0.000093080               0.001681157               0.001588077               0.000000000               0.000000000               0.000000000               0.000000000               0.001635972               0.004963108              -0.000229451              -0.000006899               0.001656653               0.001649753               0.000000000               0.000000000               0.000000000               0.000000000               0.001727628               0.004978679              -0.000117429               0.000025525               0.001651035               0.001676560               0.000000000               0.000000000               0.000000000               0.000000000              -0.009909164              -0.000775932               0.001263814              -0.003618942               0.000947663              -0.002671279               0.000000000               0.000000000               0.000000000               0.000000000              -0.007192763               0.000461394              -0.000287821              -0.002754958               0.001072110              -0.001682848               0.000000000               0.000000000               0.000000000               0.000000000              -0.005277079               0.001483325              -0.001681154              -0.002164317               0.001215872              -0.000948445               0.000000000               0.000000000               0.000000000               0.000000000              -0.004122712               0.002376449              -0.002058054              -0.001843070               0.001406496              -0.000436574               0.000000000               0.000000000               0.000000000               0.000000000              -0.003289902               0.003067278              -0.002082221              -0.001617120               0.001561454              -0.000055666               0.000000000               0.000000000               0.000000000               0.000000000              -0.002622769               0.003586085              -0.001980956              -0.001431796               0.001672614               0.000240818               0.000000000               0.000000000               0.000000000               0.000000000              -0.002050012               0.003977685              -0.001836295              -0.001265963               0.001747869               0.000481906               0.000000000               0.000000000               0.000000000               0.000000000              -0.001515714               0.004275655              -0.001682573              -0.001102848               0.001792820               0.000689972               0.000000000               0.000000000               0.000000000               0.000000000              -0.001001609               0.004497483              -0.001536613              -0.000937787               0.001811741               0.000873954               0.000000000               0.000000000               0.000000000               0.000000000              -0.000499147               0.004654493              -0.001400932              -0.000768991               0.001807812               0.001038821               0.000000000               0.000000000               0.000000000               0.000000000               0.000004782               0.004766944              -0.001272709              -0.000594074               0.001786990               0.001192916               0.000000000               0.000000000               0.000000000               0.000000000               0.000511593               0.004845923              -0.001142644              -0.000413893               0.001753255               0.001339363               0.000000000               0.000000000               0.000000000               0.000000000               0.001011054               0.004896606              -0.000986982              -0.000232931               0.001709829               0.001476898               0.000000000               0.000000000               0.000000000               0.000000000               0.001492482               0.004924024              -0.000794625              -0.000055823               0.001659932               0.001604110               0.000000000               0.000000000               0.000000000               0.000000000               0.001942133               0.004944996              -0.000566955               0.000110174               0.001611591               0.001721765               0.000000000               0.000000000               0.000000000               0.000000000               0.002334465               0.004973595              -0.000302547               0.000253722               0.001573274               0.001826997               0.000000000               0.000000000               0.000000000               0.000000000               0.002555322               0.005005952              -0.000169982               0.000332498               0.001557801               0.001890300               0.000000000               0.000000000               0.000000000               0.000000000              -0.011548013              -0.001080207               0.001105454              -0.004195476               0.001038416              -0.003157060               0.000000000               0.000000000               0.000000000               0.000000000              -0.008083024              -0.000230344              -0.000114958              -0.003002339               0.000923992              -0.002078347               0.000000000               0.000000000               0.000000000               0.000000000              -0.005463392               0.000384788              -0.001236177              -0.002096869               0.000827213              -0.001269656               0.000000000               0.000000000               0.000000000               0.000000000              -0.003996126               0.001200138              -0.001585396              -0.001648562               0.000949559              -0.000699003               0.000000000               0.000000000               0.000000000               0.000000000              -0.003025697               0.001941407              -0.001648236              -0.001377310               0.001106231              -0.000271079               0.000000000               0.000000000               0.000000000               0.000000000              -0.002301258               0.002567547              -0.001593381              -0.001183913               0.001250477               0.000066564               0.000000000               0.000000000               0.000000000               0.000000000              -0.001705834               0.003084171              -0.001494406              -0.001025207               0.001369782               0.000344575               0.000000000               0.000000000               0.000000000               0.000000000              -0.001172942               0.003504643              -0.001384680              -0.000877932               0.001460846               0.000582914               0.000000000               0.000000000               0.000000000               0.000000000              -0.000665859               0.003849332              -0.001276804              -0.000730862               0.001526718               0.000795856               0.000000000               0.000000000               0.000000000               0.000000000              -0.000168394               0.004126758              -0.001178828              -0.000578992               0.001568569               0.000989577               0.000000000               0.000000000               0.000000000               0.000000000               0.000336286               0.004352332              -0.001089837              -0.000417934               0.001590074               0.001172140               0.000000000               0.000000000               0.000000000               0.000000000               0.000853732               0.004541093              -0.000997047              -0.000247487               0.001596178               0.001348691               0.000000000               0.000000000               0.000000000               0.000000000               0.001390454               0.004697687              -0.000879513              -0.000065791               0.001587810               0.001522019               0.000000000               0.000000000               0.000000000               0.000000000               0.001947098               0.004816018              -0.000727375               0.000128158               0.001562604               0.001690762               0.000000000               0.000000000               0.000000000               0.000000000               0.002524167               0.004902105              -0.000535743               0.000333796               0.001522753               0.001856550               0.000000000               0.000000000               0.000000000               0.000000000               0.003110727               0.004961485              -0.000293614               0.000546331               0.001471701               0.002018033               0.000000000               0.000000000               0.000000000               0.000000000               0.003508771               0.005022552              -0.000173125               0.000687963               0.001444846               0.002132809               0.000000000               0.000000000               0.000000000               0.000000000              -0.012641616              -0.001195775               0.000640629              -0.004591131               0.001131778              -0.003459354               0.000000000               0.000000000               0.000000000               0.000000000              -0.008688912              -0.000638606              -0.000030313              -0.003178514               0.000846630              -0.002331884               0.000000000               0.000000000               0.000000000               0.000000000              -0.005589691              -0.000338157              -0.000654383              -0.002053863               0.000571898              -0.001481965               0.000000000               0.000000000               0.000000000               0.000000000              -0.003886854               0.000387980              -0.000864036              -0.001506066               0.000631344              -0.000874722               0.000000000               0.000000000               0.000000000               0.000000000              -0.002815013               0.001143982              -0.000913411              -0.001198626               0.000780864              -0.000417762               0.000000000               0.000000000               0.000000000               0.000000000              -0.002049880               0.001825322              -0.000890399              -0.000996868               0.000940723              -0.000056145               0.000000000               0.000000000               0.000000000               0.000000000              -0.001433923               0.002411641              -0.000839999              -0.000839174               0.001083597               0.000244422               0.000000000               0.000000000               0.000000000               0.000000000              -0.000894044               0.002910501              -0.000782440              -0.000699078               0.001203183               0.000504105               0.000000000               0.000000000               0.000000000               0.000000000              -0.000385584               0.003338478              -0.000724458              -0.000561903               0.001300116               0.000738213               0.000000000               0.000000000               0.000000000               0.000000000               0.000111934               0.003702010              -0.000674102              -0.000420775               0.001374249               0.000953474               0.000000000               0.000000000               0.000000000               0.000000000               0.000613751               0.004015559              -0.000629172              -0.000271788               0.001429102               0.001157314               0.000000000               0.000000000               0.000000000               0.000000000               0.001133717               0.004293230              -0.000582545              -0.000111510               0.001468232               0.001356722               0.000000000               0.000000000               0.000000000               0.000000000               0.001688978               0.004530352              -0.000522305               0.000067072               0.001487745               0.001554817               0.000000000               0.000000000               0.000000000               0.000000000               0.002298121               0.004719119              -0.000440558               0.000271903               0.001482390               0.001754292               0.000000000               0.000000000               0.000000000               0.000000000               0.002976939               0.004858673              -0.000331529               0.000509013               0.001449870               0.001958883               0.000000000               0.000000000               0.000000000               0.000000000               0.003738089               0.004944974              -0.000184642               0.000783654               0.001387090               0.002170744               0.000000000               0.000000000               0.000000000               0.000000000               0.004305434               0.005032399              -0.000111893               0.000985478               0.001348957               0.002334435               0.000000000               0.000000000               0.000000000               0.000000000               0.000000000               0.000000000               0.000000000               0.000000000               0.000000000               0.000000000               0.000000000               0.000000000               0.000000000               0.000000000               0.000000000               0.000000000               0.000000000               0.000000000               0.000000000               0.000000000               0.000000000               0.000000000               0.000000000               0.000000000               0.000000000               0.000000000               0.000000000               0.000000000               0.000000000               0.000000000               0.000000000               0.000000000               0.000000000               0.000000000               0.000000000               0.000000000               0.000000000               0.000000000               0.000000000               0.000000000               0.000000000               0.000000000               0.000000000               0.000000000               0.000000000               0.000000000               0.000000000               0.000000000               0.000000000               0.000000000               0.000000000               0.000000000               0.000000000               0.000000000               0.000000000               0.000000000               0.000000000               0.000000000               0.000000000               0.000000000               0.000000000               0.000000000               0.000000000               0.000000000               0.000000000               0.000000000               0.000000000               0.000000000               0.000000000               0.000000000               0.000000000               0.000000000               0.000000000               0.000000000               0.000000000               0.000000000               0.000000000               0.000000000               0.000000000               0.000000000               0.000000000               0.000000000               0.000000000               0.000000000               0.000000000               0.000000000               0.000000000               0.000000000               0.000000000               0.000000000               0.000000000               0.000000000               0.000000000               0.000000000               0.000000000               0.000000000               0.000000000               0.000000000               0.000000000               0.000000000               0.000000000               0.000000000               0.000000000               0.000000000               0.000000000               0.000000000               0.000000000               0.000000000               0.000000000               0.000000000               0.000000000               0.000000000               0.000000000               0.000000000               0.000000000               0.000000000               0.000000000               0.000000000               0.000000000               0.000000000               0.000000000               0.000000000               0.000000000               0.000000000               0.000000000               0.000000000               0.000000000               0.000000000               0.000000000               0.000000000               0.000000000               0.000000000               0.000000000               0.000000000               0.000000000               0.000000000               0.000000000               0.000000000               0.000000000               0.000000000               0.000000000               0.000000000               0.000000000               0.000000000               0.000000000               0.000000000               0.000000000               0.000000000               0.000000000               0.000000000               0.000000000               0.000000000               0.000000000               0.000000000               0.000000000               0.000000000               0.000000000               0.000000000               0.000000000               0.000000000               0.000000000               0.000000000               0.000000000               0.000000000               0.000000000               0.000000000               0.000000000               0.000000000               0.000000000               0.000000000               0.000000000               0.000000000               0.000000000               0.000000000               0.000000000               0.000000000               0.000000000               0.000000000               0.000000000               0.000000000               0.000000000               0.000000000               0.000000000               0.000000000               0.000000000               0.000000000               0.000000000               0.000000000               0.000000000               0.000000000               0.000000000               0.000000000               0.000000000               0.000000000               0.000000000               0.000000000               0.000000000               0.000000000               0.000000000               0.000000000               0.000000000               0.000000000               0.000000000               0.000000000               0.000000000               0.000000000               0.000000000               0.000000000               0.000000000               0.000000000               0.000000000               0.000000000               0.000000000               0.000000000               0.000000000               0.000000000               0.000000000               0.000000000               0.000000000               0.000000000               0.000000000               0.000000000               0.000000000               0.000000000               0.000000000               0.000000000               0.000000000               0.000000000               0.000000000               0.000000000               0.000000000               0.000000000               0.000000000               0.000000000               0.000000000               0.000000000               0.000000000               0.000000000               0.000000000               0.000000000               0.000000000               0.000000000               0.000000000               0.000000000               0.000000000               0.000000000               0.000000000               0.000000000               0.000000000               0.000000000               0.000000000               0.000000000               0.000000000               0.000000000               0.000000000               0.000000000               0.000000000               0.000000000               0.000000000               0.000000000               0.000000000               0.000000000               0.000000000               0.000000000               0.000000000               0.000000000               0.000000000               0.000000000               0.000000000               0.000000000               0.000000000               0.000000000               0.000000000               0.000000000               0.000000000               0.000000000               0.000000000               0.000000000               0.000000000               0.000000000               0.000000000               0.000000000               0.000000000               0.000000000               0.000000000               0.000000000               0.000000000               0.000000000               0.000000000               0.000000000               0.000000000               0.000000000               0.000000000               0.000000000               0.000000000               0.000000000               0.000000000               0.000000000               0.000000000               0.000000000               0.000000000               0.000000000               0.000000000               0.000000000               0.000000000               0.000000000               0.000000000               0.000000000               0.000000000               0.000000000               0.000000000               0.000000000               0.000000000               0.000000000               0.000000000               0.000000000               0.000000000               0.000000000               0.000000000               0.000000000               0.000000000               0.000000000               0.000000000               0.000000000               0.000000000               0.000000000               0.000000000               0.000000000               0.000000000               0.000000000               0.000000000               0.000000000               0.000000000               0.000000000               0.000000000               0.000000000               0.000000000               0.000000000               0.000000000               0.000000000               0.000000000               0.000000000               0.000000000               0.000000000               0.002001638               0.020358265               0.001367461              -0.001794165               0.007384075               0.005589910               0.000000000               0.000000000               0.000000000               0.000000000               0.001788403               0.015652173               0.000608070              -0.001285867               0.005645961               0.004360094               0.000000000               0.000000000               0.000000000               0.000000000               0.002174341               0.011853704              -0.000138797              -0.000666333               0.004173306               0.003506973               0.000000000               0.000000000               0.000000000               0.000000000               0.001926199               0.009684815              -0.000443543              -0.000488276               0.003390998               0.002902722               0.000000000               0.000000000               0.000000000               0.000000000               0.001530981               0.008296311              -0.000558950              -0.000462920               0.002919716               0.002456796               0.000000000               0.000000000               0.000000000               0.000000000               0.001150690               0.007312485              -0.000590084              -0.000482551               0.002598321               0.002115770               0.000000000               0.000000000               0.000000000               0.000000000               0.000828911               0.006548039              -0.000581642              -0.000507662               0.002351878               0.001844216               0.000000000               0.000000000               0.000000000               0.000000000               0.000570178               0.005902886              -0.000554354              -0.000524043               0.002142290               0.001618247               0.000000000               0.000000000               0.000000000               0.000000000               0.000366671               0.005322250              -0.000520904              -0.000527778               0.001949992               0.001422213               0.000000000               0.000000000               0.000000000               0.000000000               0.000200280               0.004774780              -0.000487886              -0.000521741               0.001765491               0.001243750               0.000000000               0.000000000               0.000000000               0.000000000               0.000066989               0.004239272              -0.000453645              -0.000504787               0.001581339               0.001076552               0.000000000               0.000000000               0.000000000               0.000000000              -0.000029727               0.003702847              -0.000416642              -0.000474003               0.001392271               0.000918268               0.000000000               0.000000000               0.000000000               0.000000000              -0.000091863               0.003155264              -0.000374070              -0.000428856               0.001194696               0.000765840               0.000000000               0.000000000               0.000000000               0.000000000              -0.000120726               0.002583037              -0.000319483              -0.000368151               0.000983721               0.000615569               0.000000000               0.000000000               0.000000000               0.000000000              -0.000117403               0.001969148              -0.000245812              -0.000290169               0.000753099               0.000462930               0.000000000               0.000000000               0.000000000               0.000000000              -0.000075267               0.001299474              -0.000140962              -0.000190659               0.000496707               0.000306048               0.000000000               0.000000000               0.000000000               0.000000000              -0.000096196               0.000800633              -0.000090004              -0.000136152               0.000312259               0.000176107               0.000000000               0.000000000               0.000000000               0.000000000               0.002118681               0.019070912               0.002532930              -0.001589356               0.006886692               0.005297336               0.000000000               0.000000000               0.000000000               0.000000000               0.001594278               0.014848352               0.001124221              -0.001258187               0.005368797               0.004110610               0.000000000               0.000000000               0.000000000               0.000000000               0.001647352               0.011541277              -0.000244990              -0.000824900               0.004122021               0.003297120               0.000000000               0.000000000               0.000000000               0.000000000               0.001284078               0.009615609              -0.000781097              -0.000720420               0.003445311               0.002724891               0.000000000               0.000000000               0.000000000               0.000000000               0.000877590               0.008346804              -0.000976831              -0.000714253               0.003020324               0.002306072               0.000000000               0.000000000               0.000000000               0.000000000               0.000531132               0.007415402              -0.001025085              -0.000727749               0.002714359               0.001986609               0.000000000               0.000000000               0.000000000               0.000000000               0.000260971               0.006671067              -0.001005992              -0.000736018               0.002469006               0.001732988               0.000000000               0.000000000               0.000000000               0.000000000               0.000060923               0.006031070              -0.000954084              -0.000731036               0.002254015               0.001522979               0.000000000               0.000000000               0.000000000               0.000000000              -0.000081132               0.005451215              -0.000894569              -0.000711825               0.002054328               0.001342503               0.000000000               0.000000000               0.000000000               0.000000000              -0.000182827               0.004907874              -0.000834230              -0.000682043               0.001863289               0.001181246               0.000000000               0.000000000               0.000000000               0.000000000              -0.000248511               0.004380311              -0.000769138              -0.000640729               0.001673665               0.001032936               0.000000000               0.000000000               0.000000000               0.000000000              -0.000279310               0.003858978              -0.000700555              -0.000587112               0.001482017               0.000894905               0.000000000               0.000000000               0.000000000               0.000000000              -0.000280878               0.003338076              -0.000622863              -0.000522588               0.001286877               0.000764289               0.000000000               0.000000000               0.000000000               0.000000000              -0.000249866               0.002810964              -0.000523040              -0.000445069               0.001085335               0.000640266               0.000000000               0.000000000               0.000000000               0.000000000              -0.000187722               0.002271098              -0.000392018              -0.000354282               0.000875119               0.000520837               0.000000000               0.000000000               0.000000000               0.000000000              -0.000101323               0.001723475              -0.000219087              -0.000253430               0.000658963               0.000405533               0.000000000               0.000000000               0.000000000               0.000000000              -0.000094005               0.001342684              -0.000136299              -0.000203087               0.000515252               0.000312166               0.000000000               0.000000000               0.000000000               0.000000000               0.002209385               0.017125832               0.003337486              -0.001312208               0.006145956               0.004833748               0.000000000               0.000000000               0.000000000               0.000000000               0.001250320               0.013647215               0.001482941              -0.001237030               0.004961369               0.003724340               0.000000000               0.000000000               0.000000000               0.000000000               0.000839396               0.011069654              -0.000291581              -0.001068931               0.004046158               0.002977227               0.000000000               0.000000000               0.000000000               0.000000000               0.000350517               0.009493066              -0.000945626              -0.001055187               0.003516053               0.002460866               0.000000000               0.000000000               0.000000000               0.000000000              -0.000037515               0.008381411              -0.001169648              -0.001061742               0.003147690               0.002085947               0.000000000               0.000000000               0.000000000               0.000000000              -0.000309377               0.007519839              -0.001215504              -0.001055994               0.002858586               0.001802592               0.000000000               0.000000000               0.000000000               0.000000000              -0.000492776               0.006801253              -0.001183251              -0.001034945               0.002612043               0.001577098               0.000000000               0.000000000               0.000000000               0.000000000              -0.000603245               0.006169281              -0.001112846              -0.000997375               0.002388865               0.001391490               0.000000000               0.000000000               0.000000000               0.000000000              -0.000647831               0.005597479              -0.001036629              -0.000942620               0.002180014               0.001237394               0.000000000               0.000000000               0.000000000               0.000000000              -0.000648903               0.005065116              -0.000961052              -0.000876476               0.001980514               0.001104037               0.000000000               0.000000000               0.000000000               0.000000000              -0.000619761               0.004555548              -0.000878555              -0.000801852               0.001785785               0.000983933               0.000000000               0.000000000               0.000000000               0.000000000              -0.000561462               0.004063646              -0.000791581              -0.000718503               0.001594036               0.000875533               0.000000000               0.000000000               0.000000000               0.000000000              -0.000476430               0.003586266              -0.000694367              -0.000626943               0.001404391               0.000777448               0.000000000               0.000000000               0.000000000               0.000000000              -0.000365105               0.003126451              -0.000570776              -0.000527719               0.001218046               0.000690327               0.000000000               0.000000000               0.000000000               0.000000000              -0.000237910               0.002695260              -0.000415105              -0.000426123               0.001040452               0.000614329               0.000000000               0.000000000               0.000000000               0.000000000              -0.000116939               0.002309646              -0.000225528              -0.000332557               0.000880727               0.000548170               0.000000000               0.000000000               0.000000000               0.000000000              -0.000084402               0.002076217              -0.000133608              -0.000291177               0.000789124               0.000497947               0.000000000               0.000000000               0.000000000               0.000000000               0.002144628               0.014760207               0.003701067              -0.001040790               0.005266949               0.004226159               0.000000000               0.000000000               0.000000000               0.000000000               0.000734225               0.012208575               0.001663875              -0.001250735               0.004486396               0.003235661               0.000000000               0.000000000               0.000000000               0.000000000              -0.000151387               0.010493339              -0.000254704              -0.001368434               0.003953889               0.002585455               0.000000000               0.000000000               0.000000000               0.000000000              -0.000711752               0.009291402              -0.000911535              -0.001428329               0.003573213               0.002144884               0.000000000               0.000000000               0.000000000               0.000000000              -0.001028604               0.008343889              -0.001116294              -0.001428709               0.003257505               0.001828795               0.000000000               0.000000000               0.000000000               0.000000000              -0.001185969               0.007554113              -0.001148679              -0.001389000               0.002981012               0.001592013               0.000000000               0.000000000               0.000000000               0.000000000              -0.001242756               0.006870768              -0.001106609              -0.001324876               0.002731858               0.001406982               0.000000000               0.000000000               0.000000000               0.000000000              -0.001228142               0.006259876              -0.001031670              -0.001243035               0.002500949               0.001257914               0.000000000               0.000000000               0.000000000               0.000000000              -0.001153233               0.005706615              -0.000954540              -0.001145786               0.002284115               0.001138328               0.000000000               0.000000000               0.000000000               0.000000000              -0.001038091               0.005193617              -0.000878252              -0.001038484               0.002077349               0.001038866               0.000000000               0.000000000               0.000000000               0.000000000              -0.000899179               0.004710261              -0.000794682              -0.000925973               0.001878729               0.000952756               0.000000000               0.000000000               0.000000000               0.000000000              -0.000738875               0.004257092              -0.000705685              -0.000809213               0.001688754               0.000879541               0.000000000               0.000000000               0.000000000               0.000000000              -0.000562165               0.003836974              -0.000603615              -0.000690432               0.001509123               0.000818691               0.000000000               0.000000000               0.000000000               0.000000000              -0.000382789               0.003460452              -0.000478775              -0.000576101               0.001345506               0.000769405               0.000000000               0.000000000               0.000000000               0.000000000              -0.000218702               0.003148988              -0.000329544              -0.000475636               0.001208197               0.000732562               0.000000000               0.000000000               0.000000000               0.000000000              -0.000095889               0.002921501              -0.000167505              -0.000401145               0.001107539               0.000706394               0.000000000               0.000000000               0.000000000               0.000000000              -0.000054485               0.002818081              -0.000090501              -0.000372691               0.001063581               0.000690890               0.000000000               0.000000000               0.000000000               0.000000000               0.001804948               0.012221912               0.003636365              -0.000850885               0.004357557               0.003506673               0.000000000               0.000000000               0.000000000               0.000000000               0.000050491               0.010691589               0.001694691              -0.001317512               0.004002998               0.002685485               0.000000000               0.000000000               0.000000000               0.000000000              -0.001208470               0.009862574              -0.000110297              -0.001685994               0.003849490               0.002163496               0.000000000               0.000000000               0.000000000               0.000000000              -0.001744619               0.009002191              -0.000683077              -0.001779502               0.003593867               0.001814366               0.000000000               0.000000000               0.000000000               0.000000000              -0.001923131               0.008201221              -0.000846380              -0.001746323               0.003315821               0.001569498               0.000000000               0.000000000               0.000000000               0.000000000              -0.001927180               0.007478590              -0.000872812              -0.001657512               0.003045342               0.001387830               0.000000000               0.000000000               0.000000000               0.000000000              -0.001834234               0.006840346              -0.000838407              -0.001542877               0.002794385               0.001251507               0.000000000               0.000000000               0.000000000               0.000000000              -0.001674142               0.006267201              -0.000774539              -0.001411200               0.002559446               0.001148246               0.000000000               0.000000000               0.000000000               0.000000000              -0.001470349               0.005741874              -0.000711279              -0.001269112               0.002336976               0.001067864               0.000000000               0.000000000               0.000000000               0.000000000              -0.001244612               0.005253500              -0.000649940              -0.001123414               0.002125621               0.001002206               0.000000000               0.000000000               0.000000000               0.000000000              -0.001002901               0.004803967              -0.000579884              -0.000976581               0.001926833               0.000950252               0.000000000               0.000000000               0.000000000               0.000000000              -0.000757874               0.004398598              -0.000500935              -0.000834026               0.001744193               0.000910168               0.000000000               0.000000000               0.000000000               0.000000000              -0.000522078               0.004045568              -0.000407183              -0.000701474               0.001582333               0.000880860               0.000000000               0.000000000               0.000000000               0.000000000              -0.000313380               0.003756497              -0.000298965              -0.000587078               0.001447846               0.000860768               0.000000000               0.000000000               0.000000000               0.000000000              -0.000151555               0.003548360              -0.000184703              -0.000500377               0.001349567               0.000849190               0.000000000               0.000000000               0.000000000               0.000000000              -0.000052623               0.003432203              -0.000082178              -0.000448758               0.001293642               0.000844884               0.000000000               0.000000000               0.000000000               0.000000000              -0.000020705               0.003400081              -0.000037403              -0.000432773               0.001277607               0.000844833               0.000000000               0.000000000               0.000000000               0.000000000               0.001131265               0.009720894               0.003225380              -0.000790888               0.003503894               0.002713006               0.000000000               0.000000000               0.000000000               0.000000000              -0.000766028               0.009219375               0.001628113              -0.001439680               0.003552987               0.002113307               0.000000000               0.000000000               0.000000000               0.000000000              -0.002218943               0.009204148               0.000148887              -0.001982617               0.003728891               0.001746274               0.000000000               0.000000000               0.000000000               0.000000000              -0.002619478               0.008625961              -0.000299288              -0.002060544               0.003562140               0.001501596               0.000000000               0.000000000               0.000000000               0.000000000              -0.002608022               0.007947667              -0.000433585              -0.001971462               0.003306350               0.001334888               0.000000000               0.000000000               0.000000000               0.000000000              -0.002434570               0.007297321              -0.000472498              -0.001825124               0.003040791               0.001215667               0.000000000               0.000000000               0.000000000               0.000000000              -0.002184201               0.006711981              -0.000468981              -0.001658069               0.002789994               0.001131925               0.000000000               0.000000000               0.000000000               0.000000000              -0.001883449               0.006178888              -0.000436076              -0.001478651               0.002552492               0.001073841               0.000000000               0.000000000               0.000000000               0.000000000              -0.001561676               0.005687240              -0.000399628              -0.001296530               0.002327905               0.001031374               0.000000000               0.000000000               0.000000000               0.000000000              -0.001242073               0.005236367              -0.000363564              -0.001120321               0.002118878               0.000998558               0.000000000               0.000000000               0.000000000               0.000000000              -0.000929104               0.004832722              -0.000319836              -0.000952502               0.001928392               0.000975890               0.000000000               0.000000000               0.000000000               0.000000000              -0.000635025               0.004493137              -0.000266184              -0.000799775               0.001764289               0.000964514               0.000000000               0.000000000               0.000000000               0.000000000              -0.000381738               0.004223057              -0.000199178              -0.000671032               0.001631349               0.000960317               0.000000000               0.000000000               0.000000000               0.000000000              -0.000189065               0.004030202              -0.000125489              -0.000574673               0.001534945               0.000960272               0.000000000               0.000000000               0.000000000               0.000000000              -0.000062927               0.003918274              -0.000060186              -0.000513380               0.001477205               0.000963824               0.000000000               0.000000000               0.000000000               0.000000000              -0.000006051               0.003878777              -0.000017254              -0.000487115               0.001455284               0.000968169               0.000000000               0.000000000               0.000000000               0.000000000               0.000005714               0.003885040              -0.000000891              -0.000483486               0.001456162               0.000972676               0.000000000               0.000000000               0.000000000               0.000000000               0.000159758               0.007418033               0.002564580              -0.000867345               0.002761767               0.001894422               0.000000000               0.000000000               0.000000000               0.000000000              -0.001668366               0.007879310               0.001512087              -0.001610548               0.003163259               0.001552711               0.000000000               0.000000000               0.000000000               0.000000000              -0.003084631               0.008521681               0.000512042              -0.002221941               0.003581179               0.001359238               0.000000000               0.000000000               0.000000000               0.000000000              -0.003250521               0.008161733               0.000176327              -0.002239156               0.003466936               0.001227779               0.000000000               0.000000000               0.000000000               0.000000000              -0.003022831               0.007598490               0.000038975              -0.002083368               0.003227260               0.001143893               0.000000000               0.000000000               0.000000000               0.000000000              -0.002675026               0.007031913              -0.000034291              -0.001882119               0.002971321               0.001089201               0.000000000               0.000000000               0.000000000               0.000000000              -0.002276983               0.006502239              -0.000078110              -0.001666644               0.002722939               0.001056295               0.000000000               0.000000000               0.000000000               0.000000000              -0.001856402               0.006008472              -0.000091470              -0.001447206               0.002485206               0.001038000               0.000000000               0.000000000               0.000000000               0.000000000              -0.001442720               0.005560600              -0.000096445              -0.001236092               0.002265545               0.001029453               0.000000000               0.000000000               0.000000000               0.000000000              -0.001053949               0.005163634              -0.000095956              -0.001040682               0.002068088               0.001027406               0.000000000               0.000000000               0.000000000               0.000000000              -0.000698819               0.004827913              -0.000089056              -0.000865544               0.001897803               0.001032259               0.000000000               0.000000000               0.000000000               0.000000000              -0.000394604               0.004568750              -0.000077111              -0.000719068               0.001762591               0.001043522               0.000000000               0.000000000               0.000000000               0.000000000              -0.000161520               0.004395559              -0.000052225              -0.000610013               0.001668509               0.001058496               0.000000000               0.000000000               0.000000000               0.000000000              -0.000012561               0.004307005              -0.000022468              -0.000543085               0.001616682               0.001073598               0.000000000               0.000000000               0.000000000               0.000000000               0.000055000               0.004292942               0.000001711              -0.000515992               0.001602964               0.001086972               0.000000000               0.000000000               0.000000000               0.000000000               0.000051939               0.004332152               0.000009208              -0.000522040               0.001618050               0.001096009               0.000000000               0.000000000               0.000000000               0.000000000               0.000035864               0.004378053               0.000011207              -0.000533806               0.001637272               0.001103466               0.000000000               0.000000000               0.000000000               0.000000000              -0.000989788               0.005477724               0.001762185              -0.001055884               0.002177851               0.001121966               0.000000000               0.000000000               0.000000000               0.000000000              -0.002553733               0.006681214               0.001387539              -0.001792798               0.002824648               0.001031850               0.000000000               0.000000000               0.000000000               0.000000000              -0.003764686               0.007837347               0.000950779              -0.002391420               0.003409563               0.001018143               0.000000000               0.000000000               0.000000000               0.000000000              -0.003681279               0.007707841               0.000685899              -0.002343954               0.003350573               0.001006619               0.000000000               0.000000000               0.000000000               0.000000000              -0.003264583               0.007285588               0.000518053              -0.002134912               0.003140142               0.001005230               0.000000000               0.000000000               0.000000000               0.000000000              -0.002772240               0.006817905               0.000397735              -0.001891823               0.002903220               0.001011397               0.000000000               0.000000000               0.000000000               0.000000000              -0.002259902               0.006355637               0.000300992              -0.001641914               0.002665829               0.001023915               0.000000000               0.000000000               0.000000000               0.000000000              -0.001748353               0.005912461               0.000228795              -0.001394686               0.002435696               0.001041010               0.000000000               0.000000000               0.000000000               0.000000000              -0.001264928               0.005510874               0.000176237              -0.001163204               0.002224674               0.001061470               0.000000000               0.000000000               0.000000000               0.000000000              -0.000823530               0.005161354               0.000133762              -0.000953991               0.002038431               0.001084440               0.000000000               0.000000000               0.000000000               0.000000000              -0.000437914               0.004880929               0.000093992              -0.000774332               0.001885071               0.001110739               0.000000000               0.000000000               0.000000000               0.000000000              -0.000135364               0.004681026               0.000055410              -0.000635888               0.001772289               0.001136401               0.000000000               0.000000000               0.000000000               0.000000000               0.000073579               0.004565874               0.000028762              -0.000543141               0.001702990               0.001159849               0.000000000               0.000000000               0.000000000               0.000000000               0.000191996               0.004537647               0.000013572              -0.000495206               0.001677603               0.001182397               0.000000000               0.000000000               0.000000000               0.000000000               0.000229535               0.004588719               0.000006324              -0.000487513               0.001692062               0.001204549               0.000000000               0.000000000               0.000000000               0.000000000               0.000209916               0.004692214               0.000004579              -0.000507807               0.001733325               0.001225518               0.000000000               0.000000000               0.000000000               0.000000000               0.000180960               0.004760759               0.000004205              -0.000527234               0.001762648               0.001235415               0.000000000               0.000000000               0.000000000               0.000000000              -0.002318404               0.003682380               0.000922537              -0.001329696               0.001670680               0.000340983               0.000000000               0.000000000               0.000000000               0.000000000              -0.003300911               0.005296974               0.001251479              -0.001899959               0.002398960               0.000499001               0.000000000               0.000000000               0.000000000               0.000000000              -0.004178565               0.006824446               0.001409214              -0.002420012               0.003081463               0.000661451               0.000000000               0.000000000               0.000000000               0.000000000              -0.003958383               0.007043888               0.001228619              -0.002364874               0.003136230               0.000771356               0.000000000               0.000000000               0.000000000               0.000000000              -0.003463527               0.006867751               0.001031659              -0.002157286               0.003008323               0.000851037               0.000000000               0.000000000               0.000000000               0.000000000              -0.002913464               0.006581299               0.000863692              -0.001915207               0.002832146               0.000916940               0.000000000               0.000000000               0.000000000               0.000000000              -0.002365791               0.006266156               0.000716179              -0.001670437               0.002645510               0.000975073               0.000000000               0.000000000               0.000000000               0.000000000              -0.001829255               0.005936598               0.000588883              -0.001428042               0.002454860               0.001026818               0.000000000               0.000000000               0.000000000               0.000000000              -0.001316625               0.005616295               0.000488733              -0.001195768               0.002270669               0.001074901               0.000000000               0.000000000               0.000000000               0.000000000              -0.000847302               0.005328223               0.000398993              -0.000983764               0.002103978               0.001120214               0.000000000               0.000000000               0.000000000               0.000000000              -0.000431630               0.005086722               0.000307614              -0.000797700               0.001961457               0.001163757               0.000000000               0.000000000               0.000000000               0.000000000              -0.000088212               0.004897425               0.000220170              -0.000645256               0.001847544               0.001202288               0.000000000               0.000000000               0.000000000               0.000000000               0.000167478               0.004772837               0.000142918              -0.000533799               0.001768863               0.001235064               0.000000000               0.000000000               0.000000000               0.000000000               0.000336180               0.004729318               0.000076316              -0.000465096               0.001731456               0.001266360               0.000000000               0.000000000               0.000000000               0.000000000               0.000429459               0.004766421               0.000031242              -0.000434754               0.001733709               0.001298955               0.000000000               0.000000000               0.000000000               0.000000000               0.000463995               0.004866162               0.000009363              -0.000434271               0.001766795               0.001332524               0.000000000               0.000000000               0.000000000               0.000000000               0.000458936               0.004927596               0.000000863              -0.000443847               0.001790465               0.001346617               0.000000000               0.000000000               0.000000000               0.000000000              -0.003996657               0.002068517               0.000111109              -0.001757308               0.001275266              -0.000482041               0.000000000               0.000000000               0.000000000               0.000000000              -0.004141672               0.003904587               0.001062245              -0.002041196               0.001981914              -0.000059282               0.000000000               0.000000000               0.000000000               0.000000000              -0.004516907               0.005625359               0.001780083              -0.002397005               0.002674102               0.000277097               0.000000000               0.000000000               0.000000000               0.000000000              -0.004166287               0.006178584               0.001746611              -0.002334675               0.002837732               0.000503057               0.000000000               0.000000000               0.000000000               0.000000000              -0.003632871               0.006286839               0.001555861              -0.002148177               0.002811651               0.000663474               0.000000000               0.000000000               0.000000000               0.000000000              -0.003058204               0.006219266               0.001357702              -0.001924230               0.002714478               0.000790248               0.000000000               0.000000000               0.000000000               0.000000000              -0.002493375               0.006067334               0.001175498              -0.001693428               0.002586900               0.000893472               0.000000000               0.000000000               0.000000000               0.000000000              -0.001943762               0.005873081               0.001010219              -0.001463042               0.002445355               0.000982312               0.000000000               0.000000000               0.000000000               0.000000000              -0.001415967               0.005664640               0.000863522              -0.001239065               0.002301216               0.001062151               0.000000000               0.000000000               0.000000000               0.000000000              -0.000924296               0.005457097               0.000726988              -0.001028746               0.002161929               0.001133183               0.000000000               0.000000000               0.000000000               0.000000000              -0.000472457               0.005257270               0.000596276              -0.000834328               0.002030515               0.001196187               0.000000000               0.000000000               0.000000000               0.000000000              -0.000068575               0.005075841               0.000468565              -0.000660194               0.001911995               0.001251801               0.000000000               0.000000000               0.000000000               0.000000000               0.000266301               0.004936189               0.000341990              -0.000517160               0.001817766               0.001300607               0.000000000               0.000000000               0.000000000               0.000000000               0.000517436               0.004858227               0.000220916              -0.000413239               0.001757139               0.001343900               0.000000000               0.000000000               0.000000000               0.000000000               0.000683023               0.004851069               0.000118658              -0.000350249               0.001733757               0.001383507               0.000000000               0.000000000               0.000000000               0.000000000               0.000768326               0.004906465               0.000045282              -0.000325185               0.001743867               0.001418682               0.000000000               0.000000000               0.000000000               0.000000000               0.000785145               0.004946483               0.000015872              -0.000323880               0.001756771               0.001432891               0.000000000               0.000000000               0.000000000               0.000000000              -0.005914920               0.000758818              -0.000592524              -0.002312945               0.001023914              -0.001289031               0.000000000               0.000000000               0.000000000               0.000000000              -0.005109291               0.002587099               0.000808388              -0.002239368               0.001608811              -0.000630557               0.000000000               0.000000000               0.000000000               0.000000000              -0.004802128               0.004251732               0.001964830              -0.002332260               0.002194648              -0.000137611               0.000000000               0.000000000               0.000000000               0.000000000              -0.004245933               0.005038987               0.002108519              -0.002222093               0.002420343               0.000198249               0.000000000               0.000000000               0.000000000               0.000000000              -0.003652506               0.005410889               0.001973051              -0.002046046               0.002485627               0.000439580               0.000000000               0.000000000               0.000000000               0.000000000              -0.003061653               0.005566390               0.001782227              -0.001843914               0.002470082               0.000626168               0.000000000               0.000000000               0.000000000               0.000000000              -0.002487879               0.005597796               0.001589712              -0.001632676               0.002410138               0.000777463               0.000000000               0.000000000               0.000000000               0.000000000              -0.001937788               0.005568155               0.001405542              -0.001422687               0.002330262               0.000907575               0.000000000               0.000000000               0.000000000               0.000000000              -0.001412440               0.005499001               0.001232832              -0.001217038               0.002238661               0.001021623               0.000000000               0.000000000               0.000000000               0.000000000              -0.000907348               0.005398370               0.001071869              -0.001015050               0.002137788               0.001122739               0.000000000               0.000000000               0.000000000               0.000000000              -0.000430287               0.005274704               0.000919458              -0.000820694               0.002031782               0.001211088               0.000000000               0.000000000               0.000000000               0.000000000               0.000015564               0.005146561               0.000768721              -0.000637482               0.001927997               0.001290515               0.000000000               0.000000000               0.000000000               0.000000000               0.000417554               0.005031944               0.000610782              -0.000472409               0.001834768               0.001362358               0.000000000               0.000000000               0.000000000               0.000000000               0.000749504               0.004947733               0.000443058              -0.000337402               0.001761695               0.001424293               0.000000000               0.000000000               0.000000000               0.000000000               0.000988298               0.004911173               0.000276348              -0.000243284               0.001718136               0.001474852               0.000000000               0.000000000               0.000000000               0.000000000               0.001126495               0.004936760               0.000126107              -0.000194659               0.001710456               0.001515798               0.000000000               0.000000000               0.000000000               0.000000000               0.001159534               0.004960803               0.000054386              -0.000185275               0.001715343               0.001530068               0.000000000               0.000000000               0.000000000               0.000000000              -0.007950550              -0.000185195              -0.001080437              -0.002958305               0.000924363              -0.002033941               0.000000000               0.000000000               0.000000000               0.000000000              -0.006155603               0.001416469               0.000532566              -0.002485407               0.001300616              -0.001184790               0.000000000               0.000000000               0.000000000               0.000000000              -0.005052070               0.002824529               0.001932701              -0.002247588               0.001690694              -0.000556895               0.000000000               0.000000000               0.000000000               0.000000000              -0.004218939               0.003721566               0.002229198              -0.002047294               0.001922939              -0.000124355               0.000000000               0.000000000               0.000000000               0.000000000              -0.003523014               0.004292448               0.002176723              -0.001857682               0.002050028               0.000192346               0.000000000               0.000000000               0.000000000               0.000000000              -0.002906307               0.004647735               0.002025363              -0.001670829               0.002106172               0.000435343               0.000000000               0.000000000               0.000000000               0.000000000              -0.002337678               0.004869325               0.001846511              -0.001485292               0.002118189               0.000632897               0.000000000               0.000000000               0.000000000               0.000000000              -0.001794224               0.005012645               0.001664909              -0.001299412               0.002104002               0.000804590               0.000000000               0.000000000               0.000000000               0.000000000              -0.001273908               0.005090556               0.001495254              -0.001114033               0.002068179               0.000954146               0.000000000               0.000000000               0.000000000               0.000000000              -0.000765474               0.005116255               0.001336415              -0.000926583               0.002014262               0.001087679               0.000000000               0.000000000               0.000000000               0.000000000              -0.000270439               0.005105982               0.001183747              -0.000739661               0.001948530               0.001208869               0.000000000               0.000000000               0.000000000               0.000000000               0.000210809               0.005074790               0.001033104              -0.000555294               0.001876678               0.001321383               0.000000000               0.000000000               0.000000000               0.000000000               0.000665193               0.005028320               0.000864858              -0.000379092               0.001802454               0.001423362               0.000000000               0.000000000               0.000000000               0.000000000               0.001069907               0.004977855               0.000668903              -0.000221016               0.001732941               0.001511924               0.000000000               0.000000000               0.000000000               0.000000000               0.001401934               0.004950440               0.000453655              -0.000093080               0.001681157               0.001588077               0.000000000               0.000000000               0.000000000               0.000000000               0.001635972               0.004963108               0.000229451              -0.000006899               0.001656653               0.001649753               0.000000000               0.000000000               0.000000000               0.000000000               0.001727628               0.004978679               0.000117429               0.000025525               0.001651035               0.001676560               0.000000000               0.000000000               0.000000000               0.000000000              -0.009909164              -0.000775932              -0.001263814              -0.003618942               0.000947663              -0.002671279               0.000000000               0.000000000               0.000000000               0.000000000              -0.007192763               0.000461394               0.000287821              -0.002754958               0.001072110              -0.001682848               0.000000000               0.000000000               0.000000000               0.000000000              -0.005277079               0.001483325               0.001681154              -0.002164317               0.001215872              -0.000948445               0.000000000               0.000000000               0.000000000               0.000000000              -0.004122712               0.002376449               0.002058054              -0.001843070               0.001406496              -0.000436574               0.000000000               0.000000000               0.000000000               0.000000000              -0.003289902               0.003067278               0.002082221              -0.001617120               0.001561454              -0.000055666               0.000000000               0.000000000               0.000000000               0.000000000              -0.002622769               0.003586085               0.001980956              -0.001431796               0.001672614               0.000240818               0.000000000               0.000000000               0.000000000               0.000000000              -0.002050012               0.003977685               0.001836295              -0.001265963               0.001747869               0.000481906               0.000000000               0.000000000               0.000000000               0.000000000              -0.001515714               0.004275655               0.001682573              -0.001102848               0.001792820               0.000689972               0.000000000               0.000000000               0.000000000               0.000000000              -0.001001609               0.004497483               0.001536613              -0.000937787               0.001811741               0.000873954               0.000000000               0.000000000               0.000000000               0.000000000              -0.000499147               0.004654493               0.001400932              -0.000768991               0.001807812               0.001038821               0.000000000               0.000000000               0.000000000               0.000000000               0.000004782               0.004766944               0.001272709              -0.000594074               0.001786990               0.001192916               0.000000000               0.000000000               0.000000000               0.000000000               0.000511593               0.004845923               0.001142644              -0.000413893               0.001753255               0.001339363               0.000000000               0.000000000               0.000000000               0.000000000               0.001011054               0.004896606               0.000986982              -0.000232931               0.001709829               0.001476898               0.000000000               0.000000000               0.000000000               0.000000000               0.001492482               0.004924024               0.000794625              -0.000055823               0.001659932               0.001604110               0.000000000               0.000000000               0.000000000               0.000000000               0.001942133               0.004944996               0.000566955               0.000110174               0.001611591               0.001721765               0.000000000               0.000000000               0.000000000               0.000000000               0.002334465               0.004973595               0.000302547               0.000253722               0.001573274               0.001826997               0.000000000               0.000000000               0.000000000               0.000000000               0.002555322               0.005005952               0.000169982               0.000332498               0.001557801               0.001890300               0.000000000               0.000000000               0.000000000               0.000000000              -0.011548013              -0.001080207              -0.001105454              -0.004195476               0.001038416              -0.003157060               0.000000000               0.000000000               0.000000000               0.000000000              -0.008083024              -0.000230344               0.000114958              -0.003002339               0.000923992              -0.002078347               0.000000000               0.000000000               0.000000000               0.000000000              -0.005463392               0.000384788               0.001236177              -0.002096869               0.000827213              -0.001269656               0.000000000               0.000000000               0.000000000               0.000000000              -0.003996126               0.001200138               0.001585396              -0.001648562               0.000949559              -0.000699003               0.000000000               0.000000000               0.000000000               0.000000000              -0.003025697               0.001941407               0.001648236              -0.001377310               0.001106231              -0.000271079               0.000000000               0.000000000               0.000000000               0.000000000              -0.002301258               0.002567547               0.001593381              -0.001183913               0.001250477               0.000066564               0.000000000               0.000000000               0.000000000               0.000000000              -0.001705834               0.003084171               0.001494406              -0.001025207               0.001369782               0.000344575               0.000000000               0.000000000               0.000000000               0.000000000              -0.001172942               0.003504643               0.001384680              -0.000877932               0.001460846               0.000582914               0.000000000               0.000000000               0.000000000               0.000000000              -0.000665859               0.003849332               0.001276804              -0.000730862               0.001526718               0.000795856               0.000000000               0.000000000               0.000000000               0.000000000              -0.000168394               0.004126758               0.001178828              -0.000578992               0.001568569               0.000989577               0.000000000               0.000000000               0.000000000               0.000000000               0.000336286               0.004352332               0.001089837              -0.000417934               0.001590074               0.001172140               0.000000000               0.000000000               0.000000000               0.000000000               0.000853732               0.004541093               0.000997047              -0.000247487               0.001596178               0.001348691               0.000000000               0.000000000               0.000000000               0.000000000               0.001390454               0.004697687               0.000879513              -0.000065791               0.001587810               0.001522019               0.000000000               0.000000000               0.000000000               0.000000000               0.001947098               0.004816018               0.000727375               0.000128158               0.001562604               0.001690762               0.000000000               0.000000000               0.000000000               0.000000000               0.002524167               0.004902105               0.000535743               0.000333796               0.001522753               0.001856550               0.000000000               0.000000000               0.000000000               0.000000000               0.003110727               0.004961485               0.000293614               0.000546331               0.001471701               0.002018033               0.000000000               0.000000000               0.000000000               0.000000000               0.003508771               0.005022552               0.000173125               0.000687963               0.001444846               0.002132809               0.000000000               0.000000000               0.000000000               0.000000000              -0.012641616              -0.001195775              -0.000640629              -0.004591131               0.001131778              -0.003459354               0.000000000               0.000000000               0.000000000               0.000000000              -0.008688912              -0.000638606               0.000030313              -0.003178514               0.000846630              -0.002331884               0.000000000               0.000000000               0.000000000               0.000000000              -0.005589691              -0.000338157               0.000654383              -0.002053863               0.000571898              -0.001481965               0.000000000               0.000000000               0.000000000               0.000000000              -0.003886854               0.000387980               0.000864036              -0.001506066               0.000631344              -0.000874722               0.000000000               0.000000000               0.000000000               0.000000000              -0.002815013               0.001143982               0.000913411              -0.001198626               0.000780864              -0.000417762               0.000000000               0.000000000               0.000000000               0.000000000              -0.002049880               0.001825322               0.000890399              -0.000996868               0.000940723              -0.000056145               0.000000000               0.000000000               0.000000000               0.000000000              -0.001433923               0.002411641               0.000839999              -0.000839174               0.001083597               0.000244422               0.000000000               0.000000000               0.000000000               0.000000000              -0.000894044               0.002910501               0.000782440              -0.000699078               0.001203183               0.000504105               0.000000000               0.000000000               0.000000000               0.000000000              -0.000385584               0.003338478               0.000724458              -0.000561903               0.001300116               0.000738213               0.000000000               0.000000000               0.000000000               0.000000000               0.000111934               0.003702010               0.000674102              -0.000420775               0.001374249               0.000953474               0.000000000               0.000000000               0.000000000               0.000000000               0.000613751               0.004015559               0.000629172              -0.000271788               0.001429102               0.001157314               0.000000000               0.000000000               0.000000000               0.000000000               0.001133717               0.004293230               0.000582545              -0.000111510               0.001468232               0.001356722               0.000000000               0.000000000               0.000000000               0.000000000               0.001688978               0.004530352               0.000522305               0.000067072               0.001487745               0.001554817               0.000000000               0.000000000               0.000000000               0.000000000               0.002298121               0.004719119               0.000440558               0.000271903               0.001482390               0.001754292               0.000000000               0.000000000               0.000000000               0.000000000               0.002976939               0.004858673               0.000331529               0.000509013               0.001449870               0.001958883               0.000000000               0.000000000               0.000000000               0.000000000               0.003738089               0.004944974               0.000184642               0.000783654               0.001387090               0.002170744               0.000000000               0.000000000               0.000000000               0.000000000               0.004305434               0.005032399               0.000111893               0.000985478               0.001348957               0.002334435               0.000000000               0.000000000               0.000000000               0.000000000               0.000000000               0.000000000               0.000000000               0.000000000               0.000000000               0.000000000               0.000000000               0.000000000               0.000000000               0.000000000               0.000000000               0.000000000               0.000000000               0.000000000               0.000000000               0.000000000               0.000000000               0.000000000               0.000000000               0.000000000               0.000000000               0.000000000               0.000000000               0.000000000               0.000000000               0.000000000               0.000000000               0.000000000               0.000000000               0.000000000               0.000000000               0.000000000               0.000000000               0.000000000               0.000000000               0.000000000               0.000000000               0.000000000               0.000000000               0.000000000               0.000000000               0.000000000               0.000000000               0.000000000               0.000000000               0.000000000               0.000000000               0.000000000               0.000000000               0.000000000               0.000000000               0.000000000               0.000000000               0.000000000               0.000000000               0.000000000               0.000000000               0.000000000               0.000000000               0.000000000               0.000000000               0.000000000               0.000000000               0.000000000               0.000000000               0.000000000               0.000000000               0.000000000               0.000000000               0.000000000               0.000000000               0.000000000               0.000000000               0.000000000               0.000000000               0.000000000               0.000000000               0.000000000               0.000000000               0.000000000               0.000000000               0.000000000               0.000000000               0.000000000               0.000000000               0.000000000               0.000000000               0.000000000               0.000000000               0.000000000               0.000000000               0.000000000               0.000000000               0.000000000               0.000000000               0.000000000               0.000000000               0.000000000               0.000000000               0.000000000               0.000000000               0.000000000               0.000000000               0.000000000               0.000000000               0.000000000               0.000000000               0.000000000               0.000000000               0.000000000               0.000000000               0.000000000               0.000000000               0.000000000               0.000000000               0.000000000               0.000000000               0.000000000               0.000000000               0.000000000               0.000000000               0.000000000               0.000000000               0.000000000               0.000000000               0.000000000               0.000000000               0.000000000               0.000000000               0.000000000               0.000000000               0.000000000               0.000000000               0.000000000               0.000000000               0.000000000               0.000000000               0.000000000               0.000000000               0.000000000               0.000000000               0.000000000               0.000000000               0.000000000               0.000000000               0.000000000               0.000000000               0.000000000               0.000000000               0.000000000               0.000000000               0.000000000               0.000000000               0.000000000               0.000000000               0.000000000               0.000000000               0.000000000               0.000000000               0.000000000               0.000000000               0.000000000               0.000000000               0.000000000               0.000000000               0.000000000               0.000000000               0.000000000               0.000000000               0.000000000 </DataArray>
</PointData>
</Piece>
</UnstructuredGrid> </VTKFile>
