<?xml version="1.0"?>
<VTKFile type="UnstructuredGrid" version="0.1">
<UnstructuredGrid>
<Piece NumberOfPoints="      1156" NumberOfCells="      1024">
<Points>
<DataArray type="Float64"                                    Name="coordinates"                                                      NumberOfComponents=" 3" format="ascii">
              0.133000000               0.000000000               0.000000000               0.155937500               0.000000000               0.000000000               0.178875000               0.000000000               0.000000000               0.201812500               0.000000000               0.000000000               0.224750000               0.000000000               0.000000000               0.247687500               0.000000000               0.000000000               0.270625000               0.000000000               0.000000000               0.293562500               0.000000000               0.000000000               0.316500000               0.000000000               0.000000000               0.339437500               0.000000000               0.000000000               0.362375000               0.000000000               0.000000000               0.385312500               0.000000000               0.000000000               0.408250000               0.000000000               0.000000000               0.431187500               0.000000000               0.000000000               0.454125000               0.000000000               0.000000000               0.477062500               0.000000000               0.000000000               0.500000000               0.000000000               0.000000000               0.132359569               0.013036280               0.000000000               0.155337096               0.016127762               0.000000000               0.178314623               0.019219245               0.000000000               0.201292150               0.022310727               0.000000000               0.224269676               0.025402210               0.000000000               0.247247203               0.028493692               0.000000000               0.270224730               0.031585175               0.000000000               0.293202257               0.034676657               0.000000000               0.316179784               0.037768140               0.000000000               0.339157311               0.040859622               0.000000000               0.362134838               0.043951105               0.000000000               0.385112365               0.047042587               0.000000000               0.408089892               0.050134070               0.000000000               0.431067419               0.053225552               0.000000000               0.454044946               0.056317035               0.000000000               0.477022473               0.059408517               0.000000000               0.500000000               0.062500000               0.000000000               0.130444442               0.025947013               0.000000000               0.153541665               0.032137825               0.000000000               0.176638887               0.038328636               0.000000000               0.199736109               0.044519448               0.000000000               0.222833332               0.050710260               0.000000000               0.245930554               0.056901071               0.000000000               0.269027776               0.063091883               0.000000000               0.292124999               0.069282695               0.000000000               0.315222221               0.075473506               0.000000000               0.338319444               0.081664318               0.000000000               0.361416666               0.087855130               0.000000000               0.384513888               0.094045942               0.000000000               0.407611111               0.100236753               0.000000000               0.430708333               0.106427565               0.000000000               0.453805555               0.112618377               0.000000000               0.476902778               0.118809188               0.000000000               0.500000000               0.125000000               0.000000000               0.127273065               0.038607862               0.000000000               0.150568498               0.047913621               0.000000000               0.173863932               0.057219379               0.000000000               0.197159365               0.066525138               0.000000000               0.220454798               0.075830897               0.000000000               0.243750232               0.085136655               0.000000000               0.267045665               0.094442414               0.000000000               0.290341099               0.103748172               0.000000000               0.313636532               0.113053931               0.000000000               0.336931966               0.122359690               0.000000000               0.360227399               0.131665448               0.000000000               0.383522833               0.140971207               0.000000000               0.406818266               0.150276966               0.000000000               0.430113700               0.159582724               0.000000000               0.453409133               0.168888483               0.000000000               0.476704567               0.178194241               0.000000000               0.500000000               0.187500000               0.000000000               0.122875978               0.050896897               0.000000000               0.146446229               0.063340840               0.000000000               0.170016481               0.075784784               0.000000000               0.193586732               0.088228728               0.000000000               0.217156983               0.100672672               0.000000000               0.240727235               0.113116616               0.000000000               0.264297486               0.125560560               0.000000000               0.287867738               0.138004504               0.000000000               0.311437989               0.150448448               0.000000000               0.335008240               0.162892392               0.000000000               0.358578492               0.175336336               0.000000000               0.382148743               0.187780280               0.000000000               0.405718994               0.200224224               0.000000000               0.429289246               0.212668168               0.000000000               0.452859497               0.225112112               0.000000000               0.476429749               0.237556056               0.000000000               0.500000000               0.250000000               0.000000000               0.117295528               0.062695766               0.000000000               0.141214558               0.078308531               0.000000000               0.165133587               0.093921295               0.000000000               0.189052617               0.109534060               0.000000000               0.212971646               0.125146824               0.000000000               0.236890676               0.140759589               0.000000000               0.260809705               0.156372354               0.000000000               0.284728735               0.171985118               0.000000000               0.308647764               0.187597883               0.000000000               0.332566794               0.203210648               0.000000000               0.356485823               0.218823412               0.000000000               0.380404853               0.234436177               0.000000000               0.404323882               0.250048941               0.000000000               0.428242912               0.265661706               0.000000000               0.452161941               0.281274471               0.000000000               0.476080971               0.296887235               0.000000000               0.500000000               0.312500000               0.000000000               0.110585458               0.073890841               0.000000000               0.134923867               0.092710163               0.000000000               0.159262276               0.111529486               0.000000000               0.183600685               0.130348808               0.000000000               0.207939094               0.149168131               0.000000000               0.232277503               0.167987453               0.000000000               0.256615912               0.186806776               0.000000000               0.280954320               0.205626098               0.000000000               0.305292729               0.224445420               0.000000000               0.329631138               0.243264743               0.000000000               0.353969547               0.262084065               0.000000000               0.378307956               0.280903388               0.000000000               0.402646365               0.299722710               0.000000000               0.426984773               0.318542033               0.000000000               0.451323182               0.337361355               0.000000000               0.475661591               0.356180678               0.000000000               0.500000000               0.375000000               0.000000000               0.102810390               0.084374307               0.000000000               0.127634741               0.106444663               0.000000000               0.152459092               0.128515018               0.000000000               0.177283442               0.150585374               0.000000000               0.202107793               0.172655730               0.000000000               0.226932143               0.194726086               0.000000000               0.251756494               0.216796442               0.000000000               0.276580845               0.238866798               0.000000000               0.301405195               0.260937153               0.000000000               0.326229546               0.283007509               0.000000000               0.351053896               0.305077865               0.000000000               0.375878247               0.327148221               0.000000000               0.400702598               0.349218577               0.000000000               0.425526948               0.371288933               0.000000000               0.450351299               0.393359288               0.000000000               0.475175649               0.415429644               0.000000000               0.500000000               0.437500000               0.000000000               0.094045202               0.094045202               0.000000000               0.119417377               0.119417377               0.000000000               0.144789552               0.144789552               0.000000000               0.170161727               0.170161727               0.000000000               0.195533901               0.195533901               0.000000000               0.220906076               0.220906076               0.000000000               0.246278251               0.246278251               0.000000000               0.271650426               0.271650426               0.000000000               0.297022601               0.297022601               0.000000000               0.322394776               0.322394776               0.000000000               0.347766951               0.347766951               0.000000000               0.373139126               0.373139126               0.000000000               0.398511300               0.398511300               0.000000000               0.423883475               0.423883475               0.000000000               0.449255650               0.449255650               0.000000000               0.474627825               0.474627825               0.000000000               0.500000000               0.500000000               0.000000000               0.084374307               0.102810390               0.000000000               0.106444663               0.127634741               0.000000000               0.128515018               0.152459092               0.000000000               0.150585374               0.177283442               0.000000000               0.172655730               0.202107793               0.000000000               0.194726086               0.226932143               0.000000000               0.216796442               0.251756494               0.000000000               0.238866798               0.276580845               0.000000000               0.260937153               0.301405195               0.000000000               0.283007509               0.326229546               0.000000000               0.305077865               0.351053896               0.000000000               0.327148221               0.375878247               0.000000000               0.349218577               0.400702598               0.000000000               0.371288933               0.425526948               0.000000000               0.393359288               0.450351299               0.000000000               0.415429644               0.475175649               0.000000000               0.437500000               0.500000000               0.000000000               0.073890841               0.110585458               0.000000000               0.092710163               0.134923867               0.000000000               0.111529486               0.159262276               0.000000000               0.130348808               0.183600685               0.000000000               0.149168131               0.207939094               0.000000000               0.167987453               0.232277503               0.000000000               0.186806776               0.256615912               0.000000000               0.205626098               0.280954320               0.000000000               0.224445420               0.305292729               0.000000000               0.243264743               0.329631138               0.000000000               0.262084065               0.353969547               0.000000000               0.280903388               0.378307956               0.000000000               0.299722710               0.402646365               0.000000000               0.318542033               0.426984773               0.000000000               0.337361355               0.451323182               0.000000000               0.356180678               0.475661591               0.000000000               0.375000000               0.500000000               0.000000000               0.062695766               0.117295528               0.000000000               0.078308531               0.141214558               0.000000000               0.093921295               0.165133587               0.000000000               0.109534060               0.189052617               0.000000000               0.125146824               0.212971646               0.000000000               0.140759589               0.236890676               0.000000000               0.156372354               0.260809705               0.000000000               0.171985118               0.284728735               0.000000000               0.187597883               0.308647764               0.000000000               0.203210648               0.332566794               0.000000000               0.218823412               0.356485823               0.000000000               0.234436177               0.380404853               0.000000000               0.250048941               0.404323882               0.000000000               0.265661706               0.428242912               0.000000000               0.281274471               0.452161941               0.000000000               0.296887235               0.476080971               0.000000000               0.312500000               0.500000000               0.000000000               0.050896897               0.122875978               0.000000000               0.063340840               0.146446229               0.000000000               0.075784784               0.170016481               0.000000000               0.088228728               0.193586732               0.000000000               0.100672672               0.217156983               0.000000000               0.113116616               0.240727235               0.000000000               0.125560560               0.264297486               0.000000000               0.138004504               0.287867738               0.000000000               0.150448448               0.311437989               0.000000000               0.162892392               0.335008240               0.000000000               0.175336336               0.358578492               0.000000000               0.187780280               0.382148743               0.000000000               0.200224224               0.405718994               0.000000000               0.212668168               0.429289246               0.000000000               0.225112112               0.452859497               0.000000000               0.237556056               0.476429749               0.000000000               0.250000000               0.500000000               0.000000000               0.038607862               0.127273065               0.000000000               0.047913621               0.150568498               0.000000000               0.057219379               0.173863932               0.000000000               0.066525138               0.197159365               0.000000000               0.075830897               0.220454798               0.000000000               0.085136655               0.243750232               0.000000000               0.094442414               0.267045665               0.000000000               0.103748172               0.290341099               0.000000000               0.113053931               0.313636532               0.000000000               0.122359690               0.336931966               0.000000000               0.131665448               0.360227399               0.000000000               0.140971207               0.383522833               0.000000000               0.150276966               0.406818266               0.000000000               0.159582724               0.430113700               0.000000000               0.168888483               0.453409133               0.000000000               0.178194241               0.476704567               0.000000000               0.187500000               0.500000000               0.000000000               0.025947013               0.130444442               0.000000000               0.032137825               0.153541665               0.000000000               0.038328636               0.176638887               0.000000000               0.044519448               0.199736109               0.000000000               0.050710260               0.222833332               0.000000000               0.056901071               0.245930554               0.000000000               0.063091883               0.269027776               0.000000000               0.069282695               0.292124999               0.000000000               0.075473506               0.315222221               0.000000000               0.081664318               0.338319444               0.000000000               0.087855130               0.361416666               0.000000000               0.094045942               0.384513888               0.000000000               0.100236753               0.407611111               0.000000000               0.106427565               0.430708333               0.000000000               0.112618377               0.453805555               0.000000000               0.118809188               0.476902778               0.000000000               0.125000000               0.500000000               0.000000000               0.013036280               0.132359569               0.000000000               0.016127762               0.155337096               0.000000000               0.019219245               0.178314623               0.000000000               0.022310727               0.201292150               0.000000000               0.025402210               0.224269676               0.000000000               0.028493692               0.247247203               0.000000000               0.031585175               0.270224730               0.000000000               0.034676657               0.293202257               0.000000000               0.037768140               0.316179784               0.000000000               0.040859622               0.339157311               0.000000000               0.043951105               0.362134838               0.000000000               0.047042587               0.385112365               0.000000000               0.050134070               0.408089892               0.000000000               0.053225552               0.431067419               0.000000000               0.056317035               0.454044946               0.000000000               0.059408517               0.477022473               0.000000000               0.062500000               0.500000000               0.000000000               0.000000000               0.133000000               0.000000000               0.000000000               0.155937500               0.000000000               0.000000000               0.178875000               0.000000000               0.000000000               0.201812500               0.000000000               0.000000000               0.224750000               0.000000000               0.000000000               0.247687500               0.000000000               0.000000000               0.270625000               0.000000000               0.000000000               0.293562500               0.000000000               0.000000000               0.316500000               0.000000000               0.000000000               0.339437500               0.000000000               0.000000000               0.362375000               0.000000000               0.000000000               0.385312500               0.000000000               0.000000000               0.408250000               0.000000000               0.000000000               0.431187500               0.000000000               0.000000000               0.454125000               0.000000000               0.000000000               0.477062500               0.000000000               0.000000000               0.500000000               0.000000000               0.133000000               0.000000000               0.000000000               0.155937500               0.000000000               0.000000000               0.178875000               0.000000000               0.000000000               0.201812500               0.000000000               0.000000000               0.224750000               0.000000000               0.000000000               0.247687500               0.000000000               0.000000000               0.270625000               0.000000000               0.000000000               0.293562500               0.000000000               0.000000000               0.316500000               0.000000000               0.000000000               0.339437500               0.000000000               0.000000000               0.362375000               0.000000000               0.000000000               0.385312500               0.000000000               0.000000000               0.408250000               0.000000000               0.000000000               0.431187500               0.000000000               0.000000000               0.454125000               0.000000000               0.000000000               0.477062500               0.000000000               0.000000000               0.500000000               0.000000000               0.000000000               0.132359569              -0.013036280               0.000000000               0.155337096              -0.016127762               0.000000000               0.178314623              -0.019219245               0.000000000               0.201292150              -0.022310727               0.000000000               0.224269676              -0.025402210               0.000000000               0.247247203              -0.028493692               0.000000000               0.270224730              -0.031585175               0.000000000               0.293202257              -0.034676657               0.000000000               0.316179784              -0.037768140               0.000000000               0.339157311              -0.040859622               0.000000000               0.362134838              -0.043951105               0.000000000               0.385112365              -0.047042587               0.000000000               0.408089892              -0.050134070               0.000000000               0.431067419              -0.053225552               0.000000000               0.454044946              -0.056317035               0.000000000               0.477022473              -0.059408517               0.000000000               0.500000000              -0.062500000               0.000000000               0.130444442              -0.025947013               0.000000000               0.153541665              -0.032137825               0.000000000               0.176638887              -0.038328636               0.000000000               0.199736109              -0.044519448               0.000000000               0.222833332              -0.050710260               0.000000000               0.245930554              -0.056901071               0.000000000               0.269027776              -0.063091883               0.000000000               0.292124999              -0.069282695               0.000000000               0.315222221              -0.075473506               0.000000000               0.338319444              -0.081664318               0.000000000               0.361416666              -0.087855130               0.000000000               0.384513888              -0.094045942               0.000000000               0.407611111              -0.100236753               0.000000000               0.430708333              -0.106427565               0.000000000               0.453805555              -0.112618377               0.000000000               0.476902778              -0.118809188               0.000000000               0.500000000              -0.125000000               0.000000000               0.127273065              -0.038607862               0.000000000               0.150568498              -0.047913621               0.000000000               0.173863932              -0.057219379               0.000000000               0.197159365              -0.066525138               0.000000000               0.220454798              -0.075830897               0.000000000               0.243750232              -0.085136655               0.000000000               0.267045665              -0.094442414               0.000000000               0.290341099              -0.103748172               0.000000000               0.313636532              -0.113053931               0.000000000               0.336931966              -0.122359690               0.000000000               0.360227399              -0.131665448               0.000000000               0.383522833              -0.140971207               0.000000000               0.406818266              -0.150276966               0.000000000               0.430113700              -0.159582724               0.000000000               0.453409133              -0.168888483               0.000000000               0.476704567              -0.178194241               0.000000000               0.500000000              -0.187500000               0.000000000               0.122875978              -0.050896897               0.000000000               0.146446229              -0.063340840               0.000000000               0.170016481              -0.075784784               0.000000000               0.193586732              -0.088228728               0.000000000               0.217156983              -0.100672672               0.000000000               0.240727235              -0.113116616               0.000000000               0.264297486              -0.125560560               0.000000000               0.287867738              -0.138004504               0.000000000               0.311437989              -0.150448448               0.000000000               0.335008240              -0.162892392               0.000000000               0.358578492              -0.175336336               0.000000000               0.382148743              -0.187780280               0.000000000               0.405718994              -0.200224224               0.000000000               0.429289246              -0.212668168               0.000000000               0.452859497              -0.225112112               0.000000000               0.476429749              -0.237556056               0.000000000               0.500000000              -0.250000000               0.000000000               0.117295528              -0.062695766               0.000000000               0.141214558              -0.078308531               0.000000000               0.165133587              -0.093921295               0.000000000               0.189052617              -0.109534060               0.000000000               0.212971646              -0.125146824               0.000000000               0.236890676              -0.140759589               0.000000000               0.260809705              -0.156372354               0.000000000               0.284728735              -0.171985118               0.000000000               0.308647764              -0.187597883               0.000000000               0.332566794              -0.203210648               0.000000000               0.356485823              -0.218823412               0.000000000               0.380404853              -0.234436177               0.000000000               0.404323882              -0.250048941               0.000000000               0.428242912              -0.265661706               0.000000000               0.452161941              -0.281274471               0.000000000               0.476080971              -0.296887235               0.000000000               0.500000000              -0.312500000               0.000000000               0.110585458              -0.073890841               0.000000000               0.134923867              -0.092710163               0.000000000               0.159262276              -0.111529486               0.000000000               0.183600685              -0.130348808               0.000000000               0.207939094              -0.149168131               0.000000000               0.232277503              -0.167987453               0.000000000               0.256615912              -0.186806776               0.000000000               0.280954320              -0.205626098               0.000000000               0.305292729              -0.224445420               0.000000000               0.329631138              -0.243264743               0.000000000               0.353969547              -0.262084065               0.000000000               0.378307956              -0.280903388               0.000000000               0.402646365              -0.299722710               0.000000000               0.426984773              -0.318542033               0.000000000               0.451323182              -0.337361355               0.000000000               0.475661591              -0.356180678               0.000000000               0.500000000              -0.375000000               0.000000000               0.102810390              -0.084374307               0.000000000               0.127634741              -0.106444663               0.000000000               0.152459092              -0.128515018               0.000000000               0.177283442              -0.150585374               0.000000000               0.202107793              -0.172655730               0.000000000               0.226932143              -0.194726086               0.000000000               0.251756494              -0.216796442               0.000000000               0.276580845              -0.238866798               0.000000000               0.301405195              -0.260937153               0.000000000               0.326229546              -0.283007509               0.000000000               0.351053896              -0.305077865               0.000000000               0.375878247              -0.327148221               0.000000000               0.400702598              -0.349218577               0.000000000               0.425526948              -0.371288933               0.000000000               0.450351299              -0.393359288               0.000000000               0.475175649              -0.415429644               0.000000000               0.500000000              -0.437500000               0.000000000               0.094045202              -0.094045202               0.000000000               0.119417377              -0.119417377               0.000000000               0.144789552              -0.144789552               0.000000000               0.170161727              -0.170161727               0.000000000               0.195533901              -0.195533901               0.000000000               0.220906076              -0.220906076               0.000000000               0.246278251              -0.246278251               0.000000000               0.271650426              -0.271650426               0.000000000               0.297022601              -0.297022601               0.000000000               0.322394776              -0.322394776               0.000000000               0.347766951              -0.347766951               0.000000000               0.373139126              -0.373139126               0.000000000               0.398511300              -0.398511300               0.000000000               0.423883475              -0.423883475               0.000000000               0.449255650              -0.449255650               0.000000000               0.474627825              -0.474627825               0.000000000               0.500000000              -0.500000000               0.000000000               0.084374307              -0.102810390               0.000000000               0.106444663              -0.127634741               0.000000000               0.128515018              -0.152459092               0.000000000               0.150585374              -0.177283442               0.000000000               0.172655730              -0.202107793               0.000000000               0.194726086              -0.226932143               0.000000000               0.216796442              -0.251756494               0.000000000               0.238866798              -0.276580845               0.000000000               0.260937153              -0.301405195               0.000000000               0.283007509              -0.326229546               0.000000000               0.305077865              -0.351053896               0.000000000               0.327148221              -0.375878247               0.000000000               0.349218577              -0.400702598               0.000000000               0.371288933              -0.425526948               0.000000000               0.393359288              -0.450351299               0.000000000               0.415429644              -0.475175649               0.000000000               0.437500000              -0.500000000               0.000000000               0.073890841              -0.110585458               0.000000000               0.092710163              -0.134923867               0.000000000               0.111529486              -0.159262276               0.000000000               0.130348808              -0.183600685               0.000000000               0.149168131              -0.207939094               0.000000000               0.167987453              -0.232277503               0.000000000               0.186806776              -0.256615912               0.000000000               0.205626098              -0.280954320               0.000000000               0.224445420              -0.305292729               0.000000000               0.243264743              -0.329631138               0.000000000               0.262084065              -0.353969547               0.000000000               0.280903388              -0.378307956               0.000000000               0.299722710              -0.402646365               0.000000000               0.318542033              -0.426984773               0.000000000               0.337361355              -0.451323182               0.000000000               0.356180678              -0.475661591               0.000000000               0.375000000              -0.500000000               0.000000000               0.062695766              -0.117295528               0.000000000               0.078308531              -0.141214558               0.000000000               0.093921295              -0.165133587               0.000000000               0.109534060              -0.189052617               0.000000000               0.125146824              -0.212971646               0.000000000               0.140759589              -0.236890676               0.000000000               0.156372354              -0.260809705               0.000000000               0.171985118              -0.284728735               0.000000000               0.187597883              -0.308647764               0.000000000               0.203210648              -0.332566794               0.000000000               0.218823412              -0.356485823               0.000000000               0.234436177              -0.380404853               0.000000000               0.250048941              -0.404323882               0.000000000               0.265661706              -0.428242912               0.000000000               0.281274471              -0.452161941               0.000000000               0.296887235              -0.476080971               0.000000000               0.312500000              -0.500000000               0.000000000               0.050896897              -0.122875978               0.000000000               0.063340840              -0.146446229               0.000000000               0.075784784              -0.170016481               0.000000000               0.088228728              -0.193586732               0.000000000               0.100672672              -0.217156983               0.000000000               0.113116616              -0.240727235               0.000000000               0.125560560              -0.264297486               0.000000000               0.138004504              -0.287867738               0.000000000               0.150448448              -0.311437989               0.000000000               0.162892392              -0.335008240               0.000000000               0.175336336              -0.358578492               0.000000000               0.187780280              -0.382148743               0.000000000               0.200224224              -0.405718994               0.000000000               0.212668168              -0.429289246               0.000000000               0.225112112              -0.452859497               0.000000000               0.237556056              -0.476429749               0.000000000               0.250000000              -0.500000000               0.000000000               0.038607862              -0.127273065               0.000000000               0.047913621              -0.150568498               0.000000000               0.057219379              -0.173863932               0.000000000               0.066525138              -0.197159365               0.000000000               0.075830897              -0.220454798               0.000000000               0.085136655              -0.243750232               0.000000000               0.094442414              -0.267045665               0.000000000               0.103748172              -0.290341099               0.000000000               0.113053931              -0.313636532               0.000000000               0.122359690              -0.336931966               0.000000000               0.131665448              -0.360227399               0.000000000               0.140971207              -0.383522833               0.000000000               0.150276966              -0.406818266               0.000000000               0.159582724              -0.430113700               0.000000000               0.168888483              -0.453409133               0.000000000               0.178194241              -0.476704567               0.000000000               0.187500000              -0.500000000               0.000000000               0.025947013              -0.130444442               0.000000000               0.032137825              -0.153541665               0.000000000               0.038328636              -0.176638887               0.000000000               0.044519448              -0.199736109               0.000000000               0.050710260              -0.222833332               0.000000000               0.056901071              -0.245930554               0.000000000               0.063091883              -0.269027776               0.000000000               0.069282695              -0.292124999               0.000000000               0.075473506              -0.315222221               0.000000000               0.081664318              -0.338319444               0.000000000               0.087855130              -0.361416666               0.000000000               0.094045942              -0.384513888               0.000000000               0.100236753              -0.407611111               0.000000000               0.106427565              -0.430708333               0.000000000               0.112618377              -0.453805555               0.000000000               0.118809188              -0.476902778               0.000000000               0.125000000              -0.500000000               0.000000000               0.013036280              -0.132359569               0.000000000               0.016127762              -0.155337096               0.000000000               0.019219245              -0.178314623               0.000000000               0.022310727              -0.201292150               0.000000000               0.025402210              -0.224269676               0.000000000               0.028493692              -0.247247203               0.000000000               0.031585175              -0.270224730               0.000000000               0.034676657              -0.293202257               0.000000000               0.037768140              -0.316179784               0.000000000               0.040859622              -0.339157311               0.000000000               0.043951105              -0.362134838               0.000000000               0.047042587              -0.385112365               0.000000000               0.050134070              -0.408089892               0.000000000               0.053225552              -0.431067419               0.000000000               0.056317035              -0.454044946               0.000000000               0.059408517              -0.477022473               0.000000000               0.062500000              -0.500000000               0.000000000               0.000000000              -0.133000000               0.000000000               0.000000000              -0.155937500               0.000000000               0.000000000              -0.178875000               0.000000000               0.000000000              -0.201812500               0.000000000               0.000000000              -0.224750000               0.000000000               0.000000000              -0.247687500               0.000000000               0.000000000              -0.270625000               0.000000000               0.000000000              -0.293562500               0.000000000               0.000000000              -0.316500000               0.000000000               0.000000000              -0.339437500               0.000000000               0.000000000              -0.362375000               0.000000000               0.000000000              -0.385312500               0.000000000               0.000000000              -0.408250000               0.000000000               0.000000000              -0.431187500               0.000000000               0.000000000              -0.454125000               0.000000000               0.000000000              -0.477062500               0.000000000               0.000000000              -0.500000000               0.000000000              -0.133000000               0.000000000               0.000000000              -0.155937500               0.000000000               0.000000000              -0.178875000               0.000000000               0.000000000              -0.201812500               0.000000000               0.000000000              -0.224750000               0.000000000               0.000000000              -0.247687500               0.000000000               0.000000000              -0.270625000               0.000000000               0.000000000              -0.293562500               0.000000000               0.000000000              -0.316500000               0.000000000               0.000000000              -0.339437500               0.000000000               0.000000000              -0.362375000               0.000000000               0.000000000              -0.385312500               0.000000000               0.000000000              -0.408250000               0.000000000               0.000000000              -0.431187500               0.000000000               0.000000000              -0.454125000               0.000000000               0.000000000              -0.477062500               0.000000000               0.000000000              -0.500000000               0.000000000               0.000000000              -0.132359569              -0.013036280               0.000000000              -0.155337096              -0.016127762               0.000000000              -0.178314623              -0.019219245               0.000000000              -0.201292150              -0.022310727               0.000000000              -0.224269676              -0.025402210               0.000000000              -0.247247203              -0.028493692               0.000000000              -0.270224730              -0.031585175               0.000000000              -0.293202257              -0.034676657               0.000000000              -0.316179784              -0.037768140               0.000000000              -0.339157311              -0.040859622               0.000000000              -0.362134838              -0.043951105               0.000000000              -0.385112365              -0.047042587               0.000000000              -0.408089892              -0.050134070               0.000000000              -0.431067419              -0.053225552               0.000000000              -0.454044946              -0.056317035               0.000000000              -0.477022473              -0.059408517               0.000000000              -0.500000000              -0.062500000               0.000000000              -0.130444442              -0.025947013               0.000000000              -0.153541665              -0.032137825               0.000000000              -0.176638887              -0.038328636               0.000000000              -0.199736109              -0.044519448               0.000000000              -0.222833332              -0.050710260               0.000000000              -0.245930554              -0.056901071               0.000000000              -0.269027776              -0.063091883               0.000000000              -0.292124999              -0.069282695               0.000000000              -0.315222221              -0.075473506               0.000000000              -0.338319444              -0.081664318               0.000000000              -0.361416666              -0.087855130               0.000000000              -0.384513888              -0.094045942               0.000000000              -0.407611111              -0.100236753               0.000000000              -0.430708333              -0.106427565               0.000000000              -0.453805555              -0.112618377               0.000000000              -0.476902778              -0.118809188               0.000000000              -0.500000000              -0.125000000               0.000000000              -0.127273065              -0.038607862               0.000000000              -0.150568498              -0.047913621               0.000000000              -0.173863932              -0.057219379               0.000000000              -0.197159365              -0.066525138               0.000000000              -0.220454798              -0.075830897               0.000000000              -0.243750232              -0.085136655               0.000000000              -0.267045665              -0.094442414               0.000000000              -0.290341099              -0.103748172               0.000000000              -0.313636532              -0.113053931               0.000000000              -0.336931966              -0.122359690               0.000000000              -0.360227399              -0.131665448               0.000000000              -0.383522833              -0.140971207               0.000000000              -0.406818266              -0.150276966               0.000000000              -0.430113700              -0.159582724               0.000000000              -0.453409133              -0.168888483               0.000000000              -0.476704567              -0.178194241               0.000000000              -0.500000000              -0.187500000               0.000000000              -0.122875978              -0.050896897               0.000000000              -0.146446229              -0.063340840               0.000000000              -0.170016481              -0.075784784               0.000000000              -0.193586732              -0.088228728               0.000000000              -0.217156983              -0.100672672               0.000000000              -0.240727235              -0.113116616               0.000000000              -0.264297486              -0.125560560               0.000000000              -0.287867738              -0.138004504               0.000000000              -0.311437989              -0.150448448               0.000000000              -0.335008240              -0.162892392               0.000000000              -0.358578492              -0.175336336               0.000000000              -0.382148743              -0.187780280               0.000000000              -0.405718994              -0.200224224               0.000000000              -0.429289246              -0.212668168               0.000000000              -0.452859497              -0.225112112               0.000000000              -0.476429749              -0.237556056               0.000000000              -0.500000000              -0.250000000               0.000000000              -0.117295528              -0.062695766               0.000000000              -0.141214558              -0.078308531               0.000000000              -0.165133587              -0.093921295               0.000000000              -0.189052617              -0.109534060               0.000000000              -0.212971646              -0.125146824               0.000000000              -0.236890676              -0.140759589               0.000000000              -0.260809705              -0.156372354               0.000000000              -0.284728735              -0.171985118               0.000000000              -0.308647764              -0.187597883               0.000000000              -0.332566794              -0.203210648               0.000000000              -0.356485823              -0.218823412               0.000000000              -0.380404853              -0.234436177               0.000000000              -0.404323882              -0.250048941               0.000000000              -0.428242912              -0.265661706               0.000000000              -0.452161941              -0.281274471               0.000000000              -0.476080971              -0.296887235               0.000000000              -0.500000000              -0.312500000               0.000000000              -0.110585458              -0.073890841               0.000000000              -0.134923867              -0.092710163               0.000000000              -0.159262276              -0.111529486               0.000000000              -0.183600685              -0.130348808               0.000000000              -0.207939094              -0.149168131               0.000000000              -0.232277503              -0.167987453               0.000000000              -0.256615912              -0.186806776               0.000000000              -0.280954320              -0.205626098               0.000000000              -0.305292729              -0.224445420               0.000000000              -0.329631138              -0.243264743               0.000000000              -0.353969547              -0.262084065               0.000000000              -0.378307956              -0.280903388               0.000000000              -0.402646365              -0.299722710               0.000000000              -0.426984773              -0.318542033               0.000000000              -0.451323182              -0.337361355               0.000000000              -0.475661591              -0.356180678               0.000000000              -0.500000000              -0.375000000               0.000000000              -0.102810390              -0.084374307               0.000000000              -0.127634741              -0.106444663               0.000000000              -0.152459092              -0.128515018               0.000000000              -0.177283442              -0.150585374               0.000000000              -0.202107793              -0.172655730               0.000000000              -0.226932143              -0.194726086               0.000000000              -0.251756494              -0.216796442               0.000000000              -0.276580845              -0.238866798               0.000000000              -0.301405195              -0.260937153               0.000000000              -0.326229546              -0.283007509               0.000000000              -0.351053896              -0.305077865               0.000000000              -0.375878247              -0.327148221               0.000000000              -0.400702598              -0.349218577               0.000000000              -0.425526948              -0.371288933               0.000000000              -0.450351299              -0.393359288               0.000000000              -0.475175649              -0.415429644               0.000000000              -0.500000000              -0.437500000               0.000000000              -0.094045202              -0.094045202               0.000000000              -0.119417377              -0.119417377               0.000000000              -0.144789552              -0.144789552               0.000000000              -0.170161727              -0.170161727               0.000000000              -0.195533901              -0.195533901               0.000000000              -0.220906076              -0.220906076               0.000000000              -0.246278251              -0.246278251               0.000000000              -0.271650426              -0.271650426               0.000000000              -0.297022601              -0.297022601               0.000000000              -0.322394776              -0.322394776               0.000000000              -0.347766951              -0.347766951               0.000000000              -0.373139126              -0.373139126               0.000000000              -0.398511300              -0.398511300               0.000000000              -0.423883475              -0.423883475               0.000000000              -0.449255650              -0.449255650               0.000000000              -0.474627825              -0.474627825               0.000000000              -0.500000000              -0.500000000               0.000000000              -0.084374307              -0.102810390               0.000000000              -0.106444663              -0.127634741               0.000000000              -0.128515018              -0.152459092               0.000000000              -0.150585374              -0.177283442               0.000000000              -0.172655730              -0.202107793               0.000000000              -0.194726086              -0.226932143               0.000000000              -0.216796442              -0.251756494               0.000000000              -0.238866798              -0.276580845               0.000000000              -0.260937153              -0.301405195               0.000000000              -0.283007509              -0.326229546               0.000000000              -0.305077865              -0.351053896               0.000000000              -0.327148221              -0.375878247               0.000000000              -0.349218577              -0.400702598               0.000000000              -0.371288933              -0.425526948               0.000000000              -0.393359288              -0.450351299               0.000000000              -0.415429644              -0.475175649               0.000000000              -0.437500000              -0.500000000               0.000000000              -0.073890841              -0.110585458               0.000000000              -0.092710163              -0.134923867               0.000000000              -0.111529486              -0.159262276               0.000000000              -0.130348808              -0.183600685               0.000000000              -0.149168131              -0.207939094               0.000000000              -0.167987453              -0.232277503               0.000000000              -0.186806776              -0.256615912               0.000000000              -0.205626098              -0.280954320               0.000000000              -0.224445420              -0.305292729               0.000000000              -0.243264743              -0.329631138               0.000000000              -0.262084065              -0.353969547               0.000000000              -0.280903388              -0.378307956               0.000000000              -0.299722710              -0.402646365               0.000000000              -0.318542033              -0.426984773               0.000000000              -0.337361355              -0.451323182               0.000000000              -0.356180678              -0.475661591               0.000000000              -0.375000000              -0.500000000               0.000000000              -0.062695766              -0.117295528               0.000000000              -0.078308531              -0.141214558               0.000000000              -0.093921295              -0.165133587               0.000000000              -0.109534060              -0.189052617               0.000000000              -0.125146824              -0.212971646               0.000000000              -0.140759589              -0.236890676               0.000000000              -0.156372354              -0.260809705               0.000000000              -0.171985118              -0.284728735               0.000000000              -0.187597883              -0.308647764               0.000000000              -0.203210648              -0.332566794               0.000000000              -0.218823412              -0.356485823               0.000000000              -0.234436177              -0.380404853               0.000000000              -0.250048941              -0.404323882               0.000000000              -0.265661706              -0.428242912               0.000000000              -0.281274471              -0.452161941               0.000000000              -0.296887235              -0.476080971               0.000000000              -0.312500000              -0.500000000               0.000000000              -0.050896897              -0.122875978               0.000000000              -0.063340840              -0.146446229               0.000000000              -0.075784784              -0.170016481               0.000000000              -0.088228728              -0.193586732               0.000000000              -0.100672672              -0.217156983               0.000000000              -0.113116616              -0.240727235               0.000000000              -0.125560560              -0.264297486               0.000000000              -0.138004504              -0.287867738               0.000000000              -0.150448448              -0.311437989               0.000000000              -0.162892392              -0.335008240               0.000000000              -0.175336336              -0.358578492               0.000000000              -0.187780280              -0.382148743               0.000000000              -0.200224224              -0.405718994               0.000000000              -0.212668168              -0.429289246               0.000000000              -0.225112112              -0.452859497               0.000000000              -0.237556056              -0.476429749               0.000000000              -0.250000000              -0.500000000               0.000000000              -0.038607862              -0.127273065               0.000000000              -0.047913621              -0.150568498               0.000000000              -0.057219379              -0.173863932               0.000000000              -0.066525138              -0.197159365               0.000000000              -0.075830897              -0.220454798               0.000000000              -0.085136655              -0.243750232               0.000000000              -0.094442414              -0.267045665               0.000000000              -0.103748172              -0.290341099               0.000000000              -0.113053931              -0.313636532               0.000000000              -0.122359690              -0.336931966               0.000000000              -0.131665448              -0.360227399               0.000000000              -0.140971207              -0.383522833               0.000000000              -0.150276966              -0.406818266               0.000000000              -0.159582724              -0.430113700               0.000000000              -0.168888483              -0.453409133               0.000000000              -0.178194241              -0.476704567               0.000000000              -0.187500000              -0.500000000               0.000000000              -0.025947013              -0.130444442               0.000000000              -0.032137825              -0.153541665               0.000000000              -0.038328636              -0.176638887               0.000000000              -0.044519448              -0.199736109               0.000000000              -0.050710260              -0.222833332               0.000000000              -0.056901071              -0.245930554               0.000000000              -0.063091883              -0.269027776               0.000000000              -0.069282695              -0.292124999               0.000000000              -0.075473506              -0.315222221               0.000000000              -0.081664318              -0.338319444               0.000000000              -0.087855130              -0.361416666               0.000000000              -0.094045942              -0.384513888               0.000000000              -0.100236753              -0.407611111               0.000000000              -0.106427565              -0.430708333               0.000000000              -0.112618377              -0.453805555               0.000000000              -0.118809188              -0.476902778               0.000000000              -0.125000000              -0.500000000               0.000000000              -0.013036280              -0.132359569               0.000000000              -0.016127762              -0.155337096               0.000000000              -0.019219245              -0.178314623               0.000000000              -0.022310727              -0.201292150               0.000000000              -0.025402210              -0.224269676               0.000000000              -0.028493692              -0.247247203               0.000000000              -0.031585175              -0.270224730               0.000000000              -0.034676657              -0.293202257               0.000000000              -0.037768140              -0.316179784               0.000000000              -0.040859622              -0.339157311               0.000000000              -0.043951105              -0.362134838               0.000000000              -0.047042587              -0.385112365               0.000000000              -0.050134070              -0.408089892               0.000000000              -0.053225552              -0.431067419               0.000000000              -0.056317035              -0.454044946               0.000000000              -0.059408517              -0.477022473               0.000000000              -0.062500000              -0.500000000               0.000000000               0.000000000              -0.133000000               0.000000000               0.000000000              -0.155937500               0.000000000               0.000000000              -0.178875000               0.000000000               0.000000000              -0.201812500               0.000000000               0.000000000              -0.224750000               0.000000000               0.000000000              -0.247687500               0.000000000               0.000000000              -0.270625000               0.000000000               0.000000000              -0.293562500               0.000000000               0.000000000              -0.316500000               0.000000000               0.000000000              -0.339437500               0.000000000               0.000000000              -0.362375000               0.000000000               0.000000000              -0.385312500               0.000000000               0.000000000              -0.408250000               0.000000000               0.000000000              -0.431187500               0.000000000               0.000000000              -0.454125000               0.000000000               0.000000000              -0.477062500               0.000000000               0.000000000              -0.500000000               0.000000000              -0.133000000               0.000000000               0.000000000              -0.155937500               0.000000000               0.000000000              -0.178875000               0.000000000               0.000000000              -0.201812500               0.000000000               0.000000000              -0.224750000               0.000000000               0.000000000              -0.247687500               0.000000000               0.000000000              -0.270625000               0.000000000               0.000000000              -0.293562500               0.000000000               0.000000000              -0.316500000               0.000000000               0.000000000              -0.339437500               0.000000000               0.000000000              -0.362375000               0.000000000               0.000000000              -0.385312500               0.000000000               0.000000000              -0.408250000               0.000000000               0.000000000              -0.431187500               0.000000000               0.000000000              -0.454125000               0.000000000               0.000000000              -0.477062500               0.000000000               0.000000000              -0.500000000               0.000000000               0.000000000              -0.132359569               0.013036280               0.000000000              -0.155337096               0.016127762               0.000000000              -0.178314623               0.019219245               0.000000000              -0.201292150               0.022310727               0.000000000              -0.224269676               0.025402210               0.000000000              -0.247247203               0.028493692               0.000000000              -0.270224730               0.031585175               0.000000000              -0.293202257               0.034676657               0.000000000              -0.316179784               0.037768140               0.000000000              -0.339157311               0.040859622               0.000000000              -0.362134838               0.043951105               0.000000000              -0.385112365               0.047042587               0.000000000              -0.408089892               0.050134070               0.000000000              -0.431067419               0.053225552               0.000000000              -0.454044946               0.056317035               0.000000000              -0.477022473               0.059408517               0.000000000              -0.500000000               0.062500000               0.000000000              -0.130444442               0.025947013               0.000000000              -0.153541665               0.032137825               0.000000000              -0.176638887               0.038328636               0.000000000              -0.199736109               0.044519448               0.000000000              -0.222833332               0.050710260               0.000000000              -0.245930554               0.056901071               0.000000000              -0.269027776               0.063091883               0.000000000              -0.292124999               0.069282695               0.000000000              -0.315222221               0.075473506               0.000000000              -0.338319444               0.081664318               0.000000000              -0.361416666               0.087855130               0.000000000              -0.384513888               0.094045942               0.000000000              -0.407611111               0.100236753               0.000000000              -0.430708333               0.106427565               0.000000000              -0.453805555               0.112618377               0.000000000              -0.476902778               0.118809188               0.000000000              -0.500000000               0.125000000               0.000000000              -0.127273065               0.038607862               0.000000000              -0.150568498               0.047913621               0.000000000              -0.173863932               0.057219379               0.000000000              -0.197159365               0.066525138               0.000000000              -0.220454798               0.075830897               0.000000000              -0.243750232               0.085136655               0.000000000              -0.267045665               0.094442414               0.000000000              -0.290341099               0.103748172               0.000000000              -0.313636532               0.113053931               0.000000000              -0.336931966               0.122359690               0.000000000              -0.360227399               0.131665448               0.000000000              -0.383522833               0.140971207               0.000000000              -0.406818266               0.150276966               0.000000000              -0.430113700               0.159582724               0.000000000              -0.453409133               0.168888483               0.000000000              -0.476704567               0.178194241               0.000000000              -0.500000000               0.187500000               0.000000000              -0.122875978               0.050896897               0.000000000              -0.146446229               0.063340840               0.000000000              -0.170016481               0.075784784               0.000000000              -0.193586732               0.088228728               0.000000000              -0.217156983               0.100672672               0.000000000              -0.240727235               0.113116616               0.000000000              -0.264297486               0.125560560               0.000000000              -0.287867738               0.138004504               0.000000000              -0.311437989               0.150448448               0.000000000              -0.335008240               0.162892392               0.000000000              -0.358578492               0.175336336               0.000000000              -0.382148743               0.187780280               0.000000000              -0.405718994               0.200224224               0.000000000              -0.429289246               0.212668168               0.000000000              -0.452859497               0.225112112               0.000000000              -0.476429749               0.237556056               0.000000000              -0.500000000               0.250000000               0.000000000              -0.117295528               0.062695766               0.000000000              -0.141214558               0.078308531               0.000000000              -0.165133587               0.093921295               0.000000000              -0.189052617               0.109534060               0.000000000              -0.212971646               0.125146824               0.000000000              -0.236890676               0.140759589               0.000000000              -0.260809705               0.156372354               0.000000000              -0.284728735               0.171985118               0.000000000              -0.308647764               0.187597883               0.000000000              -0.332566794               0.203210648               0.000000000              -0.356485823               0.218823412               0.000000000              -0.380404853               0.234436177               0.000000000              -0.404323882               0.250048941               0.000000000              -0.428242912               0.265661706               0.000000000              -0.452161941               0.281274471               0.000000000              -0.476080971               0.296887235               0.000000000              -0.500000000               0.312500000               0.000000000              -0.110585458               0.073890841               0.000000000              -0.134923867               0.092710163               0.000000000              -0.159262276               0.111529486               0.000000000              -0.183600685               0.130348808               0.000000000              -0.207939094               0.149168131               0.000000000              -0.232277503               0.167987453               0.000000000              -0.256615912               0.186806776               0.000000000              -0.280954320               0.205626098               0.000000000              -0.305292729               0.224445420               0.000000000              -0.329631138               0.243264743               0.000000000              -0.353969547               0.262084065               0.000000000              -0.378307956               0.280903388               0.000000000              -0.402646365               0.299722710               0.000000000              -0.426984773               0.318542033               0.000000000              -0.451323182               0.337361355               0.000000000              -0.475661591               0.356180678               0.000000000              -0.500000000               0.375000000               0.000000000              -0.102810390               0.084374307               0.000000000              -0.127634741               0.106444663               0.000000000              -0.152459092               0.128515018               0.000000000              -0.177283442               0.150585374               0.000000000              -0.202107793               0.172655730               0.000000000              -0.226932143               0.194726086               0.000000000              -0.251756494               0.216796442               0.000000000              -0.276580845               0.238866798               0.000000000              -0.301405195               0.260937153               0.000000000              -0.326229546               0.283007509               0.000000000              -0.351053896               0.305077865               0.000000000              -0.375878247               0.327148221               0.000000000              -0.400702598               0.349218577               0.000000000              -0.425526948               0.371288933               0.000000000              -0.450351299               0.393359288               0.000000000              -0.475175649               0.415429644               0.000000000              -0.500000000               0.437500000               0.000000000              -0.094045202               0.094045202               0.000000000              -0.119417377               0.119417377               0.000000000              -0.144789552               0.144789552               0.000000000              -0.170161727               0.170161727               0.000000000              -0.195533901               0.195533901               0.000000000              -0.220906076               0.220906076               0.000000000              -0.246278251               0.246278251               0.000000000              -0.271650426               0.271650426               0.000000000              -0.297022601               0.297022601               0.000000000              -0.322394776               0.322394776               0.000000000              -0.347766951               0.347766951               0.000000000              -0.373139126               0.373139126               0.000000000              -0.398511300               0.398511300               0.000000000              -0.423883475               0.423883475               0.000000000              -0.449255650               0.449255650               0.000000000              -0.474627825               0.474627825               0.000000000              -0.500000000               0.500000000               0.000000000              -0.084374307               0.102810390               0.000000000              -0.106444663               0.127634741               0.000000000              -0.128515018               0.152459092               0.000000000              -0.150585374               0.177283442               0.000000000              -0.172655730               0.202107793               0.000000000              -0.194726086               0.226932143               0.000000000              -0.216796442               0.251756494               0.000000000              -0.238866798               0.276580845               0.000000000              -0.260937153               0.301405195               0.000000000              -0.283007509               0.326229546               0.000000000              -0.305077865               0.351053896               0.000000000              -0.327148221               0.375878247               0.000000000              -0.349218577               0.400702598               0.000000000              -0.371288933               0.425526948               0.000000000              -0.393359288               0.450351299               0.000000000              -0.415429644               0.475175649               0.000000000              -0.437500000               0.500000000               0.000000000              -0.073890841               0.110585458               0.000000000              -0.092710163               0.134923867               0.000000000              -0.111529486               0.159262276               0.000000000              -0.130348808               0.183600685               0.000000000              -0.149168131               0.207939094               0.000000000              -0.167987453               0.232277503               0.000000000              -0.186806776               0.256615912               0.000000000              -0.205626098               0.280954320               0.000000000              -0.224445420               0.305292729               0.000000000              -0.243264743               0.329631138               0.000000000              -0.262084065               0.353969547               0.000000000              -0.280903388               0.378307956               0.000000000              -0.299722710               0.402646365               0.000000000              -0.318542033               0.426984773               0.000000000              -0.337361355               0.451323182               0.000000000              -0.356180678               0.475661591               0.000000000              -0.375000000               0.500000000               0.000000000              -0.062695766               0.117295528               0.000000000              -0.078308531               0.141214558               0.000000000              -0.093921295               0.165133587               0.000000000              -0.109534060               0.189052617               0.000000000              -0.125146824               0.212971646               0.000000000              -0.140759589               0.236890676               0.000000000              -0.156372354               0.260809705               0.000000000              -0.171985118               0.284728735               0.000000000              -0.187597883               0.308647764               0.000000000              -0.203210648               0.332566794               0.000000000              -0.218823412               0.356485823               0.000000000              -0.234436177               0.380404853               0.000000000              -0.250048941               0.404323882               0.000000000              -0.265661706               0.428242912               0.000000000              -0.281274471               0.452161941               0.000000000              -0.296887235               0.476080971               0.000000000              -0.312500000               0.500000000               0.000000000              -0.050896897               0.122875978               0.000000000              -0.063340840               0.146446229               0.000000000              -0.075784784               0.170016481               0.000000000              -0.088228728               0.193586732               0.000000000              -0.100672672               0.217156983               0.000000000              -0.113116616               0.240727235               0.000000000              -0.125560560               0.264297486               0.000000000              -0.138004504               0.287867738               0.000000000              -0.150448448               0.311437989               0.000000000              -0.162892392               0.335008240               0.000000000              -0.175336336               0.358578492               0.000000000              -0.187780280               0.382148743               0.000000000              -0.200224224               0.405718994               0.000000000              -0.212668168               0.429289246               0.000000000              -0.225112112               0.452859497               0.000000000              -0.237556056               0.476429749               0.000000000              -0.250000000               0.500000000               0.000000000              -0.038607862               0.127273065               0.000000000              -0.047913621               0.150568498               0.000000000              -0.057219379               0.173863932               0.000000000              -0.066525138               0.197159365               0.000000000              -0.075830897               0.220454798               0.000000000              -0.085136655               0.243750232               0.000000000              -0.094442414               0.267045665               0.000000000              -0.103748172               0.290341099               0.000000000              -0.113053931               0.313636532               0.000000000              -0.122359690               0.336931966               0.000000000              -0.131665448               0.360227399               0.000000000              -0.140971207               0.383522833               0.000000000              -0.150276966               0.406818266               0.000000000              -0.159582724               0.430113700               0.000000000              -0.168888483               0.453409133               0.000000000              -0.178194241               0.476704567               0.000000000              -0.187500000               0.500000000               0.000000000              -0.025947013               0.130444442               0.000000000              -0.032137825               0.153541665               0.000000000              -0.038328636               0.176638887               0.000000000              -0.044519448               0.199736109               0.000000000              -0.050710260               0.222833332               0.000000000              -0.056901071               0.245930554               0.000000000              -0.063091883               0.269027776               0.000000000              -0.069282695               0.292124999               0.000000000              -0.075473506               0.315222221               0.000000000              -0.081664318               0.338319444               0.000000000              -0.087855130               0.361416666               0.000000000              -0.094045942               0.384513888               0.000000000              -0.100236753               0.407611111               0.000000000              -0.106427565               0.430708333               0.000000000              -0.112618377               0.453805555               0.000000000              -0.118809188               0.476902778               0.000000000              -0.125000000               0.500000000               0.000000000              -0.013036280               0.132359569               0.000000000              -0.016127762               0.155337096               0.000000000              -0.019219245               0.178314623               0.000000000              -0.022310727               0.201292150               0.000000000              -0.025402210               0.224269676               0.000000000              -0.028493692               0.247247203               0.000000000              -0.031585175               0.270224730               0.000000000              -0.034676657               0.293202257               0.000000000              -0.037768140               0.316179784               0.000000000              -0.040859622               0.339157311               0.000000000              -0.043951105               0.362134838               0.000000000              -0.047042587               0.385112365               0.000000000              -0.050134070               0.408089892               0.000000000              -0.053225552               0.431067419               0.000000000              -0.056317035               0.454044946               0.000000000              -0.059408517               0.477022473               0.000000000              -0.062500000               0.500000000               0.000000000               0.000000000               0.133000000               0.000000000               0.000000000               0.155937500               0.000000000               0.000000000               0.178875000               0.000000000               0.000000000               0.201812500               0.000000000               0.000000000               0.224750000               0.000000000               0.000000000               0.247687500               0.000000000               0.000000000               0.270625000               0.000000000               0.000000000               0.293562500               0.000000000               0.000000000               0.316500000               0.000000000               0.000000000               0.339437500               0.000000000               0.000000000               0.362375000               0.000000000               0.000000000               0.385312500               0.000000000               0.000000000               0.408250000               0.000000000               0.000000000               0.431187500               0.000000000               0.000000000               0.454125000               0.000000000               0.000000000               0.477062500               0.000000000               0.000000000               0.500000000               0.000000000 </DataArray>
</Points>
<Cells>
<DataArray type="Int32"                                    Name="connectivity"                                                      NumberOfComponents=" 1" format="ascii">
         0          1         18         17          1          2         19         18          2          3         20         19          3          4         21         20          4          5         22         21          5          6         23         22          6          7         24         23          7          8         25         24          8          9         26         25          9         10         27         26         10         11         28         27         11         12         29         28         12         13         30         29         13         14         31         30         14         15         32         31         15         16         33         32         17         18         35         34         18         19         36         35         19         20         37         36         20         21         38         37         21         22         39         38         22         23         40         39         23         24         41         40         24         25         42         41         25         26         43         42         26         27         44         43         27         28         45         44         28         29         46         45         29         30         47         46         30         31         48         47         31         32         49         48         32         33         50         49         34         35         52         51         35         36         53         52         36         37         54         53         37         38         55         54         38         39         56         55         39         40         57         56         40         41         58         57         41         42         59         58         42         43         60         59         43         44         61         60         44         45         62         61         45         46         63         62         46         47         64         63         47         48         65         64         48         49         66         65         49         50         67         66         51         52         69         68         52         53         70         69         53         54         71         70         54         55         72         71         55         56         73         72         56         57         74         73         57         58         75         74         58         59         76         75         59         60         77         76         60         61         78         77         61         62         79         78         62         63         80         79         63         64         81         80         64         65         82         81         65         66         83         82         66         67         84         83         68         69         86         85         69         70         87         86         70         71         88         87         71         72         89         88         72         73         90         89         73         74         91         90         74         75         92         91         75         76         93         92         76         77         94         93         77         78         95         94         78         79         96         95         79         80         97         96         80         81         98         97         81         82         99         98         82         83        100         99         83         84        101        100         85         86        103        102         86         87        104        103         87         88        105        104         88         89        106        105         89         90        107        106         90         91        108        107         91         92        109        108         92         93        110        109         93         94        111        110         94         95        112        111         95         96        113        112         96         97        114        113         97         98        115        114         98         99        116        115         99        100        117        116        100        101        118        117        102        103        120        119        103        104        121        120        104        105        122        121        105        106        123        122        106        107        124        123        107        108        125        124        108        109        126        125        109        110        127        126        110        111        128        127        111        112        129        128        112        113        130        129        113        114        131        130        114        115        132        131        115        116        133        132        116        117        134        133        117        118        135        134        119        120        137        136        120        121        138        137        121        122        139        138        122        123        140        139        123        124        141        140        124        125        142        141        125        126        143        142        126        127        144        143        127        128        145        144        128        129        146        145        129        130        147        146        130        131        148        147        131        132        149        148        132        133        150        149        133        134        151        150        134        135        152        151        136        137        154        153        137        138        155        154        138        139        156        155        139        140        157        156        140        141        158        157        141        142        159        158        142        143        160        159        143        144        161        160        144        145        162        161        145        146        163        162        146        147        164        163        147        148        165        164        148        149        166        165        149        150        167        166        150        151        168        167        151        152        169        168        153        154        171        170        154        155        172        171        155        156        173        172        156        157        174        173        157        158        175        174        158        159        176        175        159        160        177        176        160        161        178        177        161        162        179        178        162        163        180        179        163        164        181        180        164        165        182        181        165        166        183        182        166        167        184        183        167        168        185        184        168        169        186        185        170        171        188        187        171        172        189        188        172        173        190        189        173        174        191        190        174        175        192        191        175        176        193        192        176        177        194        193        177        178        195        194        178        179        196        195        179        180        197        196        180        181        198        197        181        182        199        198        182        183        200        199        183        184        201        200        184        185        202        201        185        186        203        202        187        188        205        204        188        189        206        205        189        190        207        206        190        191        208        207        191        192        209        208        192        193        210        209        193        194        211        210        194        195        212        211        195        196        213        212        196        197        214        213        197        198        215        214        198        199        216        215        199        200        217        216        200        201        218        217        201        202        219        218        202        203        220        219        204        205        222        221        205        206        223        222        206        207        224        223        207        208        225        224        208        209        226        225        209        210        227        226        210        211        228        227        211        212        229        228        212        213        230        229        213        214        231        230        214        215        232        231        215        216        233        232        216        217        234        233        217        218        235        234        218        219        236        235        219        220        237        236        221        222        239        238        222        223        240        239        223        224        241        240        224        225        242        241        225        226        243        242        226        227        244        243        227        228        245        244        228        229        246        245        229        230        247        246        230        231        248        247        231        232        249        248        232        233        250        249        233        234        251        250        234        235        252        251        235        236        253        252        236        237        254        253        238        239        256        255        239        240        257        256        240        241        258        257        241        242        259        258        242        243        260        259        243        244        261        260        244        245        262        261        245        246        263        262        246        247        264        263        247        248        265        264        248        249        266        265        249        250        267        266        250        251        268        267        251        252        269        268        252        253        270        269        253        254        271        270        255        256        273        272        256        257        274        273        257        258        275        274        258        259        276        275        259        260        277        276        260        261        278        277        261        262        279        278        262        263        280        279        263        264        281        280        264        265        282        281        265        266        283        282        266        267        284        283        267        268        285        284        268        269        286        285        269        270        287        286        270        271        288        287        306        307          1          0        307        308          2          1        308        309          3          2        309        310          4          3        310        311          5          4        311        312          6          5        312        313          7          6        313        314          8          7        314        315          9          8        315        316         10          9        316        317         11         10        317        318         12         11        318        319         13         12        319        320         14         13        320        321         15         14        321        322         16         15        323        324        307        306        324        325        308        307        325        326        309        308        326        327        310        309        327        328        311        310        328        329        312        311        329        330        313        312        330        331        314        313        331        332        315        314        332        333        316        315        333        334        317        316        334        335        318        317        335        336        319        318        336        337        320        319        337        338        321        320        338        339        322        321        340        341        324        323        341        342        325        324        342        343        326        325        343        344        327        326        344        345        328        327        345        346        329        328        346        347        330        329        347        348        331        330        348        349        332        331        349        350        333        332        350        351        334        333        351        352        335        334        352        353        336        335        353        354        337        336        354        355        338        337        355        356        339        338        357        358        341        340        358        359        342        341        359        360        343        342        360        361        344        343        361        362        345        344        362        363        346        345        363        364        347        346        364        365        348        347        365        366        349        348        366        367        350        349        367        368        351        350        368        369        352        351        369        370        353        352        370        371        354        353        371        372        355        354        372        373        356        355        374        375        358        357        375        376        359        358        376        377        360        359        377        378        361        360        378        379        362        361        379        380        363        362        380        381        364        363        381        382        365        364        382        383        366        365        383        384        367        366        384        385        368        367        385        386        369        368        386        387        370        369        387        388        371        370        388        389        372        371        389        390        373        372        391        392        375        374        392        393        376        375        393        394        377        376        394        395        378        377        395        396        379        378        396        397        380        379        397        398        381        380        398        399        382        381        399        400        383        382        400        401        384        383        401        402        385        384        402        403        386        385        403        404        387        386        404        405        388        387        405        406        389        388        406        407        390        389        408        409        392        391        409        410        393        392        410        411        394        393        411        412        395        394        412        413        396        395        413        414        397        396        414        415        398        397        415        416        399        398        416        417        400        399        417        418        401        400        418        419        402        401        419        420        403        402        420        421        404        403        421        422        405        404        422        423        406        405        423        424        407        406        425        426        409        408        426        427        410        409        427        428        411        410        428        429        412        411        429        430        413        412        430        431        414        413        431        432        415        414        432        433        416        415        433        434        417        416        434        435        418        417        435        436        419        418        436        437        420        419        437        438        421        420        438        439        422        421        439        440        423        422        440        441        424        423        442        443        426        425        443        444        427        426        444        445        428        427        445        446        429        428        446        447        430        429        447        448        431        430        448        449        432        431        449        450        433        432        450        451        434        433        451        452        435        434        452        453        436        435        453        454        437        436        454        455        438        437        455        456        439        438        456        457        440        439        457        458        441        440        459        460        443        442        460        461        444        443        461        462        445        444        462        463        446        445        463        464        447        446        464        465        448        447        465        466        449        448        466        467        450        449        467        468        451        450        468        469        452        451        469        470        453        452        470        471        454        453        471        472        455        454        472        473        456        455        473        474        457        456        474        475        458        457        476        477        460        459        477        478        461        460        478        479        462        461        479        480        463        462        480        481        464        463        481        482        465        464        482        483        466        465        483        484        467        466        484        485        468        467        485        486        469        468        486        487        470        469        487        488        471        470        488        489        472        471        489        490        473        472        490        491        474        473        491        492        475        474        493        494        477        476        494        495        478        477        495        496        479        478        496        497        480        479        497        498        481        480        498        499        482        481        499        500        483        482        500        501        484        483        501        502        485        484        502        503        486        485        503        504        487        486        504        505        488        487        505        506        489        488        506        507        490        489        507        508        491        490        508        509        492        491        510        511        494        493        511        512        495        494        512        513        496        495        513        514        497        496        514        515        498        497        515        516        499        498        516        517        500        499        517        518        501        500        518        519        502        501        519        520        503        502        520        521        504        503        521        522        505        504        522        523        506        505        523        524        507        506        524        525        508        507        525        526        509        508        527        528        511        510        528        529        512        511        529        530        513        512        530        531        514        513        531        532        515        514        532        533        516        515        533        534        517        516        534        535        518        517        535        536        519        518        536        537        520        519        537        538        521        520        538        539        522        521        539        540        523        522        540        541        524        523        541        542        525        524        542        543        526        525        544        545        528        527        545        546        529        528        546        547        530        529        547        548        531        530        548        549        532        531        549        550        533        532        550        551        534        533        551        552        535        534        552        553        536        535        553        554        537        536        554        555        538        537        555        556        539        538        556        557        540        539        557        558        541        540        558        559        542        541        559        560        543        542        561        562        545        544        562        563        546        545        563        564        547        546        564        565        548        547        565        566        549        548        566        567        550        549        567        568        551        550        568        569        552        551        569        570        553        552        570        571        554        553        571        572        555        554        572        573        556        555        573        574        557        556        574        575        558        557        575        576        559        558        576        577        560        559        578        579        596        595        579        580        597        596        580        581        598        597        581        582        599        598        582        583        600        599        583        584        601        600        584        585        602        601        585        586        603        602        586        587        604        603        587        588        605        604        588        589        606        605        589        590        607        606        590        591        608        607        591        592        609        608        592        593        610        609        593        594        611        610        595        596        613        612        596        597        614        613        597        598        615        614        598        599        616        615        599        600        617        616        600        601        618        617        601        602        619        618        602        603        620        619        603        604        621        620        604        605        622        621        605        606        623        622        606        607        624        623        607        608        625        624        608        609        626        625        609        610        627        626        610        611        628        627        612        613        630        629        613        614        631        630        614        615        632        631        615        616        633        632        616        617        634        633        617        618        635        634        618        619        636        635        619        620        637        636        620        621        638        637        621        622        639        638        622        623        640        639        623        624        641        640        624        625        642        641        625        626        643        642        626        627        644        643        627        628        645        644        629        630        647        646        630        631        648        647        631        632        649        648        632        633        650        649        633        634        651        650        634        635        652        651        635        636        653        652        636        637        654        653        637        638        655        654        638        639        656        655        639        640        657        656        640        641        658        657        641        642        659        658        642        643        660        659        643        644        661        660        644        645        662        661        646        647        664        663        647        648        665        664        648        649        666        665        649        650        667        666        650        651        668        667        651        652        669        668        652        653        670        669        653        654        671        670        654        655        672        671        655        656        673        672        656        657        674        673        657        658        675        674        658        659        676        675        659        660        677        676        660        661        678        677        661        662        679        678        663        664        681        680        664        665        682        681        665        666        683        682        666        667        684        683        667        668        685        684        668        669        686        685        669        670        687        686        670        671        688        687        671        672        689        688        672        673        690        689        673        674        691        690        674        675        692        691        675        676        693        692        676        677        694        693        677        678        695        694        678        679        696        695        680        681        698        697        681        682        699        698        682        683        700        699        683        684        701        700        684        685        702        701        685        686        703        702        686        687        704        703        687        688        705        704        688        689        706        705        689        690        707        706        690        691        708        707        691        692        709        708        692        693        710        709        693        694        711        710        694        695        712        711        695        696        713        712        697        698        715        714        698        699        716        715        699        700        717        716        700        701        718        717        701        702        719        718        702        703        720        719        703        704        721        720        704        705        722        721        705        706        723        722        706        707        724        723        707        708        725        724        708        709        726        725        709        710        727        726        710        711        728        727        711        712        729        728        712        713        730        729        714        715        732        731        715        716        733        732        716        717        734        733        717        718        735        734        718        719        736        735        719        720        737        736        720        721        738        737        721        722        739        738        722        723        740        739        723        724        741        740        724        725        742        741        725        726        743        742        726        727        744        743        727        728        745        744        728        729        746        745        729        730        747        746        731        732        749        748        732        733        750        749        733        734        751        750        734        735        752        751        735        736        753        752        736        737        754        753        737        738        755        754        738        739        756        755        739        740        757        756        740        741        758        757        741        742        759        758        742        743        760        759        743        744        761        760        744        745        762        761        745        746        763        762        746        747        764        763        748        749        766        765        749        750        767        766        750        751        768        767        751        752        769        768        752        753        770        769        753        754        771        770        754        755        772        771        755        756        773        772        756        757        774        773        757        758        775        774        758        759        776        775        759        760        777        776        760        761        778        777        761        762        779        778        762        763        780        779        763        764        781        780        765        766        783        782        766        767        784        783        767        768        785        784        768        769        786        785        769        770        787        786        770        771        788        787        771        772        789        788        772        773        790        789        773        774        791        790        774        775        792        791        775        776        793        792        776        777        794        793        777        778        795        794        778        779        796        795        779        780        797        796        780        781        798        797        782        783        800        799        783        784        801        800        784        785        802        801        785        786        803        802        786        787        804        803        787        788        805        804        788        789        806        805        789        790        807        806        790        791        808        807        791        792        809        808        792        793        810        809        793        794        811        810        794        795        812        811        795        796        813        812        796        797        814        813        797        798        815        814        799        800        817        816        800        801        818        817        801        802        819        818        802        803        820        819        803        804        821        820        804        805        822        821        805        806        823        822        806        807        824        823        807        808        825        824        808        809        826        825        809        810        827        826        810        811        828        827        811        812        829        828        812        813        830        829        813        814        831        830        814        815        832        831        816        817        834        833        817        818        835        834        818        819        836        835        819        820        837        836        820        821        838        837        821        822        839        838        822        823        840        839        823        824        841        840        824        825        842        841        825        826        843        842        826        827        844        843        827        828        845        844        828        829        846        845        829        830        847        846        830        831        848        847        831        832        849        848        833        834        562        561        834        835        563        562        835        836        564        563        836        837        565        564        837        838        566        565        838        839        567        566        839        840        568        567        840        841        569        568        841        842        570        569        842        843        571        570        843        844        572        571        844        845        573        572        845        846        574        573        846        847        575        574        847        848        576        575        848        849        577        576        884        885        579        578        885        886        580        579        886        887        581        580        887        888        582        581        888        889        583        582        889        890        584        583        890        891        585        584        891        892        586        585        892        893        587        586        893        894        588        587        894        895        589        588        895        896        590        589        896        897        591        590        897        898        592        591        898        899        593        592        899        900        594        593        901        902        885        884        902        903        886        885        903        904        887        886        904        905        888        887        905        906        889        888        906        907        890        889        907        908        891        890        908        909        892        891        909        910        893        892        910        911        894        893        911        912        895        894        912        913        896        895        913        914        897        896        914        915        898        897        915        916        899        898        916        917        900        899        918        919        902        901        919        920        903        902        920        921        904        903        921        922        905        904        922        923        906        905        923        924        907        906        924        925        908        907        925        926        909        908        926        927        910        909        927        928        911        910        928        929        912        911        929        930        913        912        930        931        914        913        931        932        915        914        932        933        916        915        933        934        917        916        935        936        919        918        936        937        920        919        937        938        921        920        938        939        922        921        939        940        923        922        940        941        924        923        941        942        925        924        942        943        926        925        943        944        927        926        944        945        928        927        945        946        929        928        946        947        930        929        947        948        931        930        948        949        932        931        949        950        933        932        950        951        934        933        952        953        936        935        953        954        937        936        954        955        938        937        955        956        939        938        956        957        940        939        957        958        941        940        958        959        942        941        959        960        943        942        960        961        944        943        961        962        945        944        962        963        946        945        963        964        947        946        964        965        948        947        965        966        949        948        966        967        950        949        967        968        951        950        969        970        953        952        970        971        954        953        971        972        955        954        972        973        956        955        973        974        957        956        974        975        958        957        975        976        959        958        976        977        960        959        977        978        961        960        978        979        962        961        979        980        963        962        980        981        964        963        981        982        965        964        982        983        966        965        983        984        967        966        984        985        968        967        986        987        970        969        987        988        971        970        988        989        972        971        989        990        973        972        990        991        974        973        991        992        975        974        992        993        976        975        993        994        977        976        994        995        978        977        995        996        979        978        996        997        980        979        997        998        981        980        998        999        982        981        999       1000        983        982       1000       1001        984        983       1001       1002        985        984       1003       1004        987        986       1004       1005        988        987       1005       1006        989        988       1006       1007        990        989       1007       1008        991        990       1008       1009        992        991       1009       1010        993        992       1010       1011        994        993       1011       1012        995        994       1012       1013        996        995       1013       1014        997        996       1014       1015        998        997       1015       1016        999        998       1016       1017       1000        999       1017       1018       1001       1000       1018       1019       1002       1001       1020       1021       1004       1003       1021       1022       1005       1004       1022       1023       1006       1005       1023       1024       1007       1006       1024       1025       1008       1007       1025       1026       1009       1008       1026       1027       1010       1009       1027       1028       1011       1010       1028       1029       1012       1011       1029       1030       1013       1012       1030       1031       1014       1013       1031       1032       1015       1014       1032       1033       1016       1015       1033       1034       1017       1016       1034       1035       1018       1017       1035       1036       1019       1018       1037       1038       1021       1020       1038       1039       1022       1021       1039       1040       1023       1022       1040       1041       1024       1023       1041       1042       1025       1024       1042       1043       1026       1025       1043       1044       1027       1026       1044       1045       1028       1027       1045       1046       1029       1028       1046       1047       1030       1029       1047       1048       1031       1030       1048       1049       1032       1031       1049       1050       1033       1032       1050       1051       1034       1033       1051       1052       1035       1034       1052       1053       1036       1035       1054       1055       1038       1037       1055       1056       1039       1038       1056       1057       1040       1039       1057       1058       1041       1040       1058       1059       1042       1041       1059       1060       1043       1042       1060       1061       1044       1043       1061       1062       1045       1044       1062       1063       1046       1045       1063       1064       1047       1046       1064       1065       1048       1047       1065       1066       1049       1048       1066       1067       1050       1049       1067       1068       1051       1050       1068       1069       1052       1051       1069       1070       1053       1052       1071       1072       1055       1054       1072       1073       1056       1055       1073       1074       1057       1056       1074       1075       1058       1057       1075       1076       1059       1058       1076       1077       1060       1059       1077       1078       1061       1060       1078       1079       1062       1061       1079       1080       1063       1062       1080       1081       1064       1063       1081       1082       1065       1064       1082       1083       1066       1065       1083       1084       1067       1066       1084       1085       1068       1067       1085       1086       1069       1068       1086       1087       1070       1069       1088       1089       1072       1071       1089       1090       1073       1072       1090       1091       1074       1073       1091       1092       1075       1074       1092       1093       1076       1075       1093       1094       1077       1076       1094       1095       1078       1077       1095       1096       1079       1078       1096       1097       1080       1079       1097       1098       1081       1080       1098       1099       1082       1081       1099       1100       1083       1082       1100       1101       1084       1083       1101       1102       1085       1084       1102       1103       1086       1085       1103       1104       1087       1086       1105       1106       1089       1088       1106       1107       1090       1089       1107       1108       1091       1090       1108       1109       1092       1091       1109       1110       1093       1092       1110       1111       1094       1093       1111       1112       1095       1094       1112       1113       1096       1095       1113       1114       1097       1096       1114       1115       1098       1097       1115       1116       1099       1098       1116       1117       1100       1099       1117       1118       1101       1100       1118       1119       1102       1101       1119       1120       1103       1102       1120       1121       1104       1103       1122       1123       1106       1105       1123       1124       1107       1106       1124       1125       1108       1107       1125       1126       1109       1108       1126       1127       1110       1109       1127       1128       1111       1110       1128       1129       1112       1111       1129       1130       1113       1112       1130       1131       1114       1113       1131       1132       1115       1114       1132       1133       1116       1115       1133       1134       1117       1116       1134       1135       1118       1117       1135       1136       1119       1118       1136       1137       1120       1119       1137       1138       1121       1120        272        273       1123       1122        273        274       1124       1123        274        275       1125       1124        275        276       1126       1125        276        277       1127       1126        277        278       1128       1127        278        279       1129       1128        279        280       1130       1129        280        281       1131       1130        281        282       1132       1131        282        283       1133       1132        283        284       1134       1133        284        285       1135       1134        285        286       1136       1135        286        287       1137       1136        287        288       1138       1137 </DataArray>
<DataArray type="Int32"                                    Name="offsets"                                                      NumberOfComponents=" 1" format="ascii">
         4          8         12         16         20         24         28         32         36         40         44         48         52         56         60         64         68         72         76         80         84         88         92         96        100        104        108        112        116        120        124        128        132        136        140        144        148        152        156        160        164        168        172        176        180        184        188        192        196        200        204        208        212        216        220        224        228        232        236        240        244        248        252        256        260        264        268        272        276        280        284        288        292        296        300        304        308        312        316        320        324        328        332        336        340        344        348        352        356        360        364        368        372        376        380        384        388        392        396        400        404        408        412        416        420        424        428        432        436        440        444        448        452        456        460        464        468        472        476        480        484        488        492        496        500        504        508        512        516        520        524        528        532        536        540        544        548        552        556        560        564        568        572        576        580        584        588        592        596        600        604        608        612        616        620        624        628        632        636        640        644        648        652        656        660        664        668        672        676        680        684        688        692        696        700        704        708        712        716        720        724        728        732        736        740        744        748        752        756        760        764        768        772        776        780        784        788        792        796        800        804        808        812        816        820        824        828        832        836        840        844        848        852        856        860        864        868        872        876        880        884        888        892        896        900        904        908        912        916        920        924        928        932        936        940        944        948        952        956        960        964        968        972        976        980        984        988        992        996       1000       1004       1008       1012       1016       1020       1024       1028       1032       1036       1040       1044       1048       1052       1056       1060       1064       1068       1072       1076       1080       1084       1088       1092       1096       1100       1104       1108       1112       1116       1120       1124       1128       1132       1136       1140       1144       1148       1152       1156       1160       1164       1168       1172       1176       1180       1184       1188       1192       1196       1200       1204       1208       1212       1216       1220       1224       1228       1232       1236       1240       1244       1248       1252       1256       1260       1264       1268       1272       1276       1280       1284       1288       1292       1296       1300       1304       1308       1312       1316       1320       1324       1328       1332       1336       1340       1344       1348       1352       1356       1360       1364       1368       1372       1376       1380       1384       1388       1392       1396       1400       1404       1408       1412       1416       1420       1424       1428       1432       1436       1440       1444       1448       1452       1456       1460       1464       1468       1472       1476       1480       1484       1488       1492       1496       1500       1504       1508       1512       1516       1520       1524       1528       1532       1536       1540       1544       1548       1552       1556       1560       1564       1568       1572       1576       1580       1584       1588       1592       1596       1600       1604       1608       1612       1616       1620       1624       1628       1632       1636       1640       1644       1648       1652       1656       1660       1664       1668       1672       1676       1680       1684       1688       1692       1696       1700       1704       1708       1712       1716       1720       1724       1728       1732       1736       1740       1744       1748       1752       1756       1760       1764       1768       1772       1776       1780       1784       1788       1792       1796       1800       1804       1808       1812       1816       1820       1824       1828       1832       1836       1840       1844       1848       1852       1856       1860       1864       1868       1872       1876       1880       1884       1888       1892       1896       1900       1904       1908       1912       1916       1920       1924       1928       1932       1936       1940       1944       1948       1952       1956       1960       1964       1968       1972       1976       1980       1984       1988       1992       1996       2000       2004       2008       2012       2016       2020       2024       2028       2032       2036       2040       2044       2048       2052       2056       2060       2064       2068       2072       2076       2080       2084       2088       2092       2096       2100       2104       2108       2112       2116       2120       2124       2128       2132       2136       2140       2144       2148       2152       2156       2160       2164       2168       2172       2176       2180       2184       2188       2192       2196       2200       2204       2208       2212       2216       2220       2224       2228       2232       2236       2240       2244       2248       2252       2256       2260       2264       2268       2272       2276       2280       2284       2288       2292       2296       2300       2304       2308       2312       2316       2320       2324       2328       2332       2336       2340       2344       2348       2352       2356       2360       2364       2368       2372       2376       2380       2384       2388       2392       2396       2400       2404       2408       2412       2416       2420       2424       2428       2432       2436       2440       2444       2448       2452       2456       2460       2464       2468       2472       2476       2480       2484       2488       2492       2496       2500       2504       2508       2512       2516       2520       2524       2528       2532       2536       2540       2544       2548       2552       2556       2560       2564       2568       2572       2576       2580       2584       2588       2592       2596       2600       2604       2608       2612       2616       2620       2624       2628       2632       2636       2640       2644       2648       2652       2656       2660       2664       2668       2672       2676       2680       2684       2688       2692       2696       2700       2704       2708       2712       2716       2720       2724       2728       2732       2736       2740       2744       2748       2752       2756       2760       2764       2768       2772       2776       2780       2784       2788       2792       2796       2800       2804       2808       2812       2816       2820       2824       2828       2832       2836       2840       2844       2848       2852       2856       2860       2864       2868       2872       2876       2880       2884       2888       2892       2896       2900       2904       2908       2912       2916       2920       2924       2928       2932       2936       2940       2944       2948       2952       2956       2960       2964       2968       2972       2976       2980       2984       2988       2992       2996       3000       3004       3008       3012       3016       3020       3024       3028       3032       3036       3040       3044       3048       3052       3056       3060       3064       3068       3072       3076       3080       3084       3088       3092       3096       3100       3104       3108       3112       3116       3120       3124       3128       3132       3136       3140       3144       3148       3152       3156       3160       3164       3168       3172       3176       3180       3184       3188       3192       3196       3200       3204       3208       3212       3216       3220       3224       3228       3232       3236       3240       3244       3248       3252       3256       3260       3264       3268       3272       3276       3280       3284       3288       3292       3296       3300       3304       3308       3312       3316       3320       3324       3328       3332       3336       3340       3344       3348       3352       3356       3360       3364       3368       3372       3376       3380       3384       3388       3392       3396       3400       3404       3408       3412       3416       3420       3424       3428       3432       3436       3440       3444       3448       3452       3456       3460       3464       3468       3472       3476       3480       3484       3488       3492       3496       3500       3504       3508       3512       3516       3520       3524       3528       3532       3536       3540       3544       3548       3552       3556       3560       3564       3568       3572       3576       3580       3584       3588       3592       3596       3600       3604       3608       3612       3616       3620       3624       3628       3632       3636       3640       3644       3648       3652       3656       3660       3664       3668       3672       3676       3680       3684       3688       3692       3696       3700       3704       3708       3712       3716       3720       3724       3728       3732       3736       3740       3744       3748       3752       3756       3760       3764       3768       3772       3776       3780       3784       3788       3792       3796       3800       3804       3808       3812       3816       3820       3824       3828       3832       3836       3840       3844       3848       3852       3856       3860       3864       3868       3872       3876       3880       3884       3888       3892       3896       3900       3904       3908       3912       3916       3920       3924       3928       3932       3936       3940       3944       3948       3952       3956       3960       3964       3968       3972       3976       3980       3984       3988       3992       3996       4000       4004       4008       4012       4016       4020       4024       4028       4032       4036       4040       4044       4048       4052       4056       4060       4064       4068       4072       4076       4080       4084       4088       4092       4096 </DataArray>
<DataArray type="UInt8"                                    Name="types"                                                      NumberOfComponents=" 1" format="ascii">
         9          9          9          9          9          9          9          9          9          9          9          9          9          9          9          9          9          9          9          9          9          9          9          9          9          9          9          9          9          9          9          9          9          9          9          9          9          9          9          9          9          9          9          9          9          9          9          9          9          9          9          9          9          9          9          9          9          9          9          9          9          9          9          9          9          9          9          9          9          9          9          9          9          9          9          9          9          9          9          9          9          9          9          9          9          9          9          9          9          9          9          9          9          9          9          9          9          9          9          9          9          9          9          9          9          9          9          9          9          9          9          9          9          9          9          9          9          9          9          9          9          9          9          9          9          9          9          9          9          9          9          9          9          9          9          9          9          9          9          9          9          9          9          9          9          9          9          9          9          9          9          9          9          9          9          9          9          9          9          9          9          9          9          9          9          9          9          9          9          9          9          9          9          9          9          9          9          9          9          9          9          9          9          9          9          9          9          9          9          9          9          9          9          9          9          9          9          9          9          9          9          9          9          9          9          9          9          9          9          9          9          9          9          9          9          9          9          9          9          9          9          9          9          9          9          9          9          9          9          9          9          9          9          9          9          9          9          9          9          9          9          9          9          9          9          9          9          9          9          9          9          9          9          9          9          9          9          9          9          9          9          9          9          9          9          9          9          9          9          9          9          9          9          9          9          9          9          9          9          9          9          9          9          9          9          9          9          9          9          9          9          9          9          9          9          9          9          9          9          9          9          9          9          9          9          9          9          9          9          9          9          9          9          9          9          9          9          9          9          9          9          9          9          9          9          9          9          9          9          9          9          9          9          9          9          9          9          9          9          9          9          9          9          9          9          9          9          9          9          9          9          9          9          9          9          9          9          9          9          9          9          9          9          9          9          9          9          9          9          9          9          9          9          9          9          9          9          9          9          9          9          9          9          9          9          9          9          9          9          9          9          9          9          9          9          9          9          9          9          9          9          9          9          9          9          9          9          9          9          9          9          9          9          9          9          9          9          9          9          9          9          9          9          9          9          9          9          9          9          9          9          9          9          9          9          9          9          9          9          9          9          9          9          9          9          9          9          9          9          9          9          9          9          9          9          9          9          9          9          9          9          9          9          9          9          9          9          9          9          9          9          9          9          9          9          9          9          9          9          9          9          9          9          9          9          9          9          9          9          9          9          9          9          9          9          9          9          9          9          9          9          9          9          9          9          9          9          9          9          9          9          9          9          9          9          9          9          9          9          9          9          9          9          9          9          9          9          9          9          9          9          9          9          9          9          9          9          9          9          9          9          9          9          9          9          9          9          9          9          9          9          9          9          9          9          9          9          9          9          9          9          9          9          9          9          9          9          9          9          9          9          9          9          9          9          9          9          9          9          9          9          9          9          9          9          9          9          9          9          9          9          9          9          9          9          9          9          9          9          9          9          9          9          9          9          9          9          9          9          9          9          9          9          9          9          9          9          9          9          9          9          9          9          9          9          9          9          9          9          9          9          9          9          9          9          9          9          9          9          9          9          9          9          9          9          9          9          9          9          9          9          9          9          9          9          9          9          9          9          9          9          9          9          9          9          9          9          9          9          9          9          9          9          9          9          9          9          9          9          9          9          9          9          9          9          9          9          9          9          9          9          9          9          9          9          9          9          9          9          9          9          9          9          9          9          9          9          9          9          9          9          9          9          9          9          9          9          9          9          9          9          9          9          9          9          9          9          9          9          9          9          9          9          9          9          9          9          9          9          9          9          9          9          9          9          9          9          9          9          9          9          9          9          9          9          9          9          9          9          9          9          9          9          9          9          9          9          9          9          9          9          9          9          9          9          9          9          9          9          9          9          9          9          9          9          9          9          9          9          9          9          9          9          9          9          9          9          9          9          9          9          9          9          9          9          9          9          9          9          9          9          9          9          9          9          9          9          9          9          9          9          9          9          9          9          9          9          9          9          9          9          9          9          9          9          9          9          9          9          9          9          9          9          9          9          9          9          9          9          9          9          9          9          9          9          9          9          9          9          9          9          9          9          9          9          9          9          9          9          9          9          9          9          9          9          9          9          9          9          9          9          9          9          9          9          9          9          9          9          9          9          9          9          9          9          9          9          9          9          9          9          9          9          9          9          9          9          9          9          9          9          9          9          9          9          9          9          9          9          9          9          9          9          9          9          9          9          9          9          9          9          9          9          9          9          9          9          9          9          9          9          9          9          9          9          9          9          9          9          9          9          9          9          9          9          9          9          9          9          9          9          9          9          9          9          9          9          9          9          9          9          9          9          9          9          9          9          9          9          9          9          9          9          9          9          9          9          9          9          9          9          9          9          9          9          9          9          9          9          9          9          9          9          9          9          9          9          9          9          9          9          9          9          9          9          9          9          9          9          9          9          9          9          9 </DataArray>
</Cells>
<CellData>
<DataArray type="Int32"                                    Name="material"                                                      NumberOfComponents=" 1" format="ascii">
         1          1          1          1          1          1          1          1          1          1          1          1          1          1          1          1          1          1          1          1          1          1          1          1          1          1          1          1          1          1          1          1          1          1          1          1          1          1          1          1          1          1          1          1          1          1          1          1          1          1          1          1          1          1          1          1          1          1          1          1          1          1          1          1          1          1          1          1          1          1          1          1          1          1          1          1          1          1          1          1          1          1          1          1          1          1          1          1          1          1          1          1          1          1          1          1          1          1          1          1          1          1          1          1          1          1          1          1          1          1          1          1          1          1          1          1          1          1          1          1          1          1          1          1          1          1          1          1          1          1          1          1          1          1          1          1          1          1          1          1          1          1          1          1          1          1          1          1          1          1          1          1          1          1          1          1          1          1          1          1          1          1          1          1          1          1          1          1          1          1          1          1          1          1          1          1          1          1          1          1          1          1          1          1          1          1          1          1          1          1          1          1          1          1          1          1          1          1          1          1          1          1          1          1          1          1          1          1          1          1          1          1          1          1          1          1          1          1          1          1          1          1          1          1          1          1          1          1          1          1          1          1          1          1          1          1          1          1          1          1          1          1          1          1          1          1          1          1          1          1          1          1          1          1          1          1          1          1          1          1          1          1          1          1          1          1          1          1          1          1          1          1          1          1          1          1          1          1          1          1          1          1          1          1          1          1          1          1          1          1          1          1          1          1          1          1          1          1          1          1          1          1          1          1          1          1          1          1          1          1          1          1          1          1          1          1          1          1          1          1          1          1          1          1          1          1          1          1          1          1          1          1          1          1          1          1          1          1          1          1          1          1          1          1          1          1          1          1          1          1          1          1          1          1          1          1          1          1          1          1          1          1          1          1          1          1          1          1          1          1          1          1          1          1          1          1          1          1          1          1          1          1          1          1          1          1          1          1          1          1          1          1          1          1          1          1          1          1          1          1          1          1          1          1          1          1          1          1          1          1          1          1          1          1          1          1          1          1          1          1          1          1          1          1          1          1          1          1          1          1          1          1          1          1          1          1          1          1          1          1          1          1          1          1          1          1          1          1          1          1          1          1          1          1          1          1          1          1          1          1          1          1          1          1          1          1          1          1          1          1          1          1          1          1          1          1          1          1          1          1          1          1          1          1          1          1          1          1          1          1          1          1          1          1          1          1          1          1          1          1          1          1          1          1          1          1          1          1          1          1          1          1          1          1          1          1          1          1          1          1          1          1          1          1          1          1          1          1          1          1          1          1          1          1          1          1          1          1          1          1          1          1          1          1          1          1          1          1          1          1          1          1          1          1          1          1          1          1          1          1          1          1          1          1          1          1          1          1          1          1          1          1          1          1          1          1          1          1          1          1          1          1          1          1          1          1          1          1          1          1          1          1          1          1          1          1          1          1          1          1          1          1          1          1          1          1          1          1          1          1          1          1          1          1          1          1          1          1          1          1          1          1          1          1          1          1          1          1          1          1          1          1          1          1          1          1          1          1          1          1          1          1          1          1          1          1          1          1          1          1          1          1          1          1          1          1          1          1          1          1          1          1          1          1          1          1          1          1          1          1          1          1          1          1          1          1          1          1          1          1          1          1          1          1          1          1          1          1          1          1          1          1          1          1          1          1          1          1          1          1          1          1          1          1          1          1          1          1          1          1          1          1          1          1          1          1          1          1          1          1          1          1          1          1          1          1          1          1          1          1          1          1          1          1          1          1          1          1          1          1          1          1          1          1          1          1          1          1          1          1          1          1          1          1          1          1          1          1          1          1          1          1          1          1          1          1          1          1          1          1          1          1          1          1          1          1          1          1          1          1          1          1          1          1          1          1          1          1          1          1          1          1          1          1          1          1          1          1          1          1          1          1          1          1          1          1          1          1          1          1          1          1          1          1          1          1          1          1          1          1          1          1          1          1          1          1          1          1          1          1          1          1          1          1          1          1          1          1          1          1          1          1          1          1          1          1          1          1          1          1          1          1          1          1          1          1          1          1          1          1          1          1          1          1          1          1          1          1          1          1          1          1          1          1          1          1          1          1          1          1          1          1          1          1          1          1          1          1          1          1          1          1          1          1          1          1          1          1          1          1          1          1          1          1          1          1          1          1          1          1          1          1          1          1          1          1          1          1          1          1          1          1          1          1          1          1          1          1          1          1          1          1          1          1          1          1          1          1          1          1          1          1          1          1          1          1          1          1          1          1          1          1          1          1          1          1          1          1          1          1          1          1          1          1          1          1          1          1          1          1          1          1          1          1          1          1          1          1          1          1          1          1          1          1          1          1          1          1          1          1          1          1          1          1          1          1          1          1          1          1          1          1          1          1          1          1          1          1          1          1          1          1          1          1          1          1          1          1          1          1          1          1          1          1 </DataArray>
</CellData>
<PointData>
<DataArray type="Float64"                                    Name="u"                                                      NumberOfComponents=" 3" format="ascii">
             -0.000923312              -0.000000000               0.999999986              -0.000971966               0.000000000               0.999999986              -0.000992022              -0.000000000               0.999999986              -0.001002823              -0.000000000               0.999999986              -0.001011351               0.000000000               0.999999986              -0.001020083               0.000000000               0.999999986              -0.001029660               0.000000000               0.999999986              -0.001039961               0.000000000               0.999999986              -0.001050957              -0.000000000               0.999999986              -0.001062344               0.000000000               0.999999986              -0.001073627              -0.000000000               0.999999986              -0.001084595              -0.000000000               0.999999986              -0.001094837               0.000000000               0.999999986              -0.001103926               0.000000000               0.999999986              -0.001111309               0.000000000               0.999999986              -0.001116318               0.000000000               0.999999986              -0.001118178               0.000000000               0.999999986              -0.000918018               0.000128283               0.999999986              -0.000962350               0.000101032               0.999999986              -0.000979633               0.000088378               0.999999986              -0.000988647               0.000082877               0.999999986              -0.000995936               0.000080893               0.999999986              -0.001003737               0.000080417               0.999999986              -0.001012480               0.000080274               0.999999986              -0.001021970               0.000079833               0.999999986              -0.001031953               0.000078825               0.999999986              -0.001042086               0.000076909               0.999999986              -0.001051980               0.000073725               0.999999986              -0.001061269               0.000068935               0.999999986              -0.001069539               0.000061919               0.999999986              -0.001076357               0.000052255               0.999999986              -0.001081242               0.000039226               0.999999986              -0.001083681               0.000021943               0.999999986              -0.001083040              -0.000000430               0.999999986              -0.000902264               0.000255333               0.999999986              -0.000934083               0.000201704               0.999999986              -0.000943662               0.000177835               0.999999986              -0.000947908               0.000168029               0.999999986              -0.000952007               0.000164949               0.999999986              -0.000957241               0.000164560               0.999999986              -0.000963550               0.000164621               0.999999986              -0.000970520               0.000164121               0.999999986              -0.000977664               0.000162237               0.999999986              -0.000984418               0.000158444               0.999999986              -0.000990291               0.000152091               0.999999986              -0.000994676               0.000142596               0.999999986              -0.000997139               0.000129001               0.999999986              -0.000997513               0.000110570               0.999999986              -0.000995440               0.000086282               0.999999986              -0.000990746               0.000055009               0.999999986              -0.000983365               0.000015382               0.999999986              -0.000876522               0.000379899               0.999999986              -0.000888767               0.000301865               0.999999986              -0.000887277               0.000269273               0.999999986              -0.000885041               0.000257176               0.999999986              -0.000884896               0.000254322               0.999999986              -0.000886791               0.000254787               0.999999986              -0.000889771               0.000255694               0.999999986              -0.000893043               0.000255413               0.999999986              -0.000895743               0.000252949               0.999999986              -0.000897061               0.000247362               0.999999986              -0.000896322               0.000237877               0.999999986              -0.000893038               0.000223832               0.999999986              -0.000886980               0.000204416               0.999999986              -0.000878034               0.000178898               0.999999986              -0.000866252               0.000146589               0.999999986              -0.000852037               0.000106693               0.999999986              -0.000835979               0.000058850               0.999999986              -0.000841438               0.000500792               0.999999986              -0.000828769               0.000401556               0.999999986              -0.000814895               0.000363361               0.999999986              -0.000806270               0.000351081               0.999999986              -0.000802105               0.000349727               0.999999986              -0.000800602               0.000351911               0.999999986              -0.000799965               0.000354060               0.999999986              -0.000798757               0.000354182               0.999999986              -0.000795732               0.000351013               0.999999986              -0.000790145               0.000343598               0.999999986              -0.000781364               0.000331118               0.999999986              -0.000769205               0.000312996               0.999999986              -0.000753569               0.000288716               0.999999986              -0.000734631               0.000258029               0.999999986              -0.000712926               0.000221114               0.999999986              -0.000689325               0.000178381               0.999999986              -0.000664823               0.000130391               0.999999986              -0.000797687               0.000616971               0.999999986              -0.000757309               0.000500845               0.999999986              -0.000732105               0.000460074               0.999999986              -0.000718478               0.000449373               0.999999986              -0.000711389               0.000450299               0.999999986              -0.000706993               0.000454623               0.999999986              -0.000702599               0.000458166               0.999999986              -0.000696248               0.000458589               0.999999986              -0.000686867               0.000454583               0.999999986              -0.000673721               0.000445202               0.999999986              -0.000656376               0.000429922               0.999999986              -0.000634866               0.000408312               0.999999986              -0.000609391               0.000380425               0.999999986              -0.000580636               0.000346736               0.999999986              -0.000549633               0.000308532               0.999999986              -0.000517278               0.000266781               0.999999986              -0.000484378               0.000222376               0.999999986              -0.000746263               0.000727347               0.999999986              -0.000678029               0.000599706               0.999999986              -0.000644242               0.000558982               0.999999986              -0.000628011               0.000550743               0.999999986              -0.000619419               0.000554199               0.999999986              -0.000612656               0.000560522               0.999999986              -0.000604410               0.000565289               0.999999986              -0.000592767               0.000565771               0.999999986              -0.000576647               0.000560669               0.999999986              -0.000555427               0.000549390               0.999999986              -0.000528994               0.000531527               0.999999986              -0.000497561               0.000507389               0.999999986              -0.000461925               0.000477609               0.999999986              -0.000423232               0.000443184               0.999999986              -0.000382794               0.000406057               0.999999986              -0.000341252               0.000367150               0.999999986              -0.000299135               0.000327028               0.999999986              -0.000688193               0.000830822               0.999999986              -0.000594568               0.000697937               0.999999986              -0.000556092               0.000659113               0.999999986              -0.000540044               0.000653326               0.999999986              -0.000531224               0.000658953               0.999999986              -0.000522513               0.000666922               0.999999986              -0.000510465               0.000672461               0.999999986              -0.000493148               0.000672750               0.999999986              -0.000469608               0.000666505               0.999999986              -0.000439489               0.000653537               0.999999986              -0.000402886               0.000633703               0.999999986              -0.000360764               0.000607953               0.999999986              -0.000314346               0.000577495               0.999999986              -0.000265099               0.000544100               0.999999986              -0.000214092               0.000509498               0.999999986              -0.000161925               0.000474069               0.999999986              -0.000109155               0.000437860               0.999999986              -0.000625298               0.000925494               0.999999986              -0.000509774               0.000795441               0.999999986              -0.000472118               0.000758780               0.999999986              -0.000458155               0.000754925               0.999999986              -0.000449807               0.000762338               0.999999986              -0.000439203               0.000771586               0.999999986              -0.000422860               0.000777609               0.999999986              -0.000399095               0.000777536               0.999999986              -0.000367179               0.000770260               0.999999986              -0.000326802               0.000755725               0.999999986              -0.000278727               0.000734524               0.999999986              -0.000224530               0.000708130               0.999999986              -0.000165949               0.000678582               0.999999986              -0.000104559               0.000647678               0.999999986              -0.000041657               0.000616291               0.999999986               0.000021932               0.000584817               0.999999986               0.000085603               0.000553279               0.999999986              -0.000560238               0.001015081               0.999999986              -0.000438470               0.000905000               0.999999986              -0.000398681               0.000865195               0.999999986              -0.000384596               0.000857128               0.999999986              -0.000377293               0.000862298               0.999999986              -0.000368952               0.000871998               0.999999986              -0.000355941               0.000881302               0.999999986              -0.000336613               0.000887278               0.999999986              -0.000310227               0.000888216               0.999999986              -0.000275982               0.000883342               0.999999986              -0.000233424               0.000872818               0.999999986              -0.000183622               0.000857144               0.999999986              -0.000127862               0.000837767               0.999999986              -0.000067811               0.000815963               0.999999986              -0.000004855               0.000793231               0.999999986               0.000059645               0.000770363               0.999999986               0.000124115               0.000747802               0.999999986              -0.000489558               0.001096644               0.999999986              -0.000369744               0.001010919               0.999999986              -0.000328018               0.000974321               0.999999986              -0.000312920               0.000964426               0.999999986              -0.000305836               0.000968336               0.999999986              -0.000298944               0.000978507               0.999999986              -0.000288518               0.000990599               0.999999986              -0.000273071               0.001001636               0.999999986              -0.000251724               0.001009810               0.999999986              -0.000223205               0.001013978               0.999999986              -0.000186775               0.001013565               0.999999986              -0.000142412               0.001008527               0.999999986              -0.000091017               0.000999432               0.999999986              -0.000033697               0.000987253               0.999999986               0.000028266               0.000973124               0.999999986               0.000093464               0.000958243               0.999999986               0.000160079               0.000943581               0.999999986              -0.000414649               0.001168138               0.999999986              -0.000303596               0.001109941               0.999999986              -0.000261668               0.001081136               0.999999986              -0.000245433               0.001072652               0.999999986              -0.000238013               0.001076812               0.999999986              -0.000231898               0.001088075               0.999999986              -0.000223439               0.001102734               0.999999986              -0.000211066               0.001118249               0.999999986              -0.000193990               0.001132833               0.999999986              -0.000170923               0.001145149               0.999999986              -0.000140677               0.001154257               0.999999986              -0.000102703               0.001159661               0.999999986              -0.000057169               0.001161291               0.999999986              -0.000004595               0.001159377               0.999999986               0.000054619               0.001154661               0.999999986               0.000119414               0.001148167               0.999999986               0.000188296               0.001141242               0.999999986              -0.000336174               0.001228319               0.999999986              -0.000239953               0.001198019               0.999999986              -0.000200457               0.001180153               0.999999986              -0.000183911               0.001176070               0.999999986              -0.000176079               0.001182412               0.999999986              -0.000170324               0.001195699               0.999999986              -0.000163349               0.001213131               0.999999986              -0.000153515               0.001232798               0.999999986              -0.000140042               0.001253116               0.999999986              -0.000121868               0.001272669               0.999999986              -0.000097703               0.001290561               0.999999986              -0.000066560               0.001305966               0.999999986              -0.000028164               0.001318283               0.999999986               0.000017615               0.001327340               0.999999986               0.000070961               0.001333309               0.999999986               0.000132419               0.001336594               0.999999986               0.000201538               0.001338289               0.999999986              -0.000254849               0.001276181               0.999999986              -0.000178354               0.001271243               0.999999986              -0.000144510               0.001265580               0.999999986              -0.000129311               0.001267618               0.999999986              -0.000121737               0.001277674               0.999999986              -0.000116547               0.001293887               0.999999986              -0.000110728               0.001314474               0.999999986              -0.000103140               0.001337984               0.999999986              -0.000092921               0.001363211               0.999999986              -0.000079327               0.001388990               0.999999986              -0.000061118               0.001414352               0.999999986              -0.000037299               0.001438606               0.999999986              -0.000007247               0.001460891               0.999999986               0.000029487               0.001480676               0.999999986               0.000073794               0.001497572               0.999999986               0.000126956               0.001511564               0.999999986               0.000190006               0.001522961               0.999999986              -0.000171284               0.001311122               0.999999986              -0.000118196               0.001326271               0.999999986              -0.000093326               0.001331674               0.999999986              -0.000081498               0.001339998               0.999999986              -0.000075408               0.001354106               0.999999986              -0.000071372               0.001373604               0.999999986              -0.000067063               0.001397337               0.999999986              -0.000061688               0.001424270               0.999999986              -0.000054614               0.001453539               0.999999986              -0.000045356               0.001484286               0.999999986              -0.000033102               0.001515587               0.999999986              -0.000017086               0.001546776               0.999999986               0.000003569               0.001577109               0.999999986               0.000029417               0.001605939               0.999999986               0.000061269               0.001632588               0.999999986               0.000100661               0.001656344               0.999999986               0.000149646               0.001676932               0.999999986              -0.000086077               0.001332475               0.999999986              -0.000058918               0.001360551               0.999999986              -0.000045712               0.001373586               0.999999986              -0.000039175               0.001386595               0.999999986              -0.000035820               0.001403796               0.999999986              -0.000033539               0.001425736               0.999999986              -0.000031217               0.001451923               0.999999986              -0.000028433               0.001481421               0.999999986              -0.000024738               0.001513565               0.999999986              -0.000019965               0.001547589               0.999999986              -0.000013876               0.001582767               0.999999986              -0.000005880               0.001618530               0.999999986               0.000004734               0.001654204               0.999999986               0.000018311               0.001689089               0.999999986               0.000034843               0.001722482               0.999999986               0.000055814               0.001753520               0.999999986               0.000082983               0.001781141               0.999999986              -0.000000000               0.001339567               0.999999986               0.000000000               0.001372169               0.999999986              -0.000000000               0.001388011               0.999999986              -0.000000000               0.001402669               0.999999986              -0.000000000               0.001421062               0.999999986              -0.000000000               0.001443989               0.999999986               0.000000000               0.001471082               0.999999986              -0.000000000               0.001501542               0.999999986               0.000000000               0.001534684               0.999999986              -0.000000000               0.001569919               0.999999986              -0.000000000               0.001606581               0.999999986               0.000000000               0.001643968               0.999999986              -0.000000000               0.001681477               0.999999986               0.000000000               0.001718448               0.999999986              -0.000000000               0.001754141               0.999999986              -0.000000000               0.001787794               0.999999986              -0.000000000               0.001818096               0.999999986              -0.000923312              -0.000000000               0.999999986              -0.000971966               0.000000000               0.999999986              -0.000992022              -0.000000000               0.999999986              -0.001002823              -0.000000000               0.999999986              -0.001011351               0.000000000               0.999999986              -0.001020083               0.000000000               0.999999986              -0.001029660               0.000000000               0.999999986              -0.001039961               0.000000000               0.999999986              -0.001050957              -0.000000000               0.999999986              -0.001062344               0.000000000               0.999999986              -0.001073627              -0.000000000               0.999999986              -0.001084595              -0.000000000               0.999999986              -0.001094837               0.000000000               0.999999986              -0.001103926               0.000000000               0.999999986              -0.001111309               0.000000000               0.999999986              -0.001116318               0.000000000               0.999999986              -0.001118178               0.000000000               0.999999986              -0.000918018              -0.000128283               0.999999986              -0.000962350              -0.000101032               0.999999986              -0.000979633              -0.000088378               0.999999986              -0.000988647              -0.000082877               0.999999986              -0.000995936              -0.000080893               0.999999986              -0.001003737              -0.000080417               0.999999986              -0.001012480              -0.000080274               0.999999986              -0.001021970              -0.000079833               0.999999986              -0.001031953              -0.000078825               0.999999986              -0.001042086              -0.000076909               0.999999986              -0.001051980              -0.000073725               0.999999986              -0.001061269              -0.000068935               0.999999986              -0.001069539              -0.000061919               0.999999986              -0.001076357              -0.000052255               0.999999986              -0.001081242              -0.000039226               0.999999986              -0.001083681              -0.000021943               0.999999986              -0.001083040               0.000000430               0.999999986              -0.000902264              -0.000255333               0.999999986              -0.000934083              -0.000201704               0.999999986              -0.000943662              -0.000177835               0.999999986              -0.000947908              -0.000168029               0.999999986              -0.000952007              -0.000164949               0.999999986              -0.000957241              -0.000164560               0.999999986              -0.000963550              -0.000164621               0.999999986              -0.000970520              -0.000164121               0.999999986              -0.000977664              -0.000162237               0.999999986              -0.000984418              -0.000158444               0.999999986              -0.000990291              -0.000152091               0.999999986              -0.000994676              -0.000142596               0.999999986              -0.000997139              -0.000129001               0.999999986              -0.000997513              -0.000110570               0.999999986              -0.000995440              -0.000086282               0.999999986              -0.000990746              -0.000055009               0.999999986              -0.000983365              -0.000015382               0.999999986              -0.000876522              -0.000379899               0.999999986              -0.000888767              -0.000301865               0.999999986              -0.000887277              -0.000269273               0.999999986              -0.000885041              -0.000257176               0.999999986              -0.000884896              -0.000254322               0.999999986              -0.000886791              -0.000254787               0.999999986              -0.000889771              -0.000255694               0.999999986              -0.000893043              -0.000255413               0.999999986              -0.000895743              -0.000252949               0.999999986              -0.000897061              -0.000247362               0.999999986              -0.000896322              -0.000237877               0.999999986              -0.000893038              -0.000223832               0.999999986              -0.000886980              -0.000204416               0.999999986              -0.000878034              -0.000178898               0.999999986              -0.000866252              -0.000146589               0.999999986              -0.000852037              -0.000106693               0.999999986              -0.000835979              -0.000058850               0.999999986              -0.000841438              -0.000500792               0.999999986              -0.000828769              -0.000401556               0.999999986              -0.000814895              -0.000363361               0.999999986              -0.000806270              -0.000351081               0.999999986              -0.000802105              -0.000349727               0.999999986              -0.000800602              -0.000351911               0.999999986              -0.000799965              -0.000354060               0.999999986              -0.000798757              -0.000354182               0.999999986              -0.000795732              -0.000351013               0.999999986              -0.000790145              -0.000343598               0.999999986              -0.000781364              -0.000331118               0.999999986              -0.000769205              -0.000312996               0.999999986              -0.000753569              -0.000288716               0.999999986              -0.000734631              -0.000258029               0.999999986              -0.000712926              -0.000221114               0.999999986              -0.000689325              -0.000178381               0.999999986              -0.000664823              -0.000130391               0.999999986              -0.000797687              -0.000616971               0.999999986              -0.000757309              -0.000500845               0.999999986              -0.000732105              -0.000460074               0.999999986              -0.000718478              -0.000449373               0.999999986              -0.000711389              -0.000450299               0.999999986              -0.000706993              -0.000454623               0.999999986              -0.000702599              -0.000458166               0.999999986              -0.000696248              -0.000458589               0.999999986              -0.000686867              -0.000454583               0.999999986              -0.000673721              -0.000445202               0.999999986              -0.000656376              -0.000429922               0.999999986              -0.000634866              -0.000408312               0.999999986              -0.000609391              -0.000380425               0.999999986              -0.000580636              -0.000346736               0.999999986              -0.000549633              -0.000308532               0.999999986              -0.000517278              -0.000266781               0.999999986              -0.000484378              -0.000222376               0.999999986              -0.000746263              -0.000727347               0.999999986              -0.000678029              -0.000599706               0.999999986              -0.000644242              -0.000558982               0.999999986              -0.000628011              -0.000550743               0.999999986              -0.000619419              -0.000554199               0.999999986              -0.000612656              -0.000560522               0.999999986              -0.000604410              -0.000565289               0.999999986              -0.000592767              -0.000565771               0.999999986              -0.000576647              -0.000560669               0.999999986              -0.000555427              -0.000549390               0.999999986              -0.000528994              -0.000531527               0.999999986              -0.000497561              -0.000507389               0.999999986              -0.000461925              -0.000477609               0.999999986              -0.000423232              -0.000443184               0.999999986              -0.000382794              -0.000406057               0.999999986              -0.000341252              -0.000367150               0.999999986              -0.000299135              -0.000327028               0.999999986              -0.000688193              -0.000830822               0.999999986              -0.000594568              -0.000697937               0.999999986              -0.000556092              -0.000659113               0.999999986              -0.000540044              -0.000653326               0.999999986              -0.000531224              -0.000658953               0.999999986              -0.000522513              -0.000666922               0.999999986              -0.000510465              -0.000672461               0.999999986              -0.000493148              -0.000672750               0.999999986              -0.000469608              -0.000666505               0.999999986              -0.000439489              -0.000653537               0.999999986              -0.000402886              -0.000633703               0.999999986              -0.000360764              -0.000607953               0.999999986              -0.000314346              -0.000577495               0.999999986              -0.000265099              -0.000544100               0.999999986              -0.000214092              -0.000509498               0.999999986              -0.000161925              -0.000474069               0.999999986              -0.000109155              -0.000437860               0.999999986              -0.000625298              -0.000925494               0.999999986              -0.000509774              -0.000795441               0.999999986              -0.000472118              -0.000758780               0.999999986              -0.000458155              -0.000754925               0.999999986              -0.000449807              -0.000762338               0.999999986              -0.000439203              -0.000771586               0.999999986              -0.000422860              -0.000777609               0.999999986              -0.000399095              -0.000777536               0.999999986              -0.000367179              -0.000770260               0.999999986              -0.000326802              -0.000755725               0.999999986              -0.000278727              -0.000734524               0.999999986              -0.000224530              -0.000708130               0.999999986              -0.000165949              -0.000678582               0.999999986              -0.000104559              -0.000647678               0.999999986              -0.000041657              -0.000616291               0.999999986               0.000021932              -0.000584817               0.999999986               0.000085603              -0.000553279               0.999999986              -0.000560238              -0.001015081               0.999999986              -0.000438470              -0.000905000               0.999999986              -0.000398681              -0.000865195               0.999999986              -0.000384596              -0.000857128               0.999999986              -0.000377293              -0.000862298               0.999999986              -0.000368952              -0.000871998               0.999999986              -0.000355941              -0.000881302               0.999999986              -0.000336613              -0.000887278               0.999999986              -0.000310227              -0.000888216               0.999999986              -0.000275982              -0.000883342               0.999999986              -0.000233424              -0.000872818               0.999999986              -0.000183622              -0.000857144               0.999999986              -0.000127862              -0.000837767               0.999999986              -0.000067811              -0.000815963               0.999999986              -0.000004855              -0.000793231               0.999999986               0.000059645              -0.000770363               0.999999986               0.000124115              -0.000747802               0.999999986              -0.000489558              -0.001096644               0.999999986              -0.000369744              -0.001010919               0.999999986              -0.000328018              -0.000974321               0.999999986              -0.000312920              -0.000964426               0.999999986              -0.000305836              -0.000968336               0.999999986              -0.000298944              -0.000978507               0.999999986              -0.000288518              -0.000990599               0.999999986              -0.000273071              -0.001001636               0.999999986              -0.000251724              -0.001009810               0.999999986              -0.000223205              -0.001013978               0.999999986              -0.000186775              -0.001013565               0.999999986              -0.000142412              -0.001008527               0.999999986              -0.000091017              -0.000999432               0.999999986              -0.000033697              -0.000987253               0.999999986               0.000028266              -0.000973124               0.999999986               0.000093464              -0.000958243               0.999999986               0.000160079              -0.000943581               0.999999986              -0.000414649              -0.001168138               0.999999986              -0.000303596              -0.001109941               0.999999986              -0.000261668              -0.001081136               0.999999986              -0.000245433              -0.001072652               0.999999986              -0.000238013              -0.001076812               0.999999986              -0.000231898              -0.001088075               0.999999986              -0.000223439              -0.001102734               0.999999986              -0.000211066              -0.001118249               0.999999986              -0.000193990              -0.001132833               0.999999986              -0.000170923              -0.001145149               0.999999986              -0.000140677              -0.001154257               0.999999986              -0.000102703              -0.001159661               0.999999986              -0.000057169              -0.001161291               0.999999986              -0.000004595              -0.001159377               0.999999986               0.000054619              -0.001154661               0.999999986               0.000119414              -0.001148167               0.999999986               0.000188296              -0.001141242               0.999999986              -0.000336174              -0.001228319               0.999999986              -0.000239953              -0.001198019               0.999999986              -0.000200457              -0.001180153               0.999999986              -0.000183911              -0.001176070               0.999999986              -0.000176079              -0.001182412               0.999999986              -0.000170324              -0.001195699               0.999999986              -0.000163349              -0.001213131               0.999999986              -0.000153515              -0.001232798               0.999999986              -0.000140042              -0.001253116               0.999999986              -0.000121868              -0.001272669               0.999999986              -0.000097703              -0.001290561               0.999999986              -0.000066560              -0.001305966               0.999999986              -0.000028164              -0.001318283               0.999999986               0.000017615              -0.001327340               0.999999986               0.000070961              -0.001333309               0.999999986               0.000132419              -0.001336594               0.999999986               0.000201538              -0.001338289               0.999999986              -0.000254849              -0.001276181               0.999999986              -0.000178354              -0.001271243               0.999999986              -0.000144510              -0.001265580               0.999999986              -0.000129311              -0.001267618               0.999999986              -0.000121737              -0.001277674               0.999999986              -0.000116547              -0.001293887               0.999999986              -0.000110728              -0.001314474               0.999999986              -0.000103140              -0.001337984               0.999999986              -0.000092921              -0.001363211               0.999999986              -0.000079327              -0.001388990               0.999999986              -0.000061118              -0.001414352               0.999999986              -0.000037299              -0.001438606               0.999999986              -0.000007247              -0.001460891               0.999999986               0.000029487              -0.001480676               0.999999986               0.000073794              -0.001497572               0.999999986               0.000126956              -0.001511564               0.999999986               0.000190006              -0.001522961               0.999999986              -0.000171284              -0.001311122               0.999999986              -0.000118196              -0.001326271               0.999999986              -0.000093326              -0.001331674               0.999999986              -0.000081498              -0.001339998               0.999999986              -0.000075408              -0.001354106               0.999999986              -0.000071372              -0.001373604               0.999999986              -0.000067063              -0.001397337               0.999999986              -0.000061688              -0.001424270               0.999999986              -0.000054614              -0.001453539               0.999999986              -0.000045356              -0.001484286               0.999999986              -0.000033102              -0.001515587               0.999999986              -0.000017086              -0.001546776               0.999999986               0.000003569              -0.001577109               0.999999986               0.000029417              -0.001605939               0.999999986               0.000061269              -0.001632588               0.999999986               0.000100661              -0.001656344               0.999999986               0.000149646              -0.001676932               0.999999986              -0.000086077              -0.001332475               0.999999986              -0.000058918              -0.001360551               0.999999986              -0.000045712              -0.001373586               0.999999986              -0.000039175              -0.001386595               0.999999986              -0.000035820              -0.001403796               0.999999986              -0.000033539              -0.001425736               0.999999986              -0.000031217              -0.001451923               0.999999986              -0.000028433              -0.001481421               0.999999986              -0.000024738              -0.001513565               0.999999986              -0.000019965              -0.001547589               0.999999986              -0.000013876              -0.001582767               0.999999986              -0.000005880              -0.001618530               0.999999986               0.000004734              -0.001654204               0.999999986               0.000018311              -0.001689089               0.999999986               0.000034843              -0.001722482               0.999999986               0.000055814              -0.001753520               0.999999986               0.000082983              -0.001781141               0.999999986              -0.000000000              -0.001339567               0.999999986               0.000000000              -0.001372169               0.999999986               0.000000000              -0.001388011               0.999999986               0.000000000              -0.001402669               0.999999986              -0.000000000              -0.001421062               0.999999986              -0.000000000              -0.001443989               0.999999986              -0.000000000              -0.001471082               0.999999986              -0.000000000              -0.001501542               0.999999986              -0.000000000              -0.001534684               0.999999986               0.000000000              -0.001569919               0.999999986              -0.000000000              -0.001606581               0.999999986              -0.000000000              -0.001643968               0.999999986               0.000000000              -0.001681477               0.999999986              -0.000000000              -0.001718448               0.999999986               0.000000000              -0.001754141               0.999999986              -0.000000000              -0.001787794               0.999999986               0.000000000              -0.001818096               0.999999986               0.000923312              -0.000000000               0.999999986               0.000971966               0.000000000               0.999999986               0.000992022               0.000000000               0.999999986               0.001002823              -0.000000000               0.999999986               0.001011351               0.000000000               0.999999986               0.001020083              -0.000000000               0.999999986               0.001029660               0.000000000               0.999999986               0.001039961              -0.000000000               0.999999986               0.001050957              -0.000000000               0.999999986               0.001062344               0.000000000               0.999999986               0.001073627               0.000000000               0.999999986               0.001084595               0.000000000               0.999999986               0.001094837              -0.000000000               0.999999986               0.001103926              -0.000000000               0.999999986               0.001111309              -0.000000000               0.999999986               0.001116318              -0.000000000               0.999999986               0.001118178               0.000000000               0.999999986               0.000918018              -0.000128283               0.999999986               0.000962350              -0.000101032               0.999999986               0.000979633              -0.000088378               0.999999986               0.000988647              -0.000082877               0.999999986               0.000995936              -0.000080893               0.999999986               0.001003737              -0.000080417               0.999999986               0.001012480              -0.000080274               0.999999986               0.001021970              -0.000079833               0.999999986               0.001031953              -0.000078825               0.999999986               0.001042086              -0.000076909               0.999999986               0.001051980              -0.000073725               0.999999986               0.001061269              -0.000068935               0.999999986               0.001069539              -0.000061919               0.999999986               0.001076357              -0.000052255               0.999999986               0.001081242              -0.000039226               0.999999986               0.001083681              -0.000021943               0.999999986               0.001083040               0.000000430               0.999999986               0.000902264              -0.000255333               0.999999986               0.000934083              -0.000201704               0.999999986               0.000943662              -0.000177835               0.999999986               0.000947908              -0.000168029               0.999999986               0.000952007              -0.000164949               0.999999986               0.000957241              -0.000164560               0.999999986               0.000963550              -0.000164621               0.999999986               0.000970520              -0.000164121               0.999999986               0.000977664              -0.000162237               0.999999986               0.000984418              -0.000158444               0.999999986               0.000990291              -0.000152091               0.999999986               0.000994676              -0.000142596               0.999999986               0.000997139              -0.000129001               0.999999986               0.000997513              -0.000110570               0.999999986               0.000995440              -0.000086282               0.999999986               0.000990746              -0.000055009               0.999999986               0.000983365              -0.000015382               0.999999986               0.000876522              -0.000379899               0.999999986               0.000888767              -0.000301865               0.999999986               0.000887277              -0.000269273               0.999999986               0.000885041              -0.000257176               0.999999986               0.000884896              -0.000254322               0.999999986               0.000886791              -0.000254787               0.999999986               0.000889771              -0.000255694               0.999999986               0.000893043              -0.000255413               0.999999986               0.000895743              -0.000252949               0.999999986               0.000897061              -0.000247362               0.999999986               0.000896322              -0.000237877               0.999999986               0.000893038              -0.000223832               0.999999986               0.000886980              -0.000204416               0.999999986               0.000878034              -0.000178898               0.999999986               0.000866252              -0.000146589               0.999999986               0.000852037              -0.000106693               0.999999986               0.000835979              -0.000058850               0.999999986               0.000841438              -0.000500792               0.999999986               0.000828769              -0.000401556               0.999999986               0.000814895              -0.000363361               0.999999986               0.000806270              -0.000351081               0.999999986               0.000802105              -0.000349727               0.999999986               0.000800602              -0.000351911               0.999999986               0.000799965              -0.000354060               0.999999986               0.000798757              -0.000354182               0.999999986               0.000795732              -0.000351013               0.999999986               0.000790145              -0.000343598               0.999999986               0.000781364              -0.000331118               0.999999986               0.000769205              -0.000312996               0.999999986               0.000753569              -0.000288716               0.999999986               0.000734631              -0.000258029               0.999999986               0.000712926              -0.000221114               0.999999986               0.000689325              -0.000178381               0.999999986               0.000664823              -0.000130391               0.999999986               0.000797687              -0.000616971               0.999999986               0.000757309              -0.000500845               0.999999986               0.000732105              -0.000460074               0.999999986               0.000718478              -0.000449373               0.999999986               0.000711389              -0.000450299               0.999999986               0.000706993              -0.000454623               0.999999986               0.000702599              -0.000458166               0.999999986               0.000696248              -0.000458589               0.999999986               0.000686867              -0.000454583               0.999999986               0.000673721              -0.000445202               0.999999986               0.000656376              -0.000429922               0.999999986               0.000634866              -0.000408312               0.999999986               0.000609391              -0.000380425               0.999999986               0.000580636              -0.000346736               0.999999986               0.000549633              -0.000308532               0.999999986               0.000517278              -0.000266781               0.999999986               0.000484378              -0.000222376               0.999999986               0.000746263              -0.000727347               0.999999986               0.000678029              -0.000599706               0.999999986               0.000644242              -0.000558982               0.999999986               0.000628011              -0.000550743               0.999999986               0.000619419              -0.000554199               0.999999986               0.000612656              -0.000560522               0.999999986               0.000604410              -0.000565289               0.999999986               0.000592767              -0.000565771               0.999999986               0.000576647              -0.000560669               0.999999986               0.000555427              -0.000549390               0.999999986               0.000528994              -0.000531527               0.999999986               0.000497561              -0.000507389               0.999999986               0.000461925              -0.000477609               0.999999986               0.000423232              -0.000443184               0.999999986               0.000382794              -0.000406057               0.999999986               0.000341252              -0.000367150               0.999999986               0.000299135              -0.000327028               0.999999986               0.000688193              -0.000830822               0.999999986               0.000594568              -0.000697937               0.999999986               0.000556092              -0.000659113               0.999999986               0.000540044              -0.000653326               0.999999986               0.000531224              -0.000658953               0.999999986               0.000522513              -0.000666922               0.999999986               0.000510465              -0.000672461               0.999999986               0.000493148              -0.000672750               0.999999986               0.000469608              -0.000666505               0.999999986               0.000439489              -0.000653537               0.999999986               0.000402886              -0.000633703               0.999999986               0.000360764              -0.000607953               0.999999986               0.000314346              -0.000577495               0.999999986               0.000265099              -0.000544100               0.999999986               0.000214092              -0.000509498               0.999999986               0.000161925              -0.000474069               0.999999986               0.000109155              -0.000437860               0.999999986               0.000625298              -0.000925494               0.999999986               0.000509774              -0.000795441               0.999999986               0.000472118              -0.000758780               0.999999986               0.000458155              -0.000754925               0.999999986               0.000449807              -0.000762338               0.999999986               0.000439203              -0.000771586               0.999999986               0.000422860              -0.000777609               0.999999986               0.000399095              -0.000777536               0.999999986               0.000367179              -0.000770260               0.999999986               0.000326802              -0.000755725               0.999999986               0.000278727              -0.000734524               0.999999986               0.000224530              -0.000708130               0.999999986               0.000165949              -0.000678582               0.999999986               0.000104559              -0.000647678               0.999999986               0.000041657              -0.000616291               0.999999986              -0.000021932              -0.000584817               0.999999986              -0.000085603              -0.000553279               0.999999986               0.000560238              -0.001015081               0.999999986               0.000438470              -0.000905000               0.999999986               0.000398681              -0.000865195               0.999999986               0.000384596              -0.000857128               0.999999986               0.000377293              -0.000862298               0.999999986               0.000368952              -0.000871998               0.999999986               0.000355941              -0.000881302               0.999999986               0.000336613              -0.000887278               0.999999986               0.000310227              -0.000888216               0.999999986               0.000275982              -0.000883342               0.999999986               0.000233424              -0.000872818               0.999999986               0.000183622              -0.000857144               0.999999986               0.000127862              -0.000837767               0.999999986               0.000067811              -0.000815963               0.999999986               0.000004855              -0.000793231               0.999999986              -0.000059645              -0.000770363               0.999999986              -0.000124115              -0.000747802               0.999999986               0.000489558              -0.001096644               0.999999986               0.000369744              -0.001010919               0.999999986               0.000328018              -0.000974321               0.999999986               0.000312920              -0.000964426               0.999999986               0.000305836              -0.000968336               0.999999986               0.000298944              -0.000978507               0.999999986               0.000288518              -0.000990599               0.999999986               0.000273071              -0.001001636               0.999999986               0.000251724              -0.001009810               0.999999986               0.000223205              -0.001013978               0.999999986               0.000186775              -0.001013565               0.999999986               0.000142412              -0.001008527               0.999999986               0.000091017              -0.000999432               0.999999986               0.000033697              -0.000987253               0.999999986              -0.000028266              -0.000973124               0.999999986              -0.000093464              -0.000958243               0.999999986              -0.000160079              -0.000943581               0.999999986               0.000414649              -0.001168138               0.999999986               0.000303596              -0.001109941               0.999999986               0.000261668              -0.001081136               0.999999986               0.000245433              -0.001072652               0.999999986               0.000238013              -0.001076812               0.999999986               0.000231898              -0.001088075               0.999999986               0.000223439              -0.001102734               0.999999986               0.000211066              -0.001118249               0.999999986               0.000193990              -0.001132833               0.999999986               0.000170923              -0.001145149               0.999999986               0.000140677              -0.001154257               0.999999986               0.000102703              -0.001159661               0.999999986               0.000057169              -0.001161291               0.999999986               0.000004595              -0.001159377               0.999999986              -0.000054619              -0.001154661               0.999999986              -0.000119414              -0.001148167               0.999999986              -0.000188296              -0.001141242               0.999999986               0.000336174              -0.001228319               0.999999986               0.000239953              -0.001198019               0.999999986               0.000200457              -0.001180153               0.999999986               0.000183911              -0.001176070               0.999999986               0.000176079              -0.001182412               0.999999986               0.000170324              -0.001195699               0.999999986               0.000163349              -0.001213131               0.999999986               0.000153515              -0.001232798               0.999999986               0.000140042              -0.001253116               0.999999986               0.000121868              -0.001272669               0.999999986               0.000097703              -0.001290561               0.999999986               0.000066560              -0.001305966               0.999999986               0.000028164              -0.001318283               0.999999986              -0.000017615              -0.001327340               0.999999986              -0.000070961              -0.001333309               0.999999986              -0.000132419              -0.001336594               0.999999986              -0.000201538              -0.001338289               0.999999986               0.000254849              -0.001276181               0.999999986               0.000178354              -0.001271243               0.999999986               0.000144510              -0.001265580               0.999999986               0.000129311              -0.001267618               0.999999986               0.000121737              -0.001277674               0.999999986               0.000116547              -0.001293887               0.999999986               0.000110728              -0.001314474               0.999999986               0.000103140              -0.001337984               0.999999986               0.000092921              -0.001363211               0.999999986               0.000079327              -0.001388990               0.999999986               0.000061118              -0.001414352               0.999999986               0.000037299              -0.001438606               0.999999986               0.000007247              -0.001460891               0.999999986              -0.000029487              -0.001480676               0.999999986              -0.000073794              -0.001497572               0.999999986              -0.000126956              -0.001511564               0.999999986              -0.000190006              -0.001522961               0.999999986               0.000171284              -0.001311122               0.999999986               0.000118196              -0.001326271               0.999999986               0.000093326              -0.001331674               0.999999986               0.000081498              -0.001339998               0.999999986               0.000075408              -0.001354106               0.999999986               0.000071372              -0.001373604               0.999999986               0.000067063              -0.001397337               0.999999986               0.000061688              -0.001424270               0.999999986               0.000054614              -0.001453539               0.999999986               0.000045356              -0.001484286               0.999999986               0.000033102              -0.001515587               0.999999986               0.000017086              -0.001546776               0.999999986              -0.000003569              -0.001577109               0.999999986              -0.000029417              -0.001605939               0.999999986              -0.000061269              -0.001632588               0.999999986              -0.000100661              -0.001656344               0.999999986              -0.000149646              -0.001676932               0.999999986               0.000086077              -0.001332475               0.999999986               0.000058918              -0.001360551               0.999999986               0.000045712              -0.001373586               0.999999986               0.000039175              -0.001386595               0.999999986               0.000035820              -0.001403796               0.999999986               0.000033539              -0.001425736               0.999999986               0.000031217              -0.001451923               0.999999986               0.000028433              -0.001481421               0.999999986               0.000024738              -0.001513565               0.999999986               0.000019965              -0.001547589               0.999999986               0.000013876              -0.001582767               0.999999986               0.000005880              -0.001618530               0.999999986              -0.000004734              -0.001654204               0.999999986              -0.000018311              -0.001689089               0.999999986              -0.000034843              -0.001722482               0.999999986              -0.000055814              -0.001753520               0.999999986              -0.000082983              -0.001781141               0.999999986              -0.000000000              -0.001339567               0.999999986               0.000000000              -0.001372169               0.999999986               0.000000000              -0.001388011               0.999999986               0.000000000              -0.001402669               0.999999986              -0.000000000              -0.001421062               0.999999986              -0.000000000              -0.001443989               0.999999986              -0.000000000              -0.001471082               0.999999986              -0.000000000              -0.001501542               0.999999986              -0.000000000              -0.001534684               0.999999986               0.000000000              -0.001569919               0.999999986              -0.000000000              -0.001606581               0.999999986              -0.000000000              -0.001643968               0.999999986               0.000000000              -0.001681477               0.999999986              -0.000000000              -0.001718448               0.999999986               0.000000000              -0.001754141               0.999999986              -0.000000000              -0.001787794               0.999999986               0.000000000              -0.001818096               0.999999986               0.000923312              -0.000000000               0.999999986               0.000971966               0.000000000               0.999999986               0.000992022               0.000000000               0.999999986               0.001002823              -0.000000000               0.999999986               0.001011351               0.000000000               0.999999986               0.001020083              -0.000000000               0.999999986               0.001029660               0.000000000               0.999999986               0.001039961              -0.000000000               0.999999986               0.001050957              -0.000000000               0.999999986               0.001062344               0.000000000               0.999999986               0.001073627               0.000000000               0.999999986               0.001084595               0.000000000               0.999999986               0.001094837              -0.000000000               0.999999986               0.001103926              -0.000000000               0.999999986               0.001111309              -0.000000000               0.999999986               0.001116318              -0.000000000               0.999999986               0.001118178               0.000000000               0.999999986               0.000918018               0.000128283               0.999999986               0.000962350               0.000101032               0.999999986               0.000979633               0.000088378               0.999999986               0.000988647               0.000082877               0.999999986               0.000995936               0.000080893               0.999999986               0.001003737               0.000080417               0.999999986               0.001012480               0.000080274               0.999999986               0.001021970               0.000079833               0.999999986               0.001031953               0.000078825               0.999999986               0.001042086               0.000076909               0.999999986               0.001051980               0.000073725               0.999999986               0.001061269               0.000068935               0.999999986               0.001069539               0.000061919               0.999999986               0.001076357               0.000052255               0.999999986               0.001081242               0.000039226               0.999999986               0.001083681               0.000021943               0.999999986               0.001083040              -0.000000430               0.999999986               0.000902264               0.000255333               0.999999986               0.000934083               0.000201704               0.999999986               0.000943662               0.000177835               0.999999986               0.000947908               0.000168029               0.999999986               0.000952007               0.000164949               0.999999986               0.000957241               0.000164560               0.999999986               0.000963550               0.000164621               0.999999986               0.000970520               0.000164121               0.999999986               0.000977664               0.000162237               0.999999986               0.000984418               0.000158444               0.999999986               0.000990291               0.000152091               0.999999986               0.000994676               0.000142596               0.999999986               0.000997139               0.000129001               0.999999986               0.000997513               0.000110570               0.999999986               0.000995440               0.000086282               0.999999986               0.000990746               0.000055009               0.999999986               0.000983365               0.000015382               0.999999986               0.000876522               0.000379899               0.999999986               0.000888767               0.000301865               0.999999986               0.000887277               0.000269273               0.999999986               0.000885041               0.000257176               0.999999986               0.000884896               0.000254322               0.999999986               0.000886791               0.000254787               0.999999986               0.000889771               0.000255694               0.999999986               0.000893043               0.000255413               0.999999986               0.000895743               0.000252949               0.999999986               0.000897061               0.000247362               0.999999986               0.000896322               0.000237877               0.999999986               0.000893038               0.000223832               0.999999986               0.000886980               0.000204416               0.999999986               0.000878034               0.000178898               0.999999986               0.000866252               0.000146589               0.999999986               0.000852037               0.000106693               0.999999986               0.000835979               0.000058850               0.999999986               0.000841438               0.000500792               0.999999986               0.000828769               0.000401556               0.999999986               0.000814895               0.000363361               0.999999986               0.000806270               0.000351081               0.999999986               0.000802105               0.000349727               0.999999986               0.000800602               0.000351911               0.999999986               0.000799965               0.000354060               0.999999986               0.000798757               0.000354182               0.999999986               0.000795732               0.000351013               0.999999986               0.000790145               0.000343598               0.999999986               0.000781364               0.000331118               0.999999986               0.000769205               0.000312996               0.999999986               0.000753569               0.000288716               0.999999986               0.000734631               0.000258029               0.999999986               0.000712926               0.000221114               0.999999986               0.000689325               0.000178381               0.999999986               0.000664823               0.000130391               0.999999986               0.000797687               0.000616971               0.999999986               0.000757309               0.000500845               0.999999986               0.000732105               0.000460074               0.999999986               0.000718478               0.000449373               0.999999986               0.000711389               0.000450299               0.999999986               0.000706993               0.000454623               0.999999986               0.000702599               0.000458166               0.999999986               0.000696248               0.000458589               0.999999986               0.000686867               0.000454583               0.999999986               0.000673721               0.000445202               0.999999986               0.000656376               0.000429922               0.999999986               0.000634866               0.000408312               0.999999986               0.000609391               0.000380425               0.999999986               0.000580636               0.000346736               0.999999986               0.000549633               0.000308532               0.999999986               0.000517278               0.000266781               0.999999986               0.000484378               0.000222376               0.999999986               0.000746263               0.000727347               0.999999986               0.000678029               0.000599706               0.999999986               0.000644242               0.000558982               0.999999986               0.000628011               0.000550743               0.999999986               0.000619419               0.000554199               0.999999986               0.000612656               0.000560522               0.999999986               0.000604410               0.000565289               0.999999986               0.000592767               0.000565771               0.999999986               0.000576647               0.000560669               0.999999986               0.000555427               0.000549390               0.999999986               0.000528994               0.000531527               0.999999986               0.000497561               0.000507389               0.999999986               0.000461925               0.000477609               0.999999986               0.000423232               0.000443184               0.999999986               0.000382794               0.000406057               0.999999986               0.000341252               0.000367150               0.999999986               0.000299135               0.000327028               0.999999986               0.000688193               0.000830822               0.999999986               0.000594568               0.000697937               0.999999986               0.000556092               0.000659113               0.999999986               0.000540044               0.000653326               0.999999986               0.000531224               0.000658953               0.999999986               0.000522513               0.000666922               0.999999986               0.000510465               0.000672461               0.999999986               0.000493148               0.000672750               0.999999986               0.000469608               0.000666505               0.999999986               0.000439489               0.000653537               0.999999986               0.000402886               0.000633703               0.999999986               0.000360764               0.000607953               0.999999986               0.000314346               0.000577495               0.999999986               0.000265099               0.000544100               0.999999986               0.000214092               0.000509498               0.999999986               0.000161925               0.000474069               0.999999986               0.000109155               0.000437860               0.999999986               0.000625298               0.000925494               0.999999986               0.000509774               0.000795441               0.999999986               0.000472118               0.000758780               0.999999986               0.000458155               0.000754925               0.999999986               0.000449807               0.000762338               0.999999986               0.000439203               0.000771586               0.999999986               0.000422860               0.000777609               0.999999986               0.000399095               0.000777536               0.999999986               0.000367179               0.000770260               0.999999986               0.000326802               0.000755725               0.999999986               0.000278727               0.000734524               0.999999986               0.000224530               0.000708130               0.999999986               0.000165949               0.000678582               0.999999986               0.000104559               0.000647678               0.999999986               0.000041657               0.000616291               0.999999986              -0.000021932               0.000584817               0.999999986              -0.000085603               0.000553279               0.999999986               0.000560238               0.001015081               0.999999986               0.000438470               0.000905000               0.999999986               0.000398681               0.000865195               0.999999986               0.000384596               0.000857128               0.999999986               0.000377293               0.000862298               0.999999986               0.000368952               0.000871998               0.999999986               0.000355941               0.000881302               0.999999986               0.000336613               0.000887278               0.999999986               0.000310227               0.000888216               0.999999986               0.000275982               0.000883342               0.999999986               0.000233424               0.000872818               0.999999986               0.000183622               0.000857144               0.999999986               0.000127862               0.000837767               0.999999986               0.000067811               0.000815963               0.999999986               0.000004855               0.000793231               0.999999986              -0.000059645               0.000770363               0.999999986              -0.000124115               0.000747802               0.999999986               0.000489558               0.001096644               0.999999986               0.000369744               0.001010919               0.999999986               0.000328018               0.000974321               0.999999986               0.000312920               0.000964426               0.999999986               0.000305836               0.000968336               0.999999986               0.000298944               0.000978507               0.999999986               0.000288518               0.000990599               0.999999986               0.000273071               0.001001636               0.999999986               0.000251724               0.001009810               0.999999986               0.000223205               0.001013978               0.999999986               0.000186775               0.001013565               0.999999986               0.000142412               0.001008527               0.999999986               0.000091017               0.000999432               0.999999986               0.000033697               0.000987253               0.999999986              -0.000028266               0.000973124               0.999999986              -0.000093464               0.000958243               0.999999986              -0.000160079               0.000943581               0.999999986               0.000414649               0.001168138               0.999999986               0.000303596               0.001109941               0.999999986               0.000261668               0.001081136               0.999999986               0.000245433               0.001072652               0.999999986               0.000238013               0.001076812               0.999999986               0.000231898               0.001088075               0.999999986               0.000223439               0.001102734               0.999999986               0.000211066               0.001118249               0.999999986               0.000193990               0.001132833               0.999999986               0.000170923               0.001145149               0.999999986               0.000140677               0.001154257               0.999999986               0.000102703               0.001159661               0.999999986               0.000057169               0.001161291               0.999999986               0.000004595               0.001159377               0.999999986              -0.000054619               0.001154661               0.999999986              -0.000119414               0.001148167               0.999999986              -0.000188296               0.001141242               0.999999986               0.000336174               0.001228319               0.999999986               0.000239953               0.001198019               0.999999986               0.000200457               0.001180153               0.999999986               0.000183911               0.001176070               0.999999986               0.000176079               0.001182412               0.999999986               0.000170324               0.001195699               0.999999986               0.000163349               0.001213131               0.999999986               0.000153515               0.001232798               0.999999986               0.000140042               0.001253116               0.999999986               0.000121868               0.001272669               0.999999986               0.000097703               0.001290561               0.999999986               0.000066560               0.001305966               0.999999986               0.000028164               0.001318283               0.999999986              -0.000017615               0.001327340               0.999999986              -0.000070961               0.001333309               0.999999986              -0.000132419               0.001336594               0.999999986              -0.000201538               0.001338289               0.999999986               0.000254849               0.001276181               0.999999986               0.000178354               0.001271243               0.999999986               0.000144510               0.001265580               0.999999986               0.000129311               0.001267618               0.999999986               0.000121737               0.001277674               0.999999986               0.000116547               0.001293887               0.999999986               0.000110728               0.001314474               0.999999986               0.000103140               0.001337984               0.999999986               0.000092921               0.001363211               0.999999986               0.000079327               0.001388990               0.999999986               0.000061118               0.001414352               0.999999986               0.000037299               0.001438606               0.999999986               0.000007247               0.001460891               0.999999986              -0.000029487               0.001480676               0.999999986              -0.000073794               0.001497572               0.999999986              -0.000126956               0.001511564               0.999999986              -0.000190006               0.001522961               0.999999986               0.000171284               0.001311122               0.999999986               0.000118196               0.001326271               0.999999986               0.000093326               0.001331674               0.999999986               0.000081498               0.001339998               0.999999986               0.000075408               0.001354106               0.999999986               0.000071372               0.001373604               0.999999986               0.000067063               0.001397337               0.999999986               0.000061688               0.001424270               0.999999986               0.000054614               0.001453539               0.999999986               0.000045356               0.001484286               0.999999986               0.000033102               0.001515587               0.999999986               0.000017086               0.001546776               0.999999986              -0.000003569               0.001577109               0.999999986              -0.000029417               0.001605939               0.999999986              -0.000061269               0.001632588               0.999999986              -0.000100661               0.001656344               0.999999986              -0.000149646               0.001676932               0.999999986               0.000086077               0.001332475               0.999999986               0.000058918               0.001360551               0.999999986               0.000045712               0.001373586               0.999999986               0.000039175               0.001386595               0.999999986               0.000035820               0.001403796               0.999999986               0.000033539               0.001425736               0.999999986               0.000031217               0.001451923               0.999999986               0.000028433               0.001481421               0.999999986               0.000024738               0.001513565               0.999999986               0.000019965               0.001547589               0.999999986               0.000013876               0.001582767               0.999999986               0.000005880               0.001618530               0.999999986              -0.000004734               0.001654204               0.999999986              -0.000018311               0.001689089               0.999999986              -0.000034843               0.001722482               0.999999986              -0.000055814               0.001753520               0.999999986              -0.000082983               0.001781141               0.999999986              -0.000000000               0.001339567               0.999999986               0.000000000               0.001372169               0.999999986              -0.000000000               0.001388011               0.999999986              -0.000000000               0.001402669               0.999999986              -0.000000000               0.001421062               0.999999986              -0.000000000               0.001443989               0.999999986               0.000000000               0.001471082               0.999999986              -0.000000000               0.001501542               0.999999986               0.000000000               0.001534684               0.999999986              -0.000000000               0.001569919               0.999999986              -0.000000000               0.001606581               0.999999986               0.000000000               0.001643968               0.999999986              -0.000000000               0.001681477               0.999999986               0.000000000               0.001718448               0.999999986              -0.000000000               0.001754141               0.999999986              -0.000000000               0.001787794               0.999999986              -0.000000000               0.001818096               0.999999986 </DataArray>
<DataArray type="Float64"                                    Name="defo"                                                      NumberOfComponents=" 3" format="ascii">
             -0.000923312              -0.000000000               0.999999986              -0.000971966               0.000000000               0.999999986              -0.000992022              -0.000000000               0.999999986              -0.001002823              -0.000000000               0.999999986              -0.001011351               0.000000000               0.999999986              -0.001020083               0.000000000               0.999999986              -0.001029660               0.000000000               0.999999986              -0.001039961               0.000000000               0.999999986              -0.001050957              -0.000000000               0.999999986              -0.001062344               0.000000000               0.999999986              -0.001073627              -0.000000000               0.999999986              -0.001084595              -0.000000000               0.999999986              -0.001094837               0.000000000               0.999999986              -0.001103926               0.000000000               0.999999986              -0.001111309               0.000000000               0.999999986              -0.001116318               0.000000000               0.999999986              -0.001118178               0.000000000               0.999999986              -0.000918018               0.000128283               0.999999986              -0.000962350               0.000101032               0.999999986              -0.000979633               0.000088378               0.999999986              -0.000988647               0.000082877               0.999999986              -0.000995936               0.000080893               0.999999986              -0.001003737               0.000080417               0.999999986              -0.001012480               0.000080274               0.999999986              -0.001021970               0.000079833               0.999999986              -0.001031953               0.000078825               0.999999986              -0.001042086               0.000076909               0.999999986              -0.001051980               0.000073725               0.999999986              -0.001061269               0.000068935               0.999999986              -0.001069539               0.000061919               0.999999986              -0.001076357               0.000052255               0.999999986              -0.001081242               0.000039226               0.999999986              -0.001083681               0.000021943               0.999999986              -0.001083040              -0.000000430               0.999999986              -0.000902264               0.000255333               0.999999986              -0.000934083               0.000201704               0.999999986              -0.000943662               0.000177835               0.999999986              -0.000947908               0.000168029               0.999999986              -0.000952007               0.000164949               0.999999986              -0.000957241               0.000164560               0.999999986              -0.000963550               0.000164621               0.999999986              -0.000970520               0.000164121               0.999999986              -0.000977664               0.000162237               0.999999986              -0.000984418               0.000158444               0.999999986              -0.000990291               0.000152091               0.999999986              -0.000994676               0.000142596               0.999999986              -0.000997139               0.000129001               0.999999986              -0.000997513               0.000110570               0.999999986              -0.000995440               0.000086282               0.999999986              -0.000990746               0.000055009               0.999999986              -0.000983365               0.000015382               0.999999986              -0.000876522               0.000379899               0.999999986              -0.000888767               0.000301865               0.999999986              -0.000887277               0.000269273               0.999999986              -0.000885041               0.000257176               0.999999986              -0.000884896               0.000254322               0.999999986              -0.000886791               0.000254787               0.999999986              -0.000889771               0.000255694               0.999999986              -0.000893043               0.000255413               0.999999986              -0.000895743               0.000252949               0.999999986              -0.000897061               0.000247362               0.999999986              -0.000896322               0.000237877               0.999999986              -0.000893038               0.000223832               0.999999986              -0.000886980               0.000204416               0.999999986              -0.000878034               0.000178898               0.999999986              -0.000866252               0.000146589               0.999999986              -0.000852037               0.000106693               0.999999986              -0.000835979               0.000058850               0.999999986              -0.000841438               0.000500792               0.999999986              -0.000828769               0.000401556               0.999999986              -0.000814895               0.000363361               0.999999986              -0.000806270               0.000351081               0.999999986              -0.000802105               0.000349727               0.999999986              -0.000800602               0.000351911               0.999999986              -0.000799965               0.000354060               0.999999986              -0.000798757               0.000354182               0.999999986              -0.000795732               0.000351013               0.999999986              -0.000790145               0.000343598               0.999999986              -0.000781364               0.000331118               0.999999986              -0.000769205               0.000312996               0.999999986              -0.000753569               0.000288716               0.999999986              -0.000734631               0.000258029               0.999999986              -0.000712926               0.000221114               0.999999986              -0.000689325               0.000178381               0.999999986              -0.000664823               0.000130391               0.999999986              -0.000797687               0.000616971               0.999999986              -0.000757309               0.000500845               0.999999986              -0.000732105               0.000460074               0.999999986              -0.000718478               0.000449373               0.999999986              -0.000711389               0.000450299               0.999999986              -0.000706993               0.000454623               0.999999986              -0.000702599               0.000458166               0.999999986              -0.000696248               0.000458589               0.999999986              -0.000686867               0.000454583               0.999999986              -0.000673721               0.000445202               0.999999986              -0.000656376               0.000429922               0.999999986              -0.000634866               0.000408312               0.999999986              -0.000609391               0.000380425               0.999999986              -0.000580636               0.000346736               0.999999986              -0.000549633               0.000308532               0.999999986              -0.000517278               0.000266781               0.999999986              -0.000484378               0.000222376               0.999999986              -0.000746263               0.000727347               0.999999986              -0.000678029               0.000599706               0.999999986              -0.000644242               0.000558982               0.999999986              -0.000628011               0.000550743               0.999999986              -0.000619419               0.000554199               0.999999986              -0.000612656               0.000560522               0.999999986              -0.000604410               0.000565289               0.999999986              -0.000592767               0.000565771               0.999999986              -0.000576647               0.000560669               0.999999986              -0.000555427               0.000549390               0.999999986              -0.000528994               0.000531527               0.999999986              -0.000497561               0.000507389               0.999999986              -0.000461925               0.000477609               0.999999986              -0.000423232               0.000443184               0.999999986              -0.000382794               0.000406057               0.999999986              -0.000341252               0.000367150               0.999999986              -0.000299135               0.000327028               0.999999986              -0.000688193               0.000830822               0.999999986              -0.000594568               0.000697937               0.999999986              -0.000556092               0.000659113               0.999999986              -0.000540044               0.000653326               0.999999986              -0.000531224               0.000658953               0.999999986              -0.000522513               0.000666922               0.999999986              -0.000510465               0.000672461               0.999999986              -0.000493148               0.000672750               0.999999986              -0.000469608               0.000666505               0.999999986              -0.000439489               0.000653537               0.999999986              -0.000402886               0.000633703               0.999999986              -0.000360764               0.000607953               0.999999986              -0.000314346               0.000577495               0.999999986              -0.000265099               0.000544100               0.999999986              -0.000214092               0.000509498               0.999999986              -0.000161925               0.000474069               0.999999986              -0.000109155               0.000437860               0.999999986              -0.000625298               0.000925494               0.999999986              -0.000509774               0.000795441               0.999999986              -0.000472118               0.000758780               0.999999986              -0.000458155               0.000754925               0.999999986              -0.000449807               0.000762338               0.999999986              -0.000439203               0.000771586               0.999999986              -0.000422860               0.000777609               0.999999986              -0.000399095               0.000777536               0.999999986              -0.000367179               0.000770260               0.999999986              -0.000326802               0.000755725               0.999999986              -0.000278727               0.000734524               0.999999986              -0.000224530               0.000708130               0.999999986              -0.000165949               0.000678582               0.999999986              -0.000104559               0.000647678               0.999999986              -0.000041657               0.000616291               0.999999986               0.000021932               0.000584817               0.999999986               0.000085603               0.000553279               0.999999986              -0.000560238               0.001015081               0.999999986              -0.000438470               0.000905000               0.999999986              -0.000398681               0.000865195               0.999999986              -0.000384596               0.000857128               0.999999986              -0.000377293               0.000862298               0.999999986              -0.000368952               0.000871998               0.999999986              -0.000355941               0.000881302               0.999999986              -0.000336613               0.000887278               0.999999986              -0.000310227               0.000888216               0.999999986              -0.000275982               0.000883342               0.999999986              -0.000233424               0.000872818               0.999999986              -0.000183622               0.000857144               0.999999986              -0.000127862               0.000837767               0.999999986              -0.000067811               0.000815963               0.999999986              -0.000004855               0.000793231               0.999999986               0.000059645               0.000770363               0.999999986               0.000124115               0.000747802               0.999999986              -0.000489558               0.001096644               0.999999986              -0.000369744               0.001010919               0.999999986              -0.000328018               0.000974321               0.999999986              -0.000312920               0.000964426               0.999999986              -0.000305836               0.000968336               0.999999986              -0.000298944               0.000978507               0.999999986              -0.000288518               0.000990599               0.999999986              -0.000273071               0.001001636               0.999999986              -0.000251724               0.001009810               0.999999986              -0.000223205               0.001013978               0.999999986              -0.000186775               0.001013565               0.999999986              -0.000142412               0.001008527               0.999999986              -0.000091017               0.000999432               0.999999986              -0.000033697               0.000987253               0.999999986               0.000028266               0.000973124               0.999999986               0.000093464               0.000958243               0.999999986               0.000160079               0.000943581               0.999999986              -0.000414649               0.001168138               0.999999986              -0.000303596               0.001109941               0.999999986              -0.000261668               0.001081136               0.999999986              -0.000245433               0.001072652               0.999999986              -0.000238013               0.001076812               0.999999986              -0.000231898               0.001088075               0.999999986              -0.000223439               0.001102734               0.999999986              -0.000211066               0.001118249               0.999999986              -0.000193990               0.001132833               0.999999986              -0.000170923               0.001145149               0.999999986              -0.000140677               0.001154257               0.999999986              -0.000102703               0.001159661               0.999999986              -0.000057169               0.001161291               0.999999986              -0.000004595               0.001159377               0.999999986               0.000054619               0.001154661               0.999999986               0.000119414               0.001148167               0.999999986               0.000188296               0.001141242               0.999999986              -0.000336174               0.001228319               0.999999986              -0.000239953               0.001198019               0.999999986              -0.000200457               0.001180153               0.999999986              -0.000183911               0.001176070               0.999999986              -0.000176079               0.001182412               0.999999986              -0.000170324               0.001195699               0.999999986              -0.000163349               0.001213131               0.999999986              -0.000153515               0.001232798               0.999999986              -0.000140042               0.001253116               0.999999986              -0.000121868               0.001272669               0.999999986              -0.000097703               0.001290561               0.999999986              -0.000066560               0.001305966               0.999999986              -0.000028164               0.001318283               0.999999986               0.000017615               0.001327340               0.999999986               0.000070961               0.001333309               0.999999986               0.000132419               0.001336594               0.999999986               0.000201538               0.001338289               0.999999986              -0.000254849               0.001276181               0.999999986              -0.000178354               0.001271243               0.999999986              -0.000144510               0.001265580               0.999999986              -0.000129311               0.001267618               0.999999986              -0.000121737               0.001277674               0.999999986              -0.000116547               0.001293887               0.999999986              -0.000110728               0.001314474               0.999999986              -0.000103140               0.001337984               0.999999986              -0.000092921               0.001363211               0.999999986              -0.000079327               0.001388990               0.999999986              -0.000061118               0.001414352               0.999999986              -0.000037299               0.001438606               0.999999986              -0.000007247               0.001460891               0.999999986               0.000029487               0.001480676               0.999999986               0.000073794               0.001497572               0.999999986               0.000126956               0.001511564               0.999999986               0.000190006               0.001522961               0.999999986              -0.000171284               0.001311122               0.999999986              -0.000118196               0.001326271               0.999999986              -0.000093326               0.001331674               0.999999986              -0.000081498               0.001339998               0.999999986              -0.000075408               0.001354106               0.999999986              -0.000071372               0.001373604               0.999999986              -0.000067063               0.001397337               0.999999986              -0.000061688               0.001424270               0.999999986              -0.000054614               0.001453539               0.999999986              -0.000045356               0.001484286               0.999999986              -0.000033102               0.001515587               0.999999986              -0.000017086               0.001546776               0.999999986               0.000003569               0.001577109               0.999999986               0.000029417               0.001605939               0.999999986               0.000061269               0.001632588               0.999999986               0.000100661               0.001656344               0.999999986               0.000149646               0.001676932               0.999999986              -0.000086077               0.001332475               0.999999986              -0.000058918               0.001360551               0.999999986              -0.000045712               0.001373586               0.999999986              -0.000039175               0.001386595               0.999999986              -0.000035820               0.001403796               0.999999986              -0.000033539               0.001425736               0.999999986              -0.000031217               0.001451923               0.999999986              -0.000028433               0.001481421               0.999999986              -0.000024738               0.001513565               0.999999986              -0.000019965               0.001547589               0.999999986              -0.000013876               0.001582767               0.999999986              -0.000005880               0.001618530               0.999999986               0.000004734               0.001654204               0.999999986               0.000018311               0.001689089               0.999999986               0.000034843               0.001722482               0.999999986               0.000055814               0.001753520               0.999999986               0.000082983               0.001781141               0.999999986              -0.000000000               0.001339567               0.999999986               0.000000000               0.001372169               0.999999986              -0.000000000               0.001388011               0.999999986              -0.000000000               0.001402669               0.999999986              -0.000000000               0.001421062               0.999999986              -0.000000000               0.001443989               0.999999986               0.000000000               0.001471082               0.999999986              -0.000000000               0.001501542               0.999999986               0.000000000               0.001534684               0.999999986              -0.000000000               0.001569919               0.999999986              -0.000000000               0.001606581               0.999999986               0.000000000               0.001643968               0.999999986              -0.000000000               0.001681477               0.999999986               0.000000000               0.001718448               0.999999986              -0.000000000               0.001754141               0.999999986              -0.000000000               0.001787794               0.999999986              -0.000000000               0.001818096               0.999999986              -0.000923312              -0.000000000               0.999999986              -0.000971966               0.000000000               0.999999986              -0.000992022              -0.000000000               0.999999986              -0.001002823              -0.000000000               0.999999986              -0.001011351               0.000000000               0.999999986              -0.001020083               0.000000000               0.999999986              -0.001029660               0.000000000               0.999999986              -0.001039961               0.000000000               0.999999986              -0.001050957              -0.000000000               0.999999986              -0.001062344               0.000000000               0.999999986              -0.001073627              -0.000000000               0.999999986              -0.001084595              -0.000000000               0.999999986              -0.001094837               0.000000000               0.999999986              -0.001103926               0.000000000               0.999999986              -0.001111309               0.000000000               0.999999986              -0.001116318               0.000000000               0.999999986              -0.001118178               0.000000000               0.999999986              -0.000918018              -0.000128283               0.999999986              -0.000962350              -0.000101032               0.999999986              -0.000979633              -0.000088378               0.999999986              -0.000988647              -0.000082877               0.999999986              -0.000995936              -0.000080893               0.999999986              -0.001003737              -0.000080417               0.999999986              -0.001012480              -0.000080274               0.999999986              -0.001021970              -0.000079833               0.999999986              -0.001031953              -0.000078825               0.999999986              -0.001042086              -0.000076909               0.999999986              -0.001051980              -0.000073725               0.999999986              -0.001061269              -0.000068935               0.999999986              -0.001069539              -0.000061919               0.999999986              -0.001076357              -0.000052255               0.999999986              -0.001081242              -0.000039226               0.999999986              -0.001083681              -0.000021943               0.999999986              -0.001083040               0.000000430               0.999999986              -0.000902264              -0.000255333               0.999999986              -0.000934083              -0.000201704               0.999999986              -0.000943662              -0.000177835               0.999999986              -0.000947908              -0.000168029               0.999999986              -0.000952007              -0.000164949               0.999999986              -0.000957241              -0.000164560               0.999999986              -0.000963550              -0.000164621               0.999999986              -0.000970520              -0.000164121               0.999999986              -0.000977664              -0.000162237               0.999999986              -0.000984418              -0.000158444               0.999999986              -0.000990291              -0.000152091               0.999999986              -0.000994676              -0.000142596               0.999999986              -0.000997139              -0.000129001               0.999999986              -0.000997513              -0.000110570               0.999999986              -0.000995440              -0.000086282               0.999999986              -0.000990746              -0.000055009               0.999999986              -0.000983365              -0.000015382               0.999999986              -0.000876522              -0.000379899               0.999999986              -0.000888767              -0.000301865               0.999999986              -0.000887277              -0.000269273               0.999999986              -0.000885041              -0.000257176               0.999999986              -0.000884896              -0.000254322               0.999999986              -0.000886791              -0.000254787               0.999999986              -0.000889771              -0.000255694               0.999999986              -0.000893043              -0.000255413               0.999999986              -0.000895743              -0.000252949               0.999999986              -0.000897061              -0.000247362               0.999999986              -0.000896322              -0.000237877               0.999999986              -0.000893038              -0.000223832               0.999999986              -0.000886980              -0.000204416               0.999999986              -0.000878034              -0.000178898               0.999999986              -0.000866252              -0.000146589               0.999999986              -0.000852037              -0.000106693               0.999999986              -0.000835979              -0.000058850               0.999999986              -0.000841438              -0.000500792               0.999999986              -0.000828769              -0.000401556               0.999999986              -0.000814895              -0.000363361               0.999999986              -0.000806270              -0.000351081               0.999999986              -0.000802105              -0.000349727               0.999999986              -0.000800602              -0.000351911               0.999999986              -0.000799965              -0.000354060               0.999999986              -0.000798757              -0.000354182               0.999999986              -0.000795732              -0.000351013               0.999999986              -0.000790145              -0.000343598               0.999999986              -0.000781364              -0.000331118               0.999999986              -0.000769205              -0.000312996               0.999999986              -0.000753569              -0.000288716               0.999999986              -0.000734631              -0.000258029               0.999999986              -0.000712926              -0.000221114               0.999999986              -0.000689325              -0.000178381               0.999999986              -0.000664823              -0.000130391               0.999999986              -0.000797687              -0.000616971               0.999999986              -0.000757309              -0.000500845               0.999999986              -0.000732105              -0.000460074               0.999999986              -0.000718478              -0.000449373               0.999999986              -0.000711389              -0.000450299               0.999999986              -0.000706993              -0.000454623               0.999999986              -0.000702599              -0.000458166               0.999999986              -0.000696248              -0.000458589               0.999999986              -0.000686867              -0.000454583               0.999999986              -0.000673721              -0.000445202               0.999999986              -0.000656376              -0.000429922               0.999999986              -0.000634866              -0.000408312               0.999999986              -0.000609391              -0.000380425               0.999999986              -0.000580636              -0.000346736               0.999999986              -0.000549633              -0.000308532               0.999999986              -0.000517278              -0.000266781               0.999999986              -0.000484378              -0.000222376               0.999999986              -0.000746263              -0.000727347               0.999999986              -0.000678029              -0.000599706               0.999999986              -0.000644242              -0.000558982               0.999999986              -0.000628011              -0.000550743               0.999999986              -0.000619419              -0.000554199               0.999999986              -0.000612656              -0.000560522               0.999999986              -0.000604410              -0.000565289               0.999999986              -0.000592767              -0.000565771               0.999999986              -0.000576647              -0.000560669               0.999999986              -0.000555427              -0.000549390               0.999999986              -0.000528994              -0.000531527               0.999999986              -0.000497561              -0.000507389               0.999999986              -0.000461925              -0.000477609               0.999999986              -0.000423232              -0.000443184               0.999999986              -0.000382794              -0.000406057               0.999999986              -0.000341252              -0.000367150               0.999999986              -0.000299135              -0.000327028               0.999999986              -0.000688193              -0.000830822               0.999999986              -0.000594568              -0.000697937               0.999999986              -0.000556092              -0.000659113               0.999999986              -0.000540044              -0.000653326               0.999999986              -0.000531224              -0.000658953               0.999999986              -0.000522513              -0.000666922               0.999999986              -0.000510465              -0.000672461               0.999999986              -0.000493148              -0.000672750               0.999999986              -0.000469608              -0.000666505               0.999999986              -0.000439489              -0.000653537               0.999999986              -0.000402886              -0.000633703               0.999999986              -0.000360764              -0.000607953               0.999999986              -0.000314346              -0.000577495               0.999999986              -0.000265099              -0.000544100               0.999999986              -0.000214092              -0.000509498               0.999999986              -0.000161925              -0.000474069               0.999999986              -0.000109155              -0.000437860               0.999999986              -0.000625298              -0.000925494               0.999999986              -0.000509774              -0.000795441               0.999999986              -0.000472118              -0.000758780               0.999999986              -0.000458155              -0.000754925               0.999999986              -0.000449807              -0.000762338               0.999999986              -0.000439203              -0.000771586               0.999999986              -0.000422860              -0.000777609               0.999999986              -0.000399095              -0.000777536               0.999999986              -0.000367179              -0.000770260               0.999999986              -0.000326802              -0.000755725               0.999999986              -0.000278727              -0.000734524               0.999999986              -0.000224530              -0.000708130               0.999999986              -0.000165949              -0.000678582               0.999999986              -0.000104559              -0.000647678               0.999999986              -0.000041657              -0.000616291               0.999999986               0.000021932              -0.000584817               0.999999986               0.000085603              -0.000553279               0.999999986              -0.000560238              -0.001015081               0.999999986              -0.000438470              -0.000905000               0.999999986              -0.000398681              -0.000865195               0.999999986              -0.000384596              -0.000857128               0.999999986              -0.000377293              -0.000862298               0.999999986              -0.000368952              -0.000871998               0.999999986              -0.000355941              -0.000881302               0.999999986              -0.000336613              -0.000887278               0.999999986              -0.000310227              -0.000888216               0.999999986              -0.000275982              -0.000883342               0.999999986              -0.000233424              -0.000872818               0.999999986              -0.000183622              -0.000857144               0.999999986              -0.000127862              -0.000837767               0.999999986              -0.000067811              -0.000815963               0.999999986              -0.000004855              -0.000793231               0.999999986               0.000059645              -0.000770363               0.999999986               0.000124115              -0.000747802               0.999999986              -0.000489558              -0.001096644               0.999999986              -0.000369744              -0.001010919               0.999999986              -0.000328018              -0.000974321               0.999999986              -0.000312920              -0.000964426               0.999999986              -0.000305836              -0.000968336               0.999999986              -0.000298944              -0.000978507               0.999999986              -0.000288518              -0.000990599               0.999999986              -0.000273071              -0.001001636               0.999999986              -0.000251724              -0.001009810               0.999999986              -0.000223205              -0.001013978               0.999999986              -0.000186775              -0.001013565               0.999999986              -0.000142412              -0.001008527               0.999999986              -0.000091017              -0.000999432               0.999999986              -0.000033697              -0.000987253               0.999999986               0.000028266              -0.000973124               0.999999986               0.000093464              -0.000958243               0.999999986               0.000160079              -0.000943581               0.999999986              -0.000414649              -0.001168138               0.999999986              -0.000303596              -0.001109941               0.999999986              -0.000261668              -0.001081136               0.999999986              -0.000245433              -0.001072652               0.999999986              -0.000238013              -0.001076812               0.999999986              -0.000231898              -0.001088075               0.999999986              -0.000223439              -0.001102734               0.999999986              -0.000211066              -0.001118249               0.999999986              -0.000193990              -0.001132833               0.999999986              -0.000170923              -0.001145149               0.999999986              -0.000140677              -0.001154257               0.999999986              -0.000102703              -0.001159661               0.999999986              -0.000057169              -0.001161291               0.999999986              -0.000004595              -0.001159377               0.999999986               0.000054619              -0.001154661               0.999999986               0.000119414              -0.001148167               0.999999986               0.000188296              -0.001141242               0.999999986              -0.000336174              -0.001228319               0.999999986              -0.000239953              -0.001198019               0.999999986              -0.000200457              -0.001180153               0.999999986              -0.000183911              -0.001176070               0.999999986              -0.000176079              -0.001182412               0.999999986              -0.000170324              -0.001195699               0.999999986              -0.000163349              -0.001213131               0.999999986              -0.000153515              -0.001232798               0.999999986              -0.000140042              -0.001253116               0.999999986              -0.000121868              -0.001272669               0.999999986              -0.000097703              -0.001290561               0.999999986              -0.000066560              -0.001305966               0.999999986              -0.000028164              -0.001318283               0.999999986               0.000017615              -0.001327340               0.999999986               0.000070961              -0.001333309               0.999999986               0.000132419              -0.001336594               0.999999986               0.000201538              -0.001338289               0.999999986              -0.000254849              -0.001276181               0.999999986              -0.000178354              -0.001271243               0.999999986              -0.000144510              -0.001265580               0.999999986              -0.000129311              -0.001267618               0.999999986              -0.000121737              -0.001277674               0.999999986              -0.000116547              -0.001293887               0.999999986              -0.000110728              -0.001314474               0.999999986              -0.000103140              -0.001337984               0.999999986              -0.000092921              -0.001363211               0.999999986              -0.000079327              -0.001388990               0.999999986              -0.000061118              -0.001414352               0.999999986              -0.000037299              -0.001438606               0.999999986              -0.000007247              -0.001460891               0.999999986               0.000029487              -0.001480676               0.999999986               0.000073794              -0.001497572               0.999999986               0.000126956              -0.001511564               0.999999986               0.000190006              -0.001522961               0.999999986              -0.000171284              -0.001311122               0.999999986              -0.000118196              -0.001326271               0.999999986              -0.000093326              -0.001331674               0.999999986              -0.000081498              -0.001339998               0.999999986              -0.000075408              -0.001354106               0.999999986              -0.000071372              -0.001373604               0.999999986              -0.000067063              -0.001397337               0.999999986              -0.000061688              -0.001424270               0.999999986              -0.000054614              -0.001453539               0.999999986              -0.000045356              -0.001484286               0.999999986              -0.000033102              -0.001515587               0.999999986              -0.000017086              -0.001546776               0.999999986               0.000003569              -0.001577109               0.999999986               0.000029417              -0.001605939               0.999999986               0.000061269              -0.001632588               0.999999986               0.000100661              -0.001656344               0.999999986               0.000149646              -0.001676932               0.999999986              -0.000086077              -0.001332475               0.999999986              -0.000058918              -0.001360551               0.999999986              -0.000045712              -0.001373586               0.999999986              -0.000039175              -0.001386595               0.999999986              -0.000035820              -0.001403796               0.999999986              -0.000033539              -0.001425736               0.999999986              -0.000031217              -0.001451923               0.999999986              -0.000028433              -0.001481421               0.999999986              -0.000024738              -0.001513565               0.999999986              -0.000019965              -0.001547589               0.999999986              -0.000013876              -0.001582767               0.999999986              -0.000005880              -0.001618530               0.999999986               0.000004734              -0.001654204               0.999999986               0.000018311              -0.001689089               0.999999986               0.000034843              -0.001722482               0.999999986               0.000055814              -0.001753520               0.999999986               0.000082983              -0.001781141               0.999999986              -0.000000000              -0.001339567               0.999999986               0.000000000              -0.001372169               0.999999986               0.000000000              -0.001388011               0.999999986               0.000000000              -0.001402669               0.999999986              -0.000000000              -0.001421062               0.999999986              -0.000000000              -0.001443989               0.999999986              -0.000000000              -0.001471082               0.999999986              -0.000000000              -0.001501542               0.999999986              -0.000000000              -0.001534684               0.999999986               0.000000000              -0.001569919               0.999999986              -0.000000000              -0.001606581               0.999999986              -0.000000000              -0.001643968               0.999999986               0.000000000              -0.001681477               0.999999986              -0.000000000              -0.001718448               0.999999986               0.000000000              -0.001754141               0.999999986              -0.000000000              -0.001787794               0.999999986               0.000000000              -0.001818096               0.999999986               0.000923312              -0.000000000               0.999999986               0.000971966               0.000000000               0.999999986               0.000992022               0.000000000               0.999999986               0.001002823              -0.000000000               0.999999986               0.001011351               0.000000000               0.999999986               0.001020083              -0.000000000               0.999999986               0.001029660               0.000000000               0.999999986               0.001039961              -0.000000000               0.999999986               0.001050957              -0.000000000               0.999999986               0.001062344               0.000000000               0.999999986               0.001073627               0.000000000               0.999999986               0.001084595               0.000000000               0.999999986               0.001094837              -0.000000000               0.999999986               0.001103926              -0.000000000               0.999999986               0.001111309              -0.000000000               0.999999986               0.001116318              -0.000000000               0.999999986               0.001118178               0.000000000               0.999999986               0.000918018              -0.000128283               0.999999986               0.000962350              -0.000101032               0.999999986               0.000979633              -0.000088378               0.999999986               0.000988647              -0.000082877               0.999999986               0.000995936              -0.000080893               0.999999986               0.001003737              -0.000080417               0.999999986               0.001012480              -0.000080274               0.999999986               0.001021970              -0.000079833               0.999999986               0.001031953              -0.000078825               0.999999986               0.001042086              -0.000076909               0.999999986               0.001051980              -0.000073725               0.999999986               0.001061269              -0.000068935               0.999999986               0.001069539              -0.000061919               0.999999986               0.001076357              -0.000052255               0.999999986               0.001081242              -0.000039226               0.999999986               0.001083681              -0.000021943               0.999999986               0.001083040               0.000000430               0.999999986               0.000902264              -0.000255333               0.999999986               0.000934083              -0.000201704               0.999999986               0.000943662              -0.000177835               0.999999986               0.000947908              -0.000168029               0.999999986               0.000952007              -0.000164949               0.999999986               0.000957241              -0.000164560               0.999999986               0.000963550              -0.000164621               0.999999986               0.000970520              -0.000164121               0.999999986               0.000977664              -0.000162237               0.999999986               0.000984418              -0.000158444               0.999999986               0.000990291              -0.000152091               0.999999986               0.000994676              -0.000142596               0.999999986               0.000997139              -0.000129001               0.999999986               0.000997513              -0.000110570               0.999999986               0.000995440              -0.000086282               0.999999986               0.000990746              -0.000055009               0.999999986               0.000983365              -0.000015382               0.999999986               0.000876522              -0.000379899               0.999999986               0.000888767              -0.000301865               0.999999986               0.000887277              -0.000269273               0.999999986               0.000885041              -0.000257176               0.999999986               0.000884896              -0.000254322               0.999999986               0.000886791              -0.000254787               0.999999986               0.000889771              -0.000255694               0.999999986               0.000893043              -0.000255413               0.999999986               0.000895743              -0.000252949               0.999999986               0.000897061              -0.000247362               0.999999986               0.000896322              -0.000237877               0.999999986               0.000893038              -0.000223832               0.999999986               0.000886980              -0.000204416               0.999999986               0.000878034              -0.000178898               0.999999986               0.000866252              -0.000146589               0.999999986               0.000852037              -0.000106693               0.999999986               0.000835979              -0.000058850               0.999999986               0.000841438              -0.000500792               0.999999986               0.000828769              -0.000401556               0.999999986               0.000814895              -0.000363361               0.999999986               0.000806270              -0.000351081               0.999999986               0.000802105              -0.000349727               0.999999986               0.000800602              -0.000351911               0.999999986               0.000799965              -0.000354060               0.999999986               0.000798757              -0.000354182               0.999999986               0.000795732              -0.000351013               0.999999986               0.000790145              -0.000343598               0.999999986               0.000781364              -0.000331118               0.999999986               0.000769205              -0.000312996               0.999999986               0.000753569              -0.000288716               0.999999986               0.000734631              -0.000258029               0.999999986               0.000712926              -0.000221114               0.999999986               0.000689325              -0.000178381               0.999999986               0.000664823              -0.000130391               0.999999986               0.000797687              -0.000616971               0.999999986               0.000757309              -0.000500845               0.999999986               0.000732105              -0.000460074               0.999999986               0.000718478              -0.000449373               0.999999986               0.000711389              -0.000450299               0.999999986               0.000706993              -0.000454623               0.999999986               0.000702599              -0.000458166               0.999999986               0.000696248              -0.000458589               0.999999986               0.000686867              -0.000454583               0.999999986               0.000673721              -0.000445202               0.999999986               0.000656376              -0.000429922               0.999999986               0.000634866              -0.000408312               0.999999986               0.000609391              -0.000380425               0.999999986               0.000580636              -0.000346736               0.999999986               0.000549633              -0.000308532               0.999999986               0.000517278              -0.000266781               0.999999986               0.000484378              -0.000222376               0.999999986               0.000746263              -0.000727347               0.999999986               0.000678029              -0.000599706               0.999999986               0.000644242              -0.000558982               0.999999986               0.000628011              -0.000550743               0.999999986               0.000619419              -0.000554199               0.999999986               0.000612656              -0.000560522               0.999999986               0.000604410              -0.000565289               0.999999986               0.000592767              -0.000565771               0.999999986               0.000576647              -0.000560669               0.999999986               0.000555427              -0.000549390               0.999999986               0.000528994              -0.000531527               0.999999986               0.000497561              -0.000507389               0.999999986               0.000461925              -0.000477609               0.999999986               0.000423232              -0.000443184               0.999999986               0.000382794              -0.000406057               0.999999986               0.000341252              -0.000367150               0.999999986               0.000299135              -0.000327028               0.999999986               0.000688193              -0.000830822               0.999999986               0.000594568              -0.000697937               0.999999986               0.000556092              -0.000659113               0.999999986               0.000540044              -0.000653326               0.999999986               0.000531224              -0.000658953               0.999999986               0.000522513              -0.000666922               0.999999986               0.000510465              -0.000672461               0.999999986               0.000493148              -0.000672750               0.999999986               0.000469608              -0.000666505               0.999999986               0.000439489              -0.000653537               0.999999986               0.000402886              -0.000633703               0.999999986               0.000360764              -0.000607953               0.999999986               0.000314346              -0.000577495               0.999999986               0.000265099              -0.000544100               0.999999986               0.000214092              -0.000509498               0.999999986               0.000161925              -0.000474069               0.999999986               0.000109155              -0.000437860               0.999999986               0.000625298              -0.000925494               0.999999986               0.000509774              -0.000795441               0.999999986               0.000472118              -0.000758780               0.999999986               0.000458155              -0.000754925               0.999999986               0.000449807              -0.000762338               0.999999986               0.000439203              -0.000771586               0.999999986               0.000422860              -0.000777609               0.999999986               0.000399095              -0.000777536               0.999999986               0.000367179              -0.000770260               0.999999986               0.000326802              -0.000755725               0.999999986               0.000278727              -0.000734524               0.999999986               0.000224530              -0.000708130               0.999999986               0.000165949              -0.000678582               0.999999986               0.000104559              -0.000647678               0.999999986               0.000041657              -0.000616291               0.999999986              -0.000021932              -0.000584817               0.999999986              -0.000085603              -0.000553279               0.999999986               0.000560238              -0.001015081               0.999999986               0.000438470              -0.000905000               0.999999986               0.000398681              -0.000865195               0.999999986               0.000384596              -0.000857128               0.999999986               0.000377293              -0.000862298               0.999999986               0.000368952              -0.000871998               0.999999986               0.000355941              -0.000881302               0.999999986               0.000336613              -0.000887278               0.999999986               0.000310227              -0.000888216               0.999999986               0.000275982              -0.000883342               0.999999986               0.000233424              -0.000872818               0.999999986               0.000183622              -0.000857144               0.999999986               0.000127862              -0.000837767               0.999999986               0.000067811              -0.000815963               0.999999986               0.000004855              -0.000793231               0.999999986              -0.000059645              -0.000770363               0.999999986              -0.000124115              -0.000747802               0.999999986               0.000489558              -0.001096644               0.999999986               0.000369744              -0.001010919               0.999999986               0.000328018              -0.000974321               0.999999986               0.000312920              -0.000964426               0.999999986               0.000305836              -0.000968336               0.999999986               0.000298944              -0.000978507               0.999999986               0.000288518              -0.000990599               0.999999986               0.000273071              -0.001001636               0.999999986               0.000251724              -0.001009810               0.999999986               0.000223205              -0.001013978               0.999999986               0.000186775              -0.001013565               0.999999986               0.000142412              -0.001008527               0.999999986               0.000091017              -0.000999432               0.999999986               0.000033697              -0.000987253               0.999999986              -0.000028266              -0.000973124               0.999999986              -0.000093464              -0.000958243               0.999999986              -0.000160079              -0.000943581               0.999999986               0.000414649              -0.001168138               0.999999986               0.000303596              -0.001109941               0.999999986               0.000261668              -0.001081136               0.999999986               0.000245433              -0.001072652               0.999999986               0.000238013              -0.001076812               0.999999986               0.000231898              -0.001088075               0.999999986               0.000223439              -0.001102734               0.999999986               0.000211066              -0.001118249               0.999999986               0.000193990              -0.001132833               0.999999986               0.000170923              -0.001145149               0.999999986               0.000140677              -0.001154257               0.999999986               0.000102703              -0.001159661               0.999999986               0.000057169              -0.001161291               0.999999986               0.000004595              -0.001159377               0.999999986              -0.000054619              -0.001154661               0.999999986              -0.000119414              -0.001148167               0.999999986              -0.000188296              -0.001141242               0.999999986               0.000336174              -0.001228319               0.999999986               0.000239953              -0.001198019               0.999999986               0.000200457              -0.001180153               0.999999986               0.000183911              -0.001176070               0.999999986               0.000176079              -0.001182412               0.999999986               0.000170324              -0.001195699               0.999999986               0.000163349              -0.001213131               0.999999986               0.000153515              -0.001232798               0.999999986               0.000140042              -0.001253116               0.999999986               0.000121868              -0.001272669               0.999999986               0.000097703              -0.001290561               0.999999986               0.000066560              -0.001305966               0.999999986               0.000028164              -0.001318283               0.999999986              -0.000017615              -0.001327340               0.999999986              -0.000070961              -0.001333309               0.999999986              -0.000132419              -0.001336594               0.999999986              -0.000201538              -0.001338289               0.999999986               0.000254849              -0.001276181               0.999999986               0.000178354              -0.001271243               0.999999986               0.000144510              -0.001265580               0.999999986               0.000129311              -0.001267618               0.999999986               0.000121737              -0.001277674               0.999999986               0.000116547              -0.001293887               0.999999986               0.000110728              -0.001314474               0.999999986               0.000103140              -0.001337984               0.999999986               0.000092921              -0.001363211               0.999999986               0.000079327              -0.001388990               0.999999986               0.000061118              -0.001414352               0.999999986               0.000037299              -0.001438606               0.999999986               0.000007247              -0.001460891               0.999999986              -0.000029487              -0.001480676               0.999999986              -0.000073794              -0.001497572               0.999999986              -0.000126956              -0.001511564               0.999999986              -0.000190006              -0.001522961               0.999999986               0.000171284              -0.001311122               0.999999986               0.000118196              -0.001326271               0.999999986               0.000093326              -0.001331674               0.999999986               0.000081498              -0.001339998               0.999999986               0.000075408              -0.001354106               0.999999986               0.000071372              -0.001373604               0.999999986               0.000067063              -0.001397337               0.999999986               0.000061688              -0.001424270               0.999999986               0.000054614              -0.001453539               0.999999986               0.000045356              -0.001484286               0.999999986               0.000033102              -0.001515587               0.999999986               0.000017086              -0.001546776               0.999999986              -0.000003569              -0.001577109               0.999999986              -0.000029417              -0.001605939               0.999999986              -0.000061269              -0.001632588               0.999999986              -0.000100661              -0.001656344               0.999999986              -0.000149646              -0.001676932               0.999999986               0.000086077              -0.001332475               0.999999986               0.000058918              -0.001360551               0.999999986               0.000045712              -0.001373586               0.999999986               0.000039175              -0.001386595               0.999999986               0.000035820              -0.001403796               0.999999986               0.000033539              -0.001425736               0.999999986               0.000031217              -0.001451923               0.999999986               0.000028433              -0.001481421               0.999999986               0.000024738              -0.001513565               0.999999986               0.000019965              -0.001547589               0.999999986               0.000013876              -0.001582767               0.999999986               0.000005880              -0.001618530               0.999999986              -0.000004734              -0.001654204               0.999999986              -0.000018311              -0.001689089               0.999999986              -0.000034843              -0.001722482               0.999999986              -0.000055814              -0.001753520               0.999999986              -0.000082983              -0.001781141               0.999999986              -0.000000000              -0.001339567               0.999999986               0.000000000              -0.001372169               0.999999986               0.000000000              -0.001388011               0.999999986               0.000000000              -0.001402669               0.999999986              -0.000000000              -0.001421062               0.999999986              -0.000000000              -0.001443989               0.999999986              -0.000000000              -0.001471082               0.999999986              -0.000000000              -0.001501542               0.999999986              -0.000000000              -0.001534684               0.999999986               0.000000000              -0.001569919               0.999999986              -0.000000000              -0.001606581               0.999999986              -0.000000000              -0.001643968               0.999999986               0.000000000              -0.001681477               0.999999986              -0.000000000              -0.001718448               0.999999986               0.000000000              -0.001754141               0.999999986              -0.000000000              -0.001787794               0.999999986               0.000000000              -0.001818096               0.999999986               0.000923312              -0.000000000               0.999999986               0.000971966               0.000000000               0.999999986               0.000992022               0.000000000               0.999999986               0.001002823              -0.000000000               0.999999986               0.001011351               0.000000000               0.999999986               0.001020083              -0.000000000               0.999999986               0.001029660               0.000000000               0.999999986               0.001039961              -0.000000000               0.999999986               0.001050957              -0.000000000               0.999999986               0.001062344               0.000000000               0.999999986               0.001073627               0.000000000               0.999999986               0.001084595               0.000000000               0.999999986               0.001094837              -0.000000000               0.999999986               0.001103926              -0.000000000               0.999999986               0.001111309              -0.000000000               0.999999986               0.001116318              -0.000000000               0.999999986               0.001118178               0.000000000               0.999999986               0.000918018               0.000128283               0.999999986               0.000962350               0.000101032               0.999999986               0.000979633               0.000088378               0.999999986               0.000988647               0.000082877               0.999999986               0.000995936               0.000080893               0.999999986               0.001003737               0.000080417               0.999999986               0.001012480               0.000080274               0.999999986               0.001021970               0.000079833               0.999999986               0.001031953               0.000078825               0.999999986               0.001042086               0.000076909               0.999999986               0.001051980               0.000073725               0.999999986               0.001061269               0.000068935               0.999999986               0.001069539               0.000061919               0.999999986               0.001076357               0.000052255               0.999999986               0.001081242               0.000039226               0.999999986               0.001083681               0.000021943               0.999999986               0.001083040              -0.000000430               0.999999986               0.000902264               0.000255333               0.999999986               0.000934083               0.000201704               0.999999986               0.000943662               0.000177835               0.999999986               0.000947908               0.000168029               0.999999986               0.000952007               0.000164949               0.999999986               0.000957241               0.000164560               0.999999986               0.000963550               0.000164621               0.999999986               0.000970520               0.000164121               0.999999986               0.000977664               0.000162237               0.999999986               0.000984418               0.000158444               0.999999986               0.000990291               0.000152091               0.999999986               0.000994676               0.000142596               0.999999986               0.000997139               0.000129001               0.999999986               0.000997513               0.000110570               0.999999986               0.000995440               0.000086282               0.999999986               0.000990746               0.000055009               0.999999986               0.000983365               0.000015382               0.999999986               0.000876522               0.000379899               0.999999986               0.000888767               0.000301865               0.999999986               0.000887277               0.000269273               0.999999986               0.000885041               0.000257176               0.999999986               0.000884896               0.000254322               0.999999986               0.000886791               0.000254787               0.999999986               0.000889771               0.000255694               0.999999986               0.000893043               0.000255413               0.999999986               0.000895743               0.000252949               0.999999986               0.000897061               0.000247362               0.999999986               0.000896322               0.000237877               0.999999986               0.000893038               0.000223832               0.999999986               0.000886980               0.000204416               0.999999986               0.000878034               0.000178898               0.999999986               0.000866252               0.000146589               0.999999986               0.000852037               0.000106693               0.999999986               0.000835979               0.000058850               0.999999986               0.000841438               0.000500792               0.999999986               0.000828769               0.000401556               0.999999986               0.000814895               0.000363361               0.999999986               0.000806270               0.000351081               0.999999986               0.000802105               0.000349727               0.999999986               0.000800602               0.000351911               0.999999986               0.000799965               0.000354060               0.999999986               0.000798757               0.000354182               0.999999986               0.000795732               0.000351013               0.999999986               0.000790145               0.000343598               0.999999986               0.000781364               0.000331118               0.999999986               0.000769205               0.000312996               0.999999986               0.000753569               0.000288716               0.999999986               0.000734631               0.000258029               0.999999986               0.000712926               0.000221114               0.999999986               0.000689325               0.000178381               0.999999986               0.000664823               0.000130391               0.999999986               0.000797687               0.000616971               0.999999986               0.000757309               0.000500845               0.999999986               0.000732105               0.000460074               0.999999986               0.000718478               0.000449373               0.999999986               0.000711389               0.000450299               0.999999986               0.000706993               0.000454623               0.999999986               0.000702599               0.000458166               0.999999986               0.000696248               0.000458589               0.999999986               0.000686867               0.000454583               0.999999986               0.000673721               0.000445202               0.999999986               0.000656376               0.000429922               0.999999986               0.000634866               0.000408312               0.999999986               0.000609391               0.000380425               0.999999986               0.000580636               0.000346736               0.999999986               0.000549633               0.000308532               0.999999986               0.000517278               0.000266781               0.999999986               0.000484378               0.000222376               0.999999986               0.000746263               0.000727347               0.999999986               0.000678029               0.000599706               0.999999986               0.000644242               0.000558982               0.999999986               0.000628011               0.000550743               0.999999986               0.000619419               0.000554199               0.999999986               0.000612656               0.000560522               0.999999986               0.000604410               0.000565289               0.999999986               0.000592767               0.000565771               0.999999986               0.000576647               0.000560669               0.999999986               0.000555427               0.000549390               0.999999986               0.000528994               0.000531527               0.999999986               0.000497561               0.000507389               0.999999986               0.000461925               0.000477609               0.999999986               0.000423232               0.000443184               0.999999986               0.000382794               0.000406057               0.999999986               0.000341252               0.000367150               0.999999986               0.000299135               0.000327028               0.999999986               0.000688193               0.000830822               0.999999986               0.000594568               0.000697937               0.999999986               0.000556092               0.000659113               0.999999986               0.000540044               0.000653326               0.999999986               0.000531224               0.000658953               0.999999986               0.000522513               0.000666922               0.999999986               0.000510465               0.000672461               0.999999986               0.000493148               0.000672750               0.999999986               0.000469608               0.000666505               0.999999986               0.000439489               0.000653537               0.999999986               0.000402886               0.000633703               0.999999986               0.000360764               0.000607953               0.999999986               0.000314346               0.000577495               0.999999986               0.000265099               0.000544100               0.999999986               0.000214092               0.000509498               0.999999986               0.000161925               0.000474069               0.999999986               0.000109155               0.000437860               0.999999986               0.000625298               0.000925494               0.999999986               0.000509774               0.000795441               0.999999986               0.000472118               0.000758780               0.999999986               0.000458155               0.000754925               0.999999986               0.000449807               0.000762338               0.999999986               0.000439203               0.000771586               0.999999986               0.000422860               0.000777609               0.999999986               0.000399095               0.000777536               0.999999986               0.000367179               0.000770260               0.999999986               0.000326802               0.000755725               0.999999986               0.000278727               0.000734524               0.999999986               0.000224530               0.000708130               0.999999986               0.000165949               0.000678582               0.999999986               0.000104559               0.000647678               0.999999986               0.000041657               0.000616291               0.999999986              -0.000021932               0.000584817               0.999999986              -0.000085603               0.000553279               0.999999986               0.000560238               0.001015081               0.999999986               0.000438470               0.000905000               0.999999986               0.000398681               0.000865195               0.999999986               0.000384596               0.000857128               0.999999986               0.000377293               0.000862298               0.999999986               0.000368952               0.000871998               0.999999986               0.000355941               0.000881302               0.999999986               0.000336613               0.000887278               0.999999986               0.000310227               0.000888216               0.999999986               0.000275982               0.000883342               0.999999986               0.000233424               0.000872818               0.999999986               0.000183622               0.000857144               0.999999986               0.000127862               0.000837767               0.999999986               0.000067811               0.000815963               0.999999986               0.000004855               0.000793231               0.999999986              -0.000059645               0.000770363               0.999999986              -0.000124115               0.000747802               0.999999986               0.000489558               0.001096644               0.999999986               0.000369744               0.001010919               0.999999986               0.000328018               0.000974321               0.999999986               0.000312920               0.000964426               0.999999986               0.000305836               0.000968336               0.999999986               0.000298944               0.000978507               0.999999986               0.000288518               0.000990599               0.999999986               0.000273071               0.001001636               0.999999986               0.000251724               0.001009810               0.999999986               0.000223205               0.001013978               0.999999986               0.000186775               0.001013565               0.999999986               0.000142412               0.001008527               0.999999986               0.000091017               0.000999432               0.999999986               0.000033697               0.000987253               0.999999986              -0.000028266               0.000973124               0.999999986              -0.000093464               0.000958243               0.999999986              -0.000160079               0.000943581               0.999999986               0.000414649               0.001168138               0.999999986               0.000303596               0.001109941               0.999999986               0.000261668               0.001081136               0.999999986               0.000245433               0.001072652               0.999999986               0.000238013               0.001076812               0.999999986               0.000231898               0.001088075               0.999999986               0.000223439               0.001102734               0.999999986               0.000211066               0.001118249               0.999999986               0.000193990               0.001132833               0.999999986               0.000170923               0.001145149               0.999999986               0.000140677               0.001154257               0.999999986               0.000102703               0.001159661               0.999999986               0.000057169               0.001161291               0.999999986               0.000004595               0.001159377               0.999999986              -0.000054619               0.001154661               0.999999986              -0.000119414               0.001148167               0.999999986              -0.000188296               0.001141242               0.999999986               0.000336174               0.001228319               0.999999986               0.000239953               0.001198019               0.999999986               0.000200457               0.001180153               0.999999986               0.000183911               0.001176070               0.999999986               0.000176079               0.001182412               0.999999986               0.000170324               0.001195699               0.999999986               0.000163349               0.001213131               0.999999986               0.000153515               0.001232798               0.999999986               0.000140042               0.001253116               0.999999986               0.000121868               0.001272669               0.999999986               0.000097703               0.001290561               0.999999986               0.000066560               0.001305966               0.999999986               0.000028164               0.001318283               0.999999986              -0.000017615               0.001327340               0.999999986              -0.000070961               0.001333309               0.999999986              -0.000132419               0.001336594               0.999999986              -0.000201538               0.001338289               0.999999986               0.000254849               0.001276181               0.999999986               0.000178354               0.001271243               0.999999986               0.000144510               0.001265580               0.999999986               0.000129311               0.001267618               0.999999986               0.000121737               0.001277674               0.999999986               0.000116547               0.001293887               0.999999986               0.000110728               0.001314474               0.999999986               0.000103140               0.001337984               0.999999986               0.000092921               0.001363211               0.999999986               0.000079327               0.001388990               0.999999986               0.000061118               0.001414352               0.999999986               0.000037299               0.001438606               0.999999986               0.000007247               0.001460891               0.999999986              -0.000029487               0.001480676               0.999999986              -0.000073794               0.001497572               0.999999986              -0.000126956               0.001511564               0.999999986              -0.000190006               0.001522961               0.999999986               0.000171284               0.001311122               0.999999986               0.000118196               0.001326271               0.999999986               0.000093326               0.001331674               0.999999986               0.000081498               0.001339998               0.999999986               0.000075408               0.001354106               0.999999986               0.000071372               0.001373604               0.999999986               0.000067063               0.001397337               0.999999986               0.000061688               0.001424270               0.999999986               0.000054614               0.001453539               0.999999986               0.000045356               0.001484286               0.999999986               0.000033102               0.001515587               0.999999986               0.000017086               0.001546776               0.999999986              -0.000003569               0.001577109               0.999999986              -0.000029417               0.001605939               0.999999986              -0.000061269               0.001632588               0.999999986              -0.000100661               0.001656344               0.999999986              -0.000149646               0.001676932               0.999999986               0.000086077               0.001332475               0.999999986               0.000058918               0.001360551               0.999999986               0.000045712               0.001373586               0.999999986               0.000039175               0.001386595               0.999999986               0.000035820               0.001403796               0.999999986               0.000033539               0.001425736               0.999999986               0.000031217               0.001451923               0.999999986               0.000028433               0.001481421               0.999999986               0.000024738               0.001513565               0.999999986               0.000019965               0.001547589               0.999999986               0.000013876               0.001582767               0.999999986               0.000005880               0.001618530               0.999999986              -0.000004734               0.001654204               0.999999986              -0.000018311               0.001689089               0.999999986              -0.000034843               0.001722482               0.999999986              -0.000055814               0.001753520               0.999999986              -0.000082983               0.001781141               0.999999986              -0.000000000               0.001339567               0.999999986               0.000000000               0.001372169               0.999999986              -0.000000000               0.001388011               0.999999986              -0.000000000               0.001402669               0.999999986              -0.000000000               0.001421062               0.999999986              -0.000000000               0.001443989               0.999999986               0.000000000               0.001471082               0.999999986              -0.000000000               0.001501542               0.999999986               0.000000000               0.001534684               0.999999986              -0.000000000               0.001569919               0.999999986              -0.000000000               0.001606581               0.999999986               0.000000000               0.001643968               0.999999986              -0.000000000               0.001681477               0.999999986               0.000000000               0.001718448               0.999999986              -0.000000000               0.001754141               0.999999986              -0.000000000               0.001787794               0.999999986              -0.000000000               0.001818096               0.999999986 </DataArray>
<DataArray type="Float64"                                    Name="stress"                                                      NumberOfComponents="10" format="ascii">
              0.002215888               0.023243517               0.000000000              -0.002074477               0.008439254               0.006364777               0.000000000               0.000000000               0.000000000               0.000000000               0.002103947               0.017751447               0.000000000              -0.001429947               0.006393739               0.004963792               0.000000000               0.000000000               0.000000000               0.000000000               0.002681252               0.013295091              -0.000000000              -0.000656415               0.004650458               0.003994043               0.000000000               0.000000000               0.000000000               0.000000000               0.002461016               0.010782407              -0.000000000              -0.000424919               0.003735739               0.003310820               0.000000000               0.000000000               0.000000000               0.000000000               0.002029286               0.009186723              -0.000000000              -0.000387357               0.003191329               0.002803972               0.000000000               0.000000000               0.000000000               0.000000000               0.001585620               0.008054430              -0.000000000              -0.000412195               0.002822182               0.002409986               0.000000000               0.000000000               0.000000000               0.000000000               0.001201082               0.007169567              -0.000000000              -0.000445789               0.002538428               0.002092639               0.000000000               0.000000000               0.000000000               0.000000000               0.000875597               0.006420741              -0.000000000              -0.000474243               0.002298307               0.001824064               0.000000000               0.000000000               0.000000000               0.000000000               0.000600679               0.005752538              -0.000000000              -0.000493812               0.002082097               0.001588286               0.000000000               0.000000000               0.000000000               0.000000000               0.000386082               0.005132127              -0.000000000              -0.000496734               0.001876270               0.001379536               0.000000000               0.000000000               0.000000000               0.000000000               0.000217716               0.004527590              -0.000000000              -0.000484304               0.001670616               0.001186312               0.000000000               0.000000000               0.000000000               0.000000000               0.000084656               0.003913174               0.000000000              -0.000457400               0.001456845               0.000999445               0.000000000               0.000000000               0.000000000               0.000000000              -0.000011523               0.003264730               0.000000000              -0.000412412               0.001225703               0.000813291               0.000000000               0.000000000               0.000000000               0.000000000              -0.000069388               0.002565584               0.000000000              -0.000346718               0.000970759               0.000624041               0.000000000               0.000000000               0.000000000               0.000000000              -0.000084936               0.001794585              -0.000000000              -0.000256174               0.000683580               0.000427406               0.000000000               0.000000000               0.000000000               0.000000000              -0.000053998               0.000928344              -0.000000000              -0.000136292               0.000354876               0.000218583               0.000000000               0.000000000               0.000000000               0.000000000              -0.000095028               0.000272993               0.000000000              -0.000069760               0.000114250               0.000044490               0.000000000               0.000000000               0.000000000               0.000000000               0.002267298               0.022727262              -0.001504290              -0.001990666               0.008239234               0.006248567               0.000000000               0.000000000               0.000000000               0.000000000               0.002026130               0.017427381              -0.000642255              -0.001418620               0.006281942               0.004863322               0.000000000               0.000000000               0.000000000               0.000000000               0.002465768               0.013174695               0.000203194              -0.000722172               0.004632245               0.003910073               0.000000000               0.000000000               0.000000000               0.000000000               0.002195052               0.010767911               0.000542489              -0.000522843               0.003763549               0.003240706               0.000000000               0.000000000               0.000000000               0.000000000               0.001755410               0.009226219               0.000664113              -0.000494998               0.003240375               0.002745377               0.000000000               0.000000000               0.000000000               0.000000000               0.001323382               0.008118914               0.000688599              -0.000518595               0.002879143               0.002360547               0.000000000               0.000000000               0.000000000               0.000000000               0.000957815               0.007245315               0.000672541              -0.000546483               0.002597242               0.002050759               0.000000000               0.000000000               0.000000000               0.000000000               0.000659679               0.006505935               0.000642654              -0.000565861               0.002357244               0.001791382               0.000000000               0.000000000               0.000000000               0.000000000               0.000417738               0.005842080               0.000610023              -0.000573607               0.002138543               0.001564936               0.000000000               0.000000000               0.000000000               0.000000000               0.000230835               0.005221365               0.000575394              -0.000566106               0.001929140               0.001363033               0.000000000               0.000000000               0.000000000               0.000000000               0.000090855               0.004617368               0.000538010              -0.000543099               0.001720140               0.001177041               0.000000000               0.000000000               0.000000000               0.000000000              -0.000009545               0.004008958               0.000494158              -0.000504698               0.001504539               0.000999841               0.000000000               0.000000000               0.000000000               0.000000000              -0.000076200               0.003374872               0.000441177              -0.000450433               0.001275090               0.000824657               0.000000000               0.000000000               0.000000000               0.000000000              -0.000108701               0.002701413               0.000374128              -0.000378439               0.001026608               0.000648169               0.000000000               0.000000000               0.000000000               0.000000000              -0.000104953               0.001974375               0.000282061              -0.000286154               0.000753503               0.000467349               0.000000000               0.000000000               0.000000000               0.000000000              -0.000062547               0.001179336               0.000158070              -0.000170872               0.000450065               0.000279193               0.000000000               0.000000000               0.000000000               0.000000000              -0.000093462               0.000588112               0.000099576              -0.000108562               0.000232223               0.000123660               0.000000000               0.000000000               0.000000000               0.000000000               0.002376774               0.021252148              -0.002775452              -0.001765225               0.007672387               0.005907162               0.000000000               0.000000000               0.000000000               0.000000000               0.001783255               0.016512935              -0.001180371              -0.001395393               0.005969388               0.004573994               0.000000000               0.000000000               0.000000000               0.000000000               0.001846529               0.012834920               0.000367641              -0.000911915               0.004582235               0.003670321               0.000000000               0.000000000               0.000000000               0.000000000               0.001448411               0.010717412               0.000964388              -0.000796521               0.003837942               0.003041421               0.000000000               0.000000000               0.000000000               0.000000000               0.001001354               0.009317851               0.001166386              -0.000789222               0.003368993               0.002579771               0.000000000               0.000000000               0.000000000               0.000000000               0.000617767               0.008277503               0.001198615              -0.000803024               0.003026814               0.002223791               0.000000000               0.000000000               0.000000000               0.000000000               0.000319100               0.007438787               0.001165623              -0.000810184               0.002749632               0.001939448               0.000000000               0.000000000               0.000000000               0.000000000               0.000095179               0.006717955               0.001110313              -0.000804051               0.002507313               0.001703262               0.000000000               0.000000000               0.000000000               0.000000000              -0.000064148               0.006065212               0.001048938              -0.000782206               0.002282452               0.001500247               0.000000000               0.000000000               0.000000000               0.000000000              -0.000169272               0.005448702               0.000986391              -0.000744563               0.002064403               0.001319840               0.000000000               0.000000000               0.000000000               0.000000000              -0.000225268               0.004850709               0.000921994              -0.000690813               0.001847157               0.001156345               0.000000000               0.000000000               0.000000000               0.000000000              -0.000239139               0.004260040               0.000846983              -0.000622181               0.001627393               0.001005212               0.000000000               0.000000000               0.000000000               0.000000000              -0.000230004               0.003666072               0.000753612              -0.000544509               0.001403515               0.000859005               0.000000000               0.000000000               0.000000000               0.000000000              -0.000199781               0.003065074               0.000635314              -0.000458051               0.001174365               0.000716314               0.000000000               0.000000000               0.000000000               0.000000000              -0.000146814               0.002460165               0.000477632              -0.000362575               0.000940905               0.000578330               0.000000000               0.000000000               0.000000000               0.000000000              -0.000078749               0.001854780               0.000267523              -0.000261378               0.000705380               0.000444002               0.000000000               0.000000000               0.000000000               0.000000000              -0.000083294               0.001439355               0.000162906              -0.000211154               0.000550165               0.000339011               0.000000000               0.000000000               0.000000000               0.000000000               0.002436700               0.019025468              -0.003632985              -0.001464419               0.006829898               0.005365479               0.000000000               0.000000000               0.000000000               0.000000000               0.001356595               0.015158402              -0.001540073              -0.001386074               0.005514775               0.004128700               0.000000000               0.000000000               0.000000000               0.000000000               0.000903419               0.012333450               0.000460132              -0.001202896               0.004512074               0.003309178               0.000000000               0.000000000               0.000000000               0.000000000               0.000370186               0.010617063               0.001182288              -0.001188310               0.003935089               0.002746778               0.000000000               0.000000000               0.000000000               0.000000000              -0.000052700               0.009405168               0.001403822              -0.001195406               0.003533493               0.002338087               0.000000000               0.000000000               0.000000000               0.000000000              -0.000342373               0.008457012               0.001423813              -0.001185514               0.003214147               0.002028633               0.000000000               0.000000000               0.000000000               0.000000000              -0.000521808               0.007665851               0.001371164              -0.001153907               0.002939894               0.001785987               0.000000000               0.000000000               0.000000000               0.000000000              -0.000621627               0.006966474               0.001297777              -0.001103917               0.002690107               0.001586190               0.000000000               0.000000000               0.000000000               0.000000000              -0.000655274               0.006325358               0.001220846              -0.001036395               0.002453897               0.001417501               0.000000000               0.000000000               0.000000000               0.000000000              -0.000635284               0.005720301               0.001141385              -0.000953267               0.002224503               0.001271236               0.000000000               0.000000000               0.000000000               0.000000000              -0.000574472               0.005139795               0.001058184              -0.000857900               0.001999214               0.001141314               0.000000000               0.000000000               0.000000000               0.000000000              -0.000486933               0.004579652               0.000961224              -0.000755055               0.001778220               0.001023165               0.000000000               0.000000000               0.000000000               0.000000000              -0.000384992               0.004044786               0.000841652              -0.000649969               0.001564905               0.000914936               0.000000000               0.000000000               0.000000000               0.000000000              -0.000276021               0.003545458               0.000695182              -0.000546689               0.001364037               0.000817348               0.000000000               0.000000000               0.000000000               0.000000000              -0.000171437               0.003100320               0.000510024              -0.000451828               0.001184039               0.000732211               0.000000000               0.000000000               0.000000000               0.000000000              -0.000082496               0.002732700               0.000278866              -0.000372523               0.001035065               0.000662542               0.000000000               0.000000000               0.000000000               0.000000000              -0.000057410               0.002530174               0.000159661              -0.000337800               0.000955983               0.000618183               0.000000000               0.000000000               0.000000000               0.000000000               0.002310798               0.016333201              -0.003990554              -0.001175101               0.005836046               0.004660945               0.000000000               0.000000000               0.000000000               0.000000000               0.000736957               0.013548735              -0.001705084              -0.001417230               0.004988610               0.003571379               0.000000000               0.000000000               0.000000000               0.000000000              -0.000244104               0.011723792               0.000440907              -0.001557009               0.004426895               0.002869885               0.000000000               0.000000000               0.000000000               0.000000000              -0.000851873               0.010438833               0.001154457              -0.001624303               0.004021010               0.002396707               0.000000000               0.000000000               0.000000000               0.000000000              -0.001180861               0.009421102               0.001348417              -0.001620457               0.003680488               0.002060031               0.000000000               0.000000000               0.000000000               0.000000000              -0.001324367               0.008570067               0.001348497              -0.001567892               0.003379291               0.001811399               0.000000000               0.000000000               0.000000000               0.000000000              -0.001344171               0.007827216               0.001284426              -0.001482463               0.003103200               0.001620737               0.000000000               0.000000000               0.000000000               0.000000000              -0.001283841               0.007152349               0.001205901              -0.001375481               0.002842586               0.001467105               0.000000000               0.000000000               0.000000000               0.000000000              -0.001169829               0.006524078               0.001124541              -0.001254193               0.002592735               0.001338542               0.000000000               0.000000000               0.000000000               0.000000000              -0.001016919               0.005935045               0.001037807              -0.001123223               0.002352736               0.001229513               0.000000000               0.000000000               0.000000000               0.000000000              -0.000841359               0.005383671               0.000941666              -0.000988466               0.002124028               0.001135561               0.000000000               0.000000000               0.000000000               0.000000000              -0.000658349               0.004870783               0.000830828              -0.000855727               0.001908820               0.001053093               0.000000000               0.000000000               0.000000000               0.000000000              -0.000475113               0.004410712               0.000701686              -0.000729505               0.001713391               0.000983886               0.000000000               0.000000000               0.000000000               0.000000000              -0.000307711               0.004022409               0.000555532              -0.000618191               0.001546853               0.000928662               0.000000000               0.000000000               0.000000000               0.000000000              -0.000170261               0.003732018               0.000389712              -0.000530349               0.001420777               0.000890428               0.000000000               0.000000000               0.000000000               0.000000000              -0.000073529               0.003557591               0.000202725              -0.000472271               0.001343276               0.000871005               0.000000000               0.000000000               0.000000000               0.000000000              -0.000034037               0.003501675               0.000104233              -0.000450472               0.001317371               0.000866899               0.000000000               0.000000000               0.000000000               0.000000000               0.001871324               0.013456589              -0.003872253              -0.000980328               0.004812260               0.003831932               0.000000000               0.000000000               0.000000000               0.000000000              -0.000070618               0.011853036              -0.001713576              -0.001508109               0.004453675               0.002945566               0.000000000               0.000000000               0.000000000               0.000000000              -0.001454974               0.011048888               0.000284021              -0.001926722               0.004325166               0.002398445               0.000000000               0.000000000               0.000000000               0.000000000              -0.002023628               0.010160378               0.000894410              -0.002028903               0.004063060               0.002034157               0.000000000               0.000000000               0.000000000               0.000000000              -0.002185624               0.009313111               0.001044419              -0.001983743               0.003765587               0.001781844               0.000000000               0.000000000               0.000000000               0.000000000              -0.002137767               0.008546373               0.001037767              -0.001869955               0.003472081               0.001602126               0.000000000               0.000000000               0.000000000               0.000000000              -0.001973487               0.007851155               0.000978867              -0.001721448               0.003190841               0.001469393               0.000000000               0.000000000               0.000000000               0.000000000              -0.001749458               0.007203737               0.000906474              -0.001556510               0.002920058               0.001363548               0.000000000               0.000000000               0.000000000               0.000000000              -0.001496200               0.006597349               0.000829737              -0.001385740               0.002661008               0.001275267               0.000000000               0.000000000               0.000000000               0.000000000              -0.001224535               0.006037565               0.000747231              -0.001213893               0.002417133               0.001203239               0.000000000               0.000000000               0.000000000               0.000000000              -0.000951980               0.005528620               0.000655075              -0.001048067               0.002192211               0.001144143               0.000000000               0.000000000               0.000000000               0.000000000              -0.000693825               0.005082409               0.000551863              -0.000895483               0.001992614               0.001097130               0.000000000               0.000000000               0.000000000               0.000000000              -0.000463261               0.004713909               0.000438613              -0.000762960               0.001825607               0.001062648               0.000000000               0.000000000               0.000000000               0.000000000              -0.000282690               0.004434749               0.000326338              -0.000660351               0.001698352               0.001038001               0.000000000               0.000000000               0.000000000               0.000000000              -0.000149022               0.004262571               0.000215852              -0.000588703               0.001617077               0.001028374               0.000000000               0.000000000               0.000000000               0.000000000              -0.000058754               0.004192083               0.000103432              -0.000546042               0.001579361               0.001033319               0.000000000               0.000000000               0.000000000               0.000000000              -0.000021442               0.004188887               0.000045626              -0.000531650               0.001573499               0.001041848               0.000000000               0.000000000               0.000000000               0.000000000               0.001057109               0.010637806              -0.003371789              -0.000933310               0.003857002               0.002923692               0.000000000               0.000000000               0.000000000               0.000000000              -0.001023408               0.010211205              -0.001620789              -0.001660175               0.003957092               0.002296917               0.000000000               0.000000000               0.000000000               0.000000000              -0.002602462               0.010337928              -0.000008517              -0.002268159               0.004201994               0.001933836               0.000000000               0.000000000               0.000000000               0.000000000              -0.002999992               0.009771266               0.000456173              -0.002346400               0.004039189               0.001692790               0.000000000               0.000000000               0.000000000               0.000000000              -0.002930260               0.009064591               0.000576826              -0.002231916               0.003765472               0.001533556               0.000000000               0.000000000               0.000000000               0.000000000              -0.002667587               0.008373189               0.000586585              -0.002046989               0.003473364               0.001426376               0.000000000               0.000000000               0.000000000               0.000000000              -0.002325459               0.007722016               0.000550700              -0.001837294               0.003186411               0.001349117               0.000000000               0.000000000               0.000000000               0.000000000              -0.001955579               0.007109282               0.000496443              -0.001621998               0.002910403               0.001288405               0.000000000               0.000000000               0.000000000               0.000000000              -0.001582064               0.006540937               0.000440199              -0.001410888               0.002650586               0.001239699               0.000000000               0.000000000               0.000000000               0.000000000              -0.001216697               0.006029444               0.000378934              -0.001209939               0.002413108               0.001203169               0.000000000               0.000000000               0.000000000               0.000000000              -0.000878240               0.005579559               0.000313603              -0.001026782               0.002202095               0.001175313               0.000000000               0.000000000               0.000000000               0.000000000              -0.000582584               0.005208741               0.000245129              -0.000869559               0.002026083               0.001156523               0.000000000               0.000000000               0.000000000               0.000000000              -0.000349953               0.004926280               0.000173891              -0.000747015               0.001891082               0.001144067               0.000000000               0.000000000               0.000000000               0.000000000              -0.000193410               0.004737512               0.000116290              -0.000664716               0.001800727               0.001136011               0.000000000               0.000000000               0.000000000               0.000000000              -0.000094286               0.004636453               0.000073289              -0.000614912               0.001750440               0.001135527               0.000000000               0.000000000               0.000000000               0.000000000              -0.000034039               0.004599565               0.000032110              -0.000587709               0.001729076               0.001141367               0.000000000               0.000000000               0.000000000               0.000000000              -0.000017656               0.004593688               0.000013354              -0.000580831               0.001724824               0.001143994               0.000000000               0.000000000               0.000000000               0.000000000              -0.000090553               0.008055465              -0.002603533              -0.001040890               0.003032091               0.001991201               0.000000000               0.000000000               0.000000000               0.000000000              -0.002063783               0.008720379              -0.001481541              -0.001863962               0.003528084               0.001664122               0.000000000               0.000000000               0.000000000               0.000000000              -0.003576266               0.009589745              -0.000419475              -0.002539812               0.004043154               0.001503342               0.000000000               0.000000000               0.000000000               0.000000000              -0.003694394               0.009270397              -0.000084519              -0.002544191               0.003938165               0.001393974               0.000000000               0.000000000               0.000000000               0.000000000              -0.003365634               0.008691859               0.000042445              -0.002348589               0.003680120               0.001331531               0.000000000               0.000000000               0.000000000               0.000000000              -0.002898781               0.008078648               0.000090859              -0.002096869               0.003391812               0.001294943               0.000000000               0.000000000               0.000000000               0.000000000              -0.002403577               0.007477726               0.000095942              -0.001836053               0.003104568               0.001268515               0.000000000               0.000000000               0.000000000               0.000000000              -0.001914254               0.006911732               0.000078284              -0.001581808               0.002831157               0.001249349               0.000000000               0.000000000               0.000000000               0.000000000              -0.001446854               0.006396929               0.000057780              -0.001342183               0.002579683               0.001237499               0.000000000               0.000000000               0.000000000               0.000000000              -0.001018121               0.005942059               0.000036412              -0.001124550               0.002355517               0.001230967               0.000000000               0.000000000               0.000000000               0.000000000              -0.000656248               0.005556659               0.000014641              -0.000940673               0.002165759               0.001225086               0.000000000               0.000000000               0.000000000               0.000000000              -0.000377459               0.005254161              -0.000002806              -0.000798315               0.002017475               0.001219159               0.000000000               0.000000000               0.000000000               0.000000000              -0.000186119               0.005045741              -0.000013335              -0.000700510               0.001915400               0.001214890               0.000000000               0.000000000               0.000000000               0.000000000              -0.000077201               0.004924369              -0.000007391              -0.000644495               0.001856271               0.001211777               0.000000000               0.000000000               0.000000000               0.000000000              -0.000023917               0.004860467               0.000006530              -0.000616526               0.001825648               0.001209123               0.000000000               0.000000000               0.000000000               0.000000000              -0.000004850               0.004832930               0.000009134              -0.000605934               0.001812938               0.001207005               0.000000000               0.000000000               0.000000000               0.000000000              -0.000009502               0.004825026               0.000008819              -0.000606690               0.001810556               0.001203866               0.000000000               0.000000000               0.000000000               0.000000000              -0.001426684               0.005893335              -0.001690613              -0.001271671               0.002388315               0.001116644               0.000000000               0.000000000               0.000000000               0.000000000              -0.003080570               0.007387175              -0.001337266              -0.002078606               0.003155235               0.001076630               0.000000000               0.000000000               0.000000000               0.000000000              -0.004341650               0.008825713              -0.000909123              -0.002731326               0.003852317               0.001120991               0.000000000               0.000000000               0.000000000               0.000000000              -0.004162958               0.008772502              -0.000653133              -0.002657665               0.003810026               0.001152361               0.000000000               0.000000000               0.000000000               0.000000000              -0.003624231               0.008351318              -0.000490782              -0.002402996               0.003584743               0.001181748               0.000000000               0.000000000               0.000000000               0.000000000              -0.003002857               0.007837768              -0.000386361              -0.002105787               0.003314492               0.001208705               0.000000000               0.000000000               0.000000000               0.000000000              -0.002395432               0.007303449              -0.000326166              -0.001811214               0.003038197               0.001226983               0.000000000               0.000000000               0.000000000               0.000000000              -0.001819423               0.006792554              -0.000296284              -0.001531349               0.002774612               0.001243263               0.000000000               0.000000000               0.000000000               0.000000000              -0.001277877               0.006330557              -0.000275083              -0.001270520               0.002533671               0.001263151               0.000000000               0.000000000               0.000000000               0.000000000              -0.000800371               0.005921486              -0.000248171              -0.001040322               0.002320583               0.001280261               0.000000000               0.000000000               0.000000000               0.000000000              -0.000427227               0.005578721              -0.000216239              -0.000857548               0.002145404               0.001287856               0.000000000               0.000000000               0.000000000               0.000000000              -0.000167325               0.005321264              -0.000176000              -0.000727903               0.002016371               0.001288468               0.000000000               0.000000000               0.000000000               0.000000000              -0.000009495               0.005158342              -0.000126637              -0.000648352               0.001935548               0.001287196               0.000000000               0.000000000               0.000000000               0.000000000               0.000058293               0.005060196              -0.000071301              -0.000610663               0.001890269               0.001279606               0.000000000               0.000000000               0.000000000               0.000000000               0.000061790               0.004998350              -0.000020567              -0.000601621               0.001866640               0.001265019               0.000000000               0.000000000               0.000000000               0.000000000               0.000034393               0.004963917               0.000009351              -0.000607591               0.001857153               0.001249562               0.000000000               0.000000000               0.000000000               0.000000000               0.000014564               0.004954763               0.000017380              -0.000613882               0.001856198               0.001242316               0.000000000               0.000000000               0.000000000               0.000000000              -0.002950926               0.003908190              -0.000745837              -0.001595118               0.001834422               0.000239305               0.000000000               0.000000000               0.000000000               0.000000000              -0.003939484               0.005841866              -0.001181518              -0.002207534               0.002683114               0.000475579               0.000000000               0.000000000               0.000000000               0.000000000              -0.004815990               0.007689937              -0.001416838              -0.002767232               0.003485697               0.000718465               0.000000000               0.000000000               0.000000000               0.000000000              -0.004474023               0.008038941              -0.001248576              -0.002682620               0.003573827               0.000891207               0.000000000               0.000000000               0.000000000               0.000000000              -0.003848841               0.007900846              -0.001051662              -0.002430915               0.003443894               0.001012979               0.000000000               0.000000000               0.000000000               0.000000000              -0.003175918               0.007594803              -0.000885349              -0.002140315               0.003245014               0.001104699               0.000000000               0.000000000               0.000000000               0.000000000              -0.002530265               0.007221918              -0.000762667              -0.001851585               0.003024477               0.001172892               0.000000000               0.000000000               0.000000000               0.000000000              -0.001923270               0.006831336              -0.000681303              -0.001575139               0.002802136               0.001226996               0.000000000               0.000000000               0.000000000               0.000000000              -0.001356370               0.006450377              -0.000616280              -0.001314933               0.002588415               0.001273482               0.000000000               0.000000000               0.000000000               0.000000000              -0.000848899               0.006096288              -0.000539630              -0.001080370               0.002392199               0.001311829               0.000000000               0.000000000               0.000000000               0.000000000              -0.000436514               0.005774542              -0.000452971              -0.000885508               0.002219997               0.001334489               0.000000000               0.000000000               0.000000000               0.000000000              -0.000137369               0.005505975              -0.000361793              -0.000739758               0.002081893               0.001342134               0.000000000               0.000000000               0.000000000               0.000000000               0.000053384               0.005303256              -0.000266402              -0.000642886               0.001982030               0.001339143               0.000000000               0.000000000               0.000000000               0.000000000               0.000147486               0.005161087              -0.000170026              -0.000589827               0.001916954               0.001327127               0.000000000               0.000000000               0.000000000               0.000000000               0.000165050               0.005073245              -0.000080785              -0.000572260               0.001881818               0.001309558               0.000000000               0.000000000               0.000000000               0.000000000               0.000131137               0.005024087              -0.000020493              -0.000578833               0.001867623               0.001288790               0.000000000               0.000000000               0.000000000               0.000000000               0.000094268               0.005001233               0.000003435              -0.000589802               0.001863662               0.001273860               0.000000000               0.000000000               0.000000000               0.000000000              -0.004862939               0.002127818               0.000155483              -0.002089576               0.001405789              -0.000683787               0.000000000               0.000000000               0.000000000               0.000000000              -0.004905487               0.004286628              -0.000965783              -0.002375381               0.002220654              -0.000154727               0.000000000               0.000000000               0.000000000               0.000000000              -0.005217441               0.006345253              -0.001820326              -0.002749691               0.003031626               0.000281936               0.000000000               0.000000000               0.000000000               0.000000000              -0.004732476               0.007070598              -0.001809088              -0.002658497               0.003243008               0.000584511               0.000000000               0.000000000               0.000000000               0.000000000              -0.004053941               0.007250481              -0.001615613              -0.002426532               0.003225647               0.000799114               0.000000000               0.000000000               0.000000000               0.000000000              -0.003355988               0.007191577              -0.001406575              -0.002157438               0.003116314               0.000958876               0.000000000               0.000000000               0.000000000               0.000000000              -0.002693410               0.007014423              -0.001230838              -0.001886827               0.002967060               0.001080233               0.000000000               0.000000000               0.000000000               0.000000000              -0.002075288               0.006775144              -0.001100045              -0.001625122               0.002800066               0.001174944               0.000000000               0.000000000               0.000000000               0.000000000              -0.001493709               0.006511364              -0.000989361              -0.001374058               0.002628452               0.001254394               0.000000000               0.000000000               0.000000000               0.000000000              -0.000955935               0.006238316              -0.000871988              -0.001138262               0.002458838               0.001320576               0.000000000               0.000000000               0.000000000               0.000000000              -0.000484359               0.005961875              -0.000745021              -0.000926867               0.002296227               0.001369361               0.000000000               0.000000000               0.000000000               0.000000000              -0.000105179               0.005699580              -0.000615033              -0.000751888               0.002150470               0.001398582               0.000000000               0.000000000               0.000000000               0.000000000               0.000171405               0.005468072              -0.000483761              -0.000619231               0.002029083               0.001409852               0.000000000               0.000000000               0.000000000               0.000000000               0.000341764               0.005278177              -0.000347376              -0.000531609               0.001936578               0.001404969               0.000000000               0.000000000               0.000000000               0.000000000               0.000408423               0.005137297              -0.000208889              -0.000489002               0.001875416               0.001386414               0.000000000               0.000000000               0.000000000               0.000000000               0.000385182               0.005051110              -0.000088997              -0.000486944               0.001846001               0.001359057               0.000000000               0.000000000               0.000000000               0.000000000               0.000326474               0.005004936              -0.000027499              -0.000503188               0.001836025               0.001332837               0.000000000               0.000000000               0.000000000               0.000000000              -0.007034322               0.000700100               0.000922012              -0.002725380               0.001141819              -0.001583562               0.000000000               0.000000000               0.000000000               0.000000000              -0.006016696               0.002834541              -0.000684267              -0.002610574               0.001815026              -0.000795548               0.000000000               0.000000000               0.000000000               0.000000000              -0.005565262               0.004819946              -0.002016470              -0.002689461               0.002503118              -0.000186343               0.000000000               0.000000000               0.000000000               0.000000000              -0.004857652               0.005802627              -0.002202783              -0.002546942               0.002783169               0.000236227               0.000000000               0.000000000               0.000000000               0.000000000              -0.004109701               0.006274184              -0.002066348              -0.002325406               0.002866508               0.000541103               0.000000000               0.000000000               0.000000000               0.000000000              -0.003389876               0.006469722              -0.001855216              -0.002079914               0.002849857               0.000769942               0.000000000               0.000000000               0.000000000               0.000000000              -0.002716440               0.006509344              -0.001652933              -0.001832329               0.002780536               0.000948207               0.000000000               0.000000000               0.000000000               0.000000000              -0.002094303               0.006457175              -0.001488489              -0.001592507               0.002683205               0.001090698               0.000000000               0.000000000               0.000000000               0.000000000              -0.001511378               0.006344187              -0.001346451              -0.001359787               0.002567970               0.001208183               0.000000000               0.000000000               0.000000000               0.000000000              -0.000957895               0.006187521              -0.001201134              -0.001132648               0.002440036               0.001307387               0.000000000               0.000000000               0.000000000               0.000000000              -0.000446441               0.006000875              -0.001047053              -0.000917523               0.002306112               0.001388589               0.000000000               0.000000000               0.000000000               0.000000000               0.000001358               0.005795316              -0.000890489              -0.000723904               0.002173054               0.001449150               0.000000000               0.000000000               0.000000000               0.000000000               0.000366392               0.005581037              -0.000732727              -0.000560232               0.002047071               0.001486839               0.000000000               0.000000000               0.000000000               0.000000000               0.000637300               0.005377181              -0.000563006              -0.000433159               0.001936762               0.001503603               0.000000000               0.000000000               0.000000000               0.000000000               0.000801519               0.005204277              -0.000376838              -0.000349964               0.001851396               0.001501432               0.000000000               0.000000000               0.000000000               0.000000000               0.000844610               0.005082581              -0.000185905              -0.000318593               0.001800374               0.001481781               0.000000000               0.000000000               0.000000000               0.000000000               0.000807798               0.005022046              -0.000083231              -0.000324831               0.001782276               0.001457445               0.000000000               0.000000000               0.000000000               0.000000000              -0.009311386              -0.000296351               0.001434590              -0.003454723               0.001052783              -0.002401940               0.000000000               0.000000000               0.000000000               0.000000000              -0.007210932               0.001565835              -0.000389314              -0.002899825               0.001488543              -0.001411282               0.000000000               0.000000000               0.000000000               0.000000000              -0.005879807               0.003252557              -0.001980784              -0.002611493               0.001954669              -0.000656823               0.000000000               0.000000000               0.000000000               0.000000000              -0.004869536               0.004353973              -0.002338250              -0.002370318               0.002241414              -0.000128904               0.000000000               0.000000000               0.000000000               0.000000000              -0.004019839               0.005047716              -0.002289724              -0.002138400               0.002395354               0.000256954               0.000000000               0.000000000               0.000000000               0.000000000              -0.003270797               0.005470006              -0.002115282              -0.001910295               0.002460081               0.000549786               0.000000000               0.000000000               0.000000000               0.000000000              -0.002593354               0.005723435              -0.001920122              -0.001687934               0.002470436               0.000782503               0.000000000               0.000000000               0.000000000               0.000000000              -0.001967958               0.005868426              -0.001746402              -0.001471535               0.002446633               0.000975099               0.000000000               0.000000000               0.000000000               0.000000000              -0.001386419               0.005922341              -0.001592425              -0.001260197               0.002394159               0.001133962               0.000000000               0.000000000               0.000000000               0.000000000              -0.000827605               0.005909805              -0.001437913              -0.001049075               0.002319607               0.001270531               0.000000000               0.000000000               0.000000000               0.000000000              -0.000288876               0.005849249              -0.001273502              -0.000839483               0.002229558               0.001390075               0.000000000               0.000000000               0.000000000               0.000000000               0.000213804               0.005740172              -0.001106606              -0.000637344               0.002125819               0.001488475               0.000000000               0.000000000               0.000000000               0.000000000               0.000664777               0.005592855              -0.000938706              -0.000449815               0.002014205               0.001564390               0.000000000               0.000000000               0.000000000               0.000000000               0.001052905               0.005429698              -0.000756509              -0.000283872               0.001904505               0.001620633               0.000000000               0.000000000               0.000000000               0.000000000               0.001358354               0.005264042              -0.000538267              -0.000148623               0.001804204               0.001655581               0.000000000               0.000000000               0.000000000               0.000000000               0.001552612               0.005122775              -0.000281415              -0.000058118               0.001726947               0.001668830               0.000000000               0.000000000               0.000000000               0.000000000               0.001619116               0.005062396              -0.000146220              -0.000025631               0.001695992               0.001670361               0.000000000               0.000000000               0.000000000               0.000000000              -0.011478394              -0.000883928               0.001588525              -0.004193904               0.001103317              -0.003090586               0.000000000               0.000000000               0.000000000               0.000000000              -0.008382374               0.000554594              -0.000146284              -0.003212711               0.001255760              -0.001956952               0.000000000               0.000000000               0.000000000               0.000000000              -0.006163599               0.001798197              -0.001718196              -0.002536121               0.001444762              -0.001091359               0.000000000               0.000000000               0.000000000               0.000000000              -0.004804882               0.002889443              -0.002159934              -0.002163008               0.001684138              -0.000478870               0.000000000               0.000000000               0.000000000               0.000000000              -0.003818846               0.003720853              -0.002191297              -0.001897170               0.001872660              -0.000024510               0.000000000               0.000000000               0.000000000               0.000000000              -0.003021699               0.004320827              -0.002073816              -0.001673237               0.001998006               0.000324769               0.000000000               0.000000000               0.000000000               0.000000000              -0.002334821               0.004754746              -0.001914898              -0.001469898               0.002074865               0.000604967               0.000000000               0.000000000               0.000000000               0.000000000              -0.001711919               0.005071211              -0.001761318              -0.001275869               0.002115676               0.000839807               0.000000000               0.000000000               0.000000000               0.000000000              -0.001132435               0.005289191              -0.001619525              -0.001085810               0.002124982               0.001039172               0.000000000               0.000000000               0.000000000               0.000000000              -0.000573536               0.005425110              -0.001478411              -0.000893213               0.002106089               0.001212876               0.000000000               0.000000000               0.000000000               0.000000000              -0.000016930               0.005501403              -0.001327105              -0.000694023               0.002065124               0.001371100               0.000000000               0.000000000               0.000000000               0.000000000               0.000535126               0.005518930              -0.001171254              -0.000489193               0.002002689               0.001513496               0.000000000               0.000000000               0.000000000               0.000000000               0.001066444               0.005477461              -0.001013108              -0.000284766               0.001920724               0.001635958               0.000000000               0.000000000               0.000000000               0.000000000               0.001568908               0.005390754              -0.000838779              -0.000085504               0.001825401               0.001739897               0.000000000               0.000000000               0.000000000               0.000000000               0.002032507               0.005269930              -0.000619561               0.000103447               0.001722143               0.001825591               0.000000000               0.000000000               0.000000000               0.000000000               0.002441613               0.005138812              -0.000338085               0.000273251               0.001621837               0.001895087               0.000000000               0.000000000               0.000000000               0.000000000               0.002685846               0.005096808              -0.000193419               0.000370088               0.001575556               0.001945644               0.000000000               0.000000000               0.000000000               0.000000000              -0.013299219              -0.001172043               0.001345969              -0.004840699               0.001222876              -0.003617822               0.000000000               0.000000000               0.000000000               0.000000000              -0.009389958              -0.000170606              -0.000006378              -0.003499906               0.001109759              -0.002390147               0.000000000               0.000000000               0.000000000               0.000000000              -0.006400130               0.000614290              -0.001262802              -0.002476833               0.001030367              -0.001446466               0.000000000               0.000000000               0.000000000               0.000000000              -0.004708827               0.001615822              -0.001665148              -0.001967785               0.001194527              -0.000773258               0.000000000               0.000000000               0.000000000               0.000000000              -0.003581280               0.002510263              -0.001733348              -0.001656760               0.001388998              -0.000267762               0.000000000               0.000000000               0.000000000               0.000000000              -0.002732485               0.003228063              -0.001668246              -0.001428187               0.001552072               0.000123885               0.000000000               0.000000000               0.000000000               0.000000000              -0.002024985               0.003793778              -0.001561438              -0.001233589               0.001675776               0.000442187               0.000000000               0.000000000               0.000000000               0.000000000              -0.001396429               0.004243592              -0.001451358              -0.001054108               0.001765885               0.000711777               0.000000000               0.000000000               0.000000000               0.000000000              -0.000814746               0.004597733              -0.001345726              -0.000880245               0.001825977               0.000945732               0.000000000               0.000000000               0.000000000               0.000000000              -0.000255094               0.004862023              -0.001241054              -0.000703412               0.001855129               0.001151717               0.000000000               0.000000000               0.000000000               0.000000000               0.000312782               0.005057969              -0.001129816              -0.000514952               0.001857623               0.001342671               0.000000000               0.000000000               0.000000000               0.000000000               0.000896303               0.005193227              -0.001008537              -0.000313040               0.001835405               0.001522365               0.000000000               0.000000000               0.000000000               0.000000000               0.001487322               0.005264145              -0.000879544              -0.000100273               0.001788121               0.001687849               0.000000000               0.000000000               0.000000000               0.000000000               0.002086311               0.005274107              -0.000740400               0.000123102               0.001716984               0.001840086               0.000000000               0.000000000               0.000000000               0.000000000               0.002701879               0.005222442              -0.000564555               0.000360396               0.001620665               0.001981060               0.000000000               0.000000000               0.000000000               0.000000000               0.003328664               0.005119985              -0.000317892               0.000608245               0.001503896               0.002112141               0.000000000               0.000000000               0.000000000               0.000000000               0.003767502               0.005106272              -0.000191284               0.000774521               0.001443900               0.002218421               0.000000000               0.000000000               0.000000000               0.000000000              -0.014527581              -0.001285069               0.000770897              -0.005287206               0.001334036              -0.003953169               0.000000000               0.000000000               0.000000000               0.000000000              -0.010082740              -0.000608068               0.000029105              -0.003705016               0.001032309              -0.002672707               0.000000000               0.000000000               0.000000000               0.000000000              -0.006563641              -0.000164902              -0.000668650              -0.002440751               0.000758611              -0.001682140               0.000000000               0.000000000               0.000000000               0.000000000              -0.004626167               0.000741349              -0.000908078              -0.001827479               0.000856270              -0.000971209               0.000000000               0.000000000               0.000000000               0.000000000              -0.003396651               0.001649324              -0.000959853              -0.001479907               0.001043070              -0.000436837               0.000000000               0.000000000               0.000000000               0.000000000              -0.002506066               0.002434815              -0.000932444              -0.001244124               0.001226304              -0.000017820               0.000000000               0.000000000               0.000000000               0.000000000              -0.001779497               0.003084226              -0.000881131              -0.001052837               0.001379011               0.000326173               0.000000000               0.000000000               0.000000000               0.000000000              -0.001141565               0.003616741              -0.000824911              -0.000880178               0.001498961               0.000618783               0.000000000               0.000000000               0.000000000               0.000000000              -0.000550647               0.004055413              -0.000768900              -0.000713418               0.001589596               0.000876179               0.000000000               0.000000000               0.000000000               0.000000000               0.000016418               0.004404876              -0.000716289              -0.000544452               0.001649761               0.001105309               0.000000000               0.000000000               0.000000000               0.000000000               0.000586951               0.004682599              -0.000660321              -0.000365218               0.001682590               0.001317372               0.000000000               0.000000000               0.000000000               0.000000000               0.001181240               0.004898558              -0.000592371              -0.000169355               0.001689288               0.001519933               0.000000000               0.000000000               0.000000000               0.000000000               0.001811786               0.005051929              -0.000516190               0.000047928               0.001667984               0.001715911               0.000000000               0.000000000               0.000000000               0.000000000               0.002484350               0.005142111              -0.000440939               0.000288865               0.001617732               0.001906596               0.000000000               0.000000000               0.000000000               0.000000000               0.003207569               0.005163033              -0.000344855               0.000557454               0.001535176               0.002092629               0.000000000               0.000000000               0.000000000               0.000000000               0.003999843               0.005103977              -0.000196090               0.000861935               0.001413997               0.002275932               0.000000000               0.000000000               0.000000000               0.000000000               0.004599178               0.005118980              -0.000119729               0.001084809               0.001344707               0.002429515               0.000000000               0.000000000               0.000000000               0.000000000              -0.014961796              -0.001308633               0.000000000              -0.005447091               0.001379477              -0.004067614               0.000000000               0.000000000               0.000000000               0.000000000              -0.010330726              -0.000751634              -0.000000000              -0.003780065               0.001009470              -0.002770595               0.000000000               0.000000000               0.000000000               0.000000000              -0.006623159              -0.000438254              -0.000000000              -0.002428901               0.000663545              -0.001765357               0.000000000               0.000000000               0.000000000               0.000000000              -0.004593604               0.000428144              -0.000000000              -0.001776118               0.000734749              -0.001041369               0.000000000               0.000000000               0.000000000               0.000000000              -0.003327438               0.001339167               0.000000000              -0.001415183               0.000918110              -0.000497073               0.000000000               0.000000000               0.000000000               0.000000000              -0.002419255               0.002146236               0.000000000              -0.001175498               0.001107237              -0.000068261               0.000000000               0.000000000               0.000000000               0.000000000              -0.001685450               0.002822680              -0.000000000              -0.000984876               0.001269176               0.000284300               0.000000000               0.000000000               0.000000000               0.000000000              -0.001045594               0.003380872               0.000000000              -0.000814705               0.001398514               0.000583810               0.000000000               0.000000000               0.000000000               0.000000000              -0.000449058               0.003848684              -0.000000000              -0.000649481               0.001499375               0.000849895               0.000000000               0.000000000               0.000000000               0.000000000               0.000123911               0.004232258              -0.000000000              -0.000482565               0.001571593               0.001089029               0.000000000               0.000000000               0.000000000               0.000000000               0.000691422               0.004537060               0.000000000              -0.000307848               0.001614954               0.001307106               0.000000000               0.000000000               0.000000000               0.000000000               0.001285223               0.004776644              -0.000000000              -0.000115122               0.001630573               0.001515451               0.000000000               0.000000000               0.000000000               0.000000000               0.001932546               0.004959078              -0.000000000               0.000104819               0.001618070               0.001722889               0.000000000               0.000000000               0.000000000               0.000000000               0.002636464               0.005079547              -0.000000000               0.000353727               0.001575256               0.001928984               0.000000000               0.000000000               0.000000000               0.000000000               0.003395939               0.005130405              -0.000000000               0.000632170               0.001499395               0.002131565               0.000000000               0.000000000               0.000000000               0.000000000               0.004250732               0.005095454              -0.000000000               0.000957083               0.001379440               0.002336523               0.000000000               0.000000000               0.000000000               0.000000000               0.004915912               0.005125812              -0.000000000               0.001202728               0.001307678               0.002510406               0.000000000               0.000000000               0.000000000               0.000000000               0.000000000               0.000000000               0.000000000               0.000000000               0.000000000               0.000000000               0.000000000               0.000000000               0.000000000               0.000000000               0.000000000               0.000000000               0.000000000               0.000000000               0.000000000               0.000000000               0.000000000               0.000000000               0.000000000               0.000000000               0.000000000               0.000000000               0.000000000               0.000000000               0.000000000               0.000000000               0.000000000               0.000000000               0.000000000               0.000000000               0.000000000               0.000000000               0.000000000               0.000000000               0.000000000               0.000000000               0.000000000               0.000000000               0.000000000               0.000000000               0.000000000               0.000000000               0.000000000               0.000000000               0.000000000               0.000000000               0.000000000               0.000000000               0.000000000               0.000000000               0.000000000               0.000000000               0.000000000               0.000000000               0.000000000               0.000000000               0.000000000               0.000000000               0.000000000               0.000000000               0.000000000               0.000000000               0.000000000               0.000000000               0.000000000               0.000000000               0.000000000               0.000000000               0.000000000               0.000000000               0.000000000               0.000000000               0.000000000               0.000000000               0.000000000               0.000000000               0.000000000               0.000000000               0.000000000               0.000000000               0.000000000               0.000000000               0.000000000               0.000000000               0.000000000               0.000000000               0.000000000               0.000000000               0.000000000               0.000000000               0.000000000               0.000000000               0.000000000               0.000000000               0.000000000               0.000000000               0.000000000               0.000000000               0.000000000               0.000000000               0.000000000               0.000000000               0.000000000               0.000000000               0.000000000               0.000000000               0.000000000               0.000000000               0.000000000               0.000000000               0.000000000               0.000000000               0.000000000               0.000000000               0.000000000               0.000000000               0.000000000               0.000000000               0.000000000               0.000000000               0.000000000               0.000000000               0.000000000               0.000000000               0.000000000               0.000000000               0.000000000               0.000000000               0.000000000               0.000000000               0.000000000               0.000000000               0.000000000               0.000000000               0.000000000               0.000000000               0.000000000               0.000000000               0.000000000               0.000000000               0.000000000               0.000000000               0.000000000               0.000000000               0.000000000               0.000000000               0.000000000               0.000000000               0.000000000               0.000000000               0.000000000               0.000000000               0.000000000               0.000000000               0.000000000               0.000000000               0.000000000               0.000000000               0.000000000               0.000000000               0.000000000               0.000000000               0.000000000               0.000000000               0.000000000               0.000000000               0.000000000               0.000000000               0.000000000               0.000000000               0.002267298               0.022727262               0.001504290              -0.001990666               0.008239234               0.006248567               0.000000000               0.000000000               0.000000000               0.000000000               0.002026130               0.017427381               0.000642255              -0.001418620               0.006281942               0.004863322               0.000000000               0.000000000               0.000000000               0.000000000               0.002465768               0.013174695              -0.000203194              -0.000722172               0.004632245               0.003910073               0.000000000               0.000000000               0.000000000               0.000000000               0.002195052               0.010767911              -0.000542489              -0.000522843               0.003763549               0.003240706               0.000000000               0.000000000               0.000000000               0.000000000               0.001755410               0.009226219              -0.000664113              -0.000494998               0.003240375               0.002745377               0.000000000               0.000000000               0.000000000               0.000000000               0.001323382               0.008118914              -0.000688599              -0.000518595               0.002879143               0.002360547               0.000000000               0.000000000               0.000000000               0.000000000               0.000957815               0.007245315              -0.000672541              -0.000546483               0.002597242               0.002050759               0.000000000               0.000000000               0.000000000               0.000000000               0.000659679               0.006505935              -0.000642654              -0.000565861               0.002357244               0.001791382               0.000000000               0.000000000               0.000000000               0.000000000               0.000417738               0.005842080              -0.000610023              -0.000573607               0.002138543               0.001564936               0.000000000               0.000000000               0.000000000               0.000000000               0.000230835               0.005221365              -0.000575394              -0.000566106               0.001929140               0.001363033               0.000000000               0.000000000               0.000000000               0.000000000               0.000090855               0.004617368              -0.000538010              -0.000543099               0.001720140               0.001177041               0.000000000               0.000000000               0.000000000               0.000000000              -0.000009545               0.004008958              -0.000494158              -0.000504698               0.001504539               0.000999841               0.000000000               0.000000000               0.000000000               0.000000000              -0.000076200               0.003374872              -0.000441177              -0.000450433               0.001275090               0.000824657               0.000000000               0.000000000               0.000000000               0.000000000              -0.000108701               0.002701413              -0.000374128              -0.000378439               0.001026608               0.000648169               0.000000000               0.000000000               0.000000000               0.000000000              -0.000104953               0.001974375              -0.000282061              -0.000286154               0.000753503               0.000467349               0.000000000               0.000000000               0.000000000               0.000000000              -0.000062547               0.001179336              -0.000158070              -0.000170872               0.000450065               0.000279193               0.000000000               0.000000000               0.000000000               0.000000000              -0.000093462               0.000588112              -0.000099576              -0.000108562               0.000232223               0.000123660               0.000000000               0.000000000               0.000000000               0.000000000               0.002376774               0.021252148               0.002775452              -0.001765225               0.007672387               0.005907162               0.000000000               0.000000000               0.000000000               0.000000000               0.001783255               0.016512935               0.001180371              -0.001395393               0.005969388               0.004573994               0.000000000               0.000000000               0.000000000               0.000000000               0.001846529               0.012834920              -0.000367641              -0.000911915               0.004582235               0.003670321               0.000000000               0.000000000               0.000000000               0.000000000               0.001448411               0.010717412              -0.000964388              -0.000796521               0.003837942               0.003041421               0.000000000               0.000000000               0.000000000               0.000000000               0.001001354               0.009317851              -0.001166386              -0.000789222               0.003368993               0.002579771               0.000000000               0.000000000               0.000000000               0.000000000               0.000617767               0.008277503              -0.001198615              -0.000803024               0.003026814               0.002223791               0.000000000               0.000000000               0.000000000               0.000000000               0.000319100               0.007438787              -0.001165623              -0.000810184               0.002749632               0.001939448               0.000000000               0.000000000               0.000000000               0.000000000               0.000095179               0.006717955              -0.001110313              -0.000804051               0.002507313               0.001703262               0.000000000               0.000000000               0.000000000               0.000000000              -0.000064148               0.006065212              -0.001048938              -0.000782206               0.002282452               0.001500247               0.000000000               0.000000000               0.000000000               0.000000000              -0.000169272               0.005448702              -0.000986391              -0.000744563               0.002064403               0.001319840               0.000000000               0.000000000               0.000000000               0.000000000              -0.000225268               0.004850709              -0.000921994              -0.000690813               0.001847157               0.001156345               0.000000000               0.000000000               0.000000000               0.000000000              -0.000239139               0.004260040              -0.000846983              -0.000622181               0.001627393               0.001005212               0.000000000               0.000000000               0.000000000               0.000000000              -0.000230004               0.003666072              -0.000753612              -0.000544509               0.001403515               0.000859005               0.000000000               0.000000000               0.000000000               0.000000000              -0.000199781               0.003065074              -0.000635314              -0.000458051               0.001174365               0.000716314               0.000000000               0.000000000               0.000000000               0.000000000              -0.000146814               0.002460165              -0.000477632              -0.000362575               0.000940905               0.000578330               0.000000000               0.000000000               0.000000000               0.000000000              -0.000078749               0.001854780              -0.000267523              -0.000261378               0.000705380               0.000444002               0.000000000               0.000000000               0.000000000               0.000000000              -0.000083294               0.001439355              -0.000162906              -0.000211154               0.000550165               0.000339011               0.000000000               0.000000000               0.000000000               0.000000000               0.002436700               0.019025468               0.003632985              -0.001464419               0.006829898               0.005365479               0.000000000               0.000000000               0.000000000               0.000000000               0.001356595               0.015158402               0.001540073              -0.001386074               0.005514775               0.004128700               0.000000000               0.000000000               0.000000000               0.000000000               0.000903419               0.012333450              -0.000460132              -0.001202896               0.004512074               0.003309178               0.000000000               0.000000000               0.000000000               0.000000000               0.000370186               0.010617063              -0.001182288              -0.001188310               0.003935089               0.002746778               0.000000000               0.000000000               0.000000000               0.000000000              -0.000052700               0.009405168              -0.001403822              -0.001195406               0.003533493               0.002338087               0.000000000               0.000000000               0.000000000               0.000000000              -0.000342373               0.008457012              -0.001423813              -0.001185514               0.003214147               0.002028633               0.000000000               0.000000000               0.000000000               0.000000000              -0.000521808               0.007665851              -0.001371164              -0.001153907               0.002939894               0.001785987               0.000000000               0.000000000               0.000000000               0.000000000              -0.000621627               0.006966474              -0.001297777              -0.001103917               0.002690107               0.001586190               0.000000000               0.000000000               0.000000000               0.000000000              -0.000655274               0.006325358              -0.001220846              -0.001036395               0.002453897               0.001417501               0.000000000               0.000000000               0.000000000               0.000000000              -0.000635284               0.005720301              -0.001141385              -0.000953267               0.002224503               0.001271236               0.000000000               0.000000000               0.000000000               0.000000000              -0.000574472               0.005139795              -0.001058184              -0.000857900               0.001999214               0.001141314               0.000000000               0.000000000               0.000000000               0.000000000              -0.000486933               0.004579652              -0.000961224              -0.000755055               0.001778220               0.001023165               0.000000000               0.000000000               0.000000000               0.000000000              -0.000384992               0.004044786              -0.000841652              -0.000649969               0.001564905               0.000914936               0.000000000               0.000000000               0.000000000               0.000000000              -0.000276021               0.003545458              -0.000695182              -0.000546689               0.001364037               0.000817348               0.000000000               0.000000000               0.000000000               0.000000000              -0.000171437               0.003100320              -0.000510024              -0.000451828               0.001184039               0.000732211               0.000000000               0.000000000               0.000000000               0.000000000              -0.000082496               0.002732700              -0.000278866              -0.000372523               0.001035065               0.000662542               0.000000000               0.000000000               0.000000000               0.000000000              -0.000057410               0.002530174              -0.000159661              -0.000337800               0.000955983               0.000618183               0.000000000               0.000000000               0.000000000               0.000000000               0.002310798               0.016333201               0.003990554              -0.001175101               0.005836046               0.004660945               0.000000000               0.000000000               0.000000000               0.000000000               0.000736957               0.013548735               0.001705084              -0.001417230               0.004988610               0.003571379               0.000000000               0.000000000               0.000000000               0.000000000              -0.000244104               0.011723792              -0.000440907              -0.001557009               0.004426895               0.002869885               0.000000000               0.000000000               0.000000000               0.000000000              -0.000851873               0.010438833              -0.001154457              -0.001624303               0.004021010               0.002396707               0.000000000               0.000000000               0.000000000               0.000000000              -0.001180861               0.009421102              -0.001348417              -0.001620457               0.003680488               0.002060031               0.000000000               0.000000000               0.000000000               0.000000000              -0.001324367               0.008570067              -0.001348497              -0.001567892               0.003379291               0.001811399               0.000000000               0.000000000               0.000000000               0.000000000              -0.001344171               0.007827216              -0.001284426              -0.001482463               0.003103200               0.001620737               0.000000000               0.000000000               0.000000000               0.000000000              -0.001283841               0.007152349              -0.001205901              -0.001375481               0.002842586               0.001467105               0.000000000               0.000000000               0.000000000               0.000000000              -0.001169829               0.006524078              -0.001124541              -0.001254193               0.002592735               0.001338542               0.000000000               0.000000000               0.000000000               0.000000000              -0.001016919               0.005935045              -0.001037807              -0.001123223               0.002352736               0.001229513               0.000000000               0.000000000               0.000000000               0.000000000              -0.000841359               0.005383671              -0.000941666              -0.000988466               0.002124028               0.001135561               0.000000000               0.000000000               0.000000000               0.000000000              -0.000658349               0.004870783              -0.000830828              -0.000855727               0.001908820               0.001053093               0.000000000               0.000000000               0.000000000               0.000000000              -0.000475113               0.004410712              -0.000701686              -0.000729505               0.001713391               0.000983886               0.000000000               0.000000000               0.000000000               0.000000000              -0.000307711               0.004022409              -0.000555532              -0.000618191               0.001546853               0.000928662               0.000000000               0.000000000               0.000000000               0.000000000              -0.000170261               0.003732018              -0.000389712              -0.000530349               0.001420777               0.000890428               0.000000000               0.000000000               0.000000000               0.000000000              -0.000073529               0.003557591              -0.000202725              -0.000472271               0.001343276               0.000871005               0.000000000               0.000000000               0.000000000               0.000000000              -0.000034037               0.003501675              -0.000104233              -0.000450472               0.001317371               0.000866899               0.000000000               0.000000000               0.000000000               0.000000000               0.001871324               0.013456589               0.003872253              -0.000980328               0.004812260               0.003831932               0.000000000               0.000000000               0.000000000               0.000000000              -0.000070618               0.011853036               0.001713576              -0.001508109               0.004453675               0.002945566               0.000000000               0.000000000               0.000000000               0.000000000              -0.001454974               0.011048888              -0.000284021              -0.001926722               0.004325166               0.002398445               0.000000000               0.000000000               0.000000000               0.000000000              -0.002023628               0.010160378              -0.000894410              -0.002028903               0.004063060               0.002034157               0.000000000               0.000000000               0.000000000               0.000000000              -0.002185624               0.009313111              -0.001044419              -0.001983743               0.003765587               0.001781844               0.000000000               0.000000000               0.000000000               0.000000000              -0.002137767               0.008546373              -0.001037767              -0.001869955               0.003472081               0.001602126               0.000000000               0.000000000               0.000000000               0.000000000              -0.001973487               0.007851155              -0.000978867              -0.001721448               0.003190841               0.001469393               0.000000000               0.000000000               0.000000000               0.000000000              -0.001749458               0.007203737              -0.000906474              -0.001556510               0.002920058               0.001363548               0.000000000               0.000000000               0.000000000               0.000000000              -0.001496200               0.006597349              -0.000829737              -0.001385740               0.002661008               0.001275267               0.000000000               0.000000000               0.000000000               0.000000000              -0.001224535               0.006037565              -0.000747231              -0.001213893               0.002417133               0.001203239               0.000000000               0.000000000               0.000000000               0.000000000              -0.000951980               0.005528620              -0.000655075              -0.001048067               0.002192211               0.001144143               0.000000000               0.000000000               0.000000000               0.000000000              -0.000693825               0.005082409              -0.000551863              -0.000895483               0.001992614               0.001097130               0.000000000               0.000000000               0.000000000               0.000000000              -0.000463261               0.004713909              -0.000438613              -0.000762960               0.001825607               0.001062648               0.000000000               0.000000000               0.000000000               0.000000000              -0.000282690               0.004434749              -0.000326338              -0.000660351               0.001698352               0.001038001               0.000000000               0.000000000               0.000000000               0.000000000              -0.000149022               0.004262571              -0.000215852              -0.000588703               0.001617077               0.001028374               0.000000000               0.000000000               0.000000000               0.000000000              -0.000058754               0.004192083              -0.000103432              -0.000546042               0.001579361               0.001033319               0.000000000               0.000000000               0.000000000               0.000000000              -0.000021442               0.004188887              -0.000045626              -0.000531650               0.001573499               0.001041848               0.000000000               0.000000000               0.000000000               0.000000000               0.001057109               0.010637806               0.003371789              -0.000933310               0.003857002               0.002923692               0.000000000               0.000000000               0.000000000               0.000000000              -0.001023408               0.010211205               0.001620789              -0.001660175               0.003957092               0.002296917               0.000000000               0.000000000               0.000000000               0.000000000              -0.002602462               0.010337928               0.000008517              -0.002268159               0.004201994               0.001933836               0.000000000               0.000000000               0.000000000               0.000000000              -0.002999992               0.009771266              -0.000456173              -0.002346400               0.004039189               0.001692790               0.000000000               0.000000000               0.000000000               0.000000000              -0.002930260               0.009064591              -0.000576826              -0.002231916               0.003765472               0.001533556               0.000000000               0.000000000               0.000000000               0.000000000              -0.002667587               0.008373189              -0.000586585              -0.002046989               0.003473364               0.001426376               0.000000000               0.000000000               0.000000000               0.000000000              -0.002325459               0.007722016              -0.000550700              -0.001837294               0.003186411               0.001349117               0.000000000               0.000000000               0.000000000               0.000000000              -0.001955579               0.007109282              -0.000496443              -0.001621998               0.002910403               0.001288405               0.000000000               0.000000000               0.000000000               0.000000000              -0.001582064               0.006540937              -0.000440199              -0.001410888               0.002650586               0.001239699               0.000000000               0.000000000               0.000000000               0.000000000              -0.001216697               0.006029444              -0.000378934              -0.001209939               0.002413108               0.001203169               0.000000000               0.000000000               0.000000000               0.000000000              -0.000878240               0.005579559              -0.000313603              -0.001026782               0.002202095               0.001175313               0.000000000               0.000000000               0.000000000               0.000000000              -0.000582584               0.005208741              -0.000245129              -0.000869559               0.002026083               0.001156523               0.000000000               0.000000000               0.000000000               0.000000000              -0.000349953               0.004926280              -0.000173891              -0.000747015               0.001891082               0.001144067               0.000000000               0.000000000               0.000000000               0.000000000              -0.000193410               0.004737512              -0.000116290              -0.000664716               0.001800727               0.001136011               0.000000000               0.000000000               0.000000000               0.000000000              -0.000094286               0.004636453              -0.000073289              -0.000614912               0.001750440               0.001135527               0.000000000               0.000000000               0.000000000               0.000000000              -0.000034039               0.004599565              -0.000032110              -0.000587709               0.001729076               0.001141367               0.000000000               0.000000000               0.000000000               0.000000000              -0.000017656               0.004593688              -0.000013354              -0.000580831               0.001724824               0.001143994               0.000000000               0.000000000               0.000000000               0.000000000              -0.000090553               0.008055465               0.002603533              -0.001040890               0.003032091               0.001991201               0.000000000               0.000000000               0.000000000               0.000000000              -0.002063783               0.008720379               0.001481541              -0.001863962               0.003528084               0.001664122               0.000000000               0.000000000               0.000000000               0.000000000              -0.003576266               0.009589745               0.000419475              -0.002539812               0.004043154               0.001503342               0.000000000               0.000000000               0.000000000               0.000000000              -0.003694394               0.009270397               0.000084519              -0.002544191               0.003938165               0.001393974               0.000000000               0.000000000               0.000000000               0.000000000              -0.003365634               0.008691859              -0.000042445              -0.002348589               0.003680120               0.001331531               0.000000000               0.000000000               0.000000000               0.000000000              -0.002898781               0.008078648              -0.000090859              -0.002096869               0.003391812               0.001294943               0.000000000               0.000000000               0.000000000               0.000000000              -0.002403577               0.007477726              -0.000095942              -0.001836053               0.003104568               0.001268515               0.000000000               0.000000000               0.000000000               0.000000000              -0.001914254               0.006911732              -0.000078284              -0.001581808               0.002831157               0.001249349               0.000000000               0.000000000               0.000000000               0.000000000              -0.001446854               0.006396929              -0.000057780              -0.001342183               0.002579683               0.001237499               0.000000000               0.000000000               0.000000000               0.000000000              -0.001018121               0.005942059              -0.000036412              -0.001124550               0.002355517               0.001230967               0.000000000               0.000000000               0.000000000               0.000000000              -0.000656248               0.005556659              -0.000014641              -0.000940673               0.002165759               0.001225086               0.000000000               0.000000000               0.000000000               0.000000000              -0.000377459               0.005254161               0.000002806              -0.000798315               0.002017475               0.001219159               0.000000000               0.000000000               0.000000000               0.000000000              -0.000186119               0.005045741               0.000013335              -0.000700510               0.001915400               0.001214890               0.000000000               0.000000000               0.000000000               0.000000000              -0.000077201               0.004924369               0.000007391              -0.000644495               0.001856271               0.001211777               0.000000000               0.000000000               0.000000000               0.000000000              -0.000023917               0.004860467              -0.000006530              -0.000616526               0.001825648               0.001209123               0.000000000               0.000000000               0.000000000               0.000000000              -0.000004850               0.004832930              -0.000009134              -0.000605934               0.001812938               0.001207005               0.000000000               0.000000000               0.000000000               0.000000000              -0.000009502               0.004825026              -0.000008819              -0.000606690               0.001810556               0.001203866               0.000000000               0.000000000               0.000000000               0.000000000              -0.001426684               0.005893335               0.001690613              -0.001271671               0.002388315               0.001116644               0.000000000               0.000000000               0.000000000               0.000000000              -0.003080570               0.007387175               0.001337266              -0.002078606               0.003155235               0.001076630               0.000000000               0.000000000               0.000000000               0.000000000              -0.004341650               0.008825713               0.000909123              -0.002731326               0.003852317               0.001120991               0.000000000               0.000000000               0.000000000               0.000000000              -0.004162958               0.008772502               0.000653133              -0.002657665               0.003810026               0.001152361               0.000000000               0.000000000               0.000000000               0.000000000              -0.003624231               0.008351318               0.000490782              -0.002402996               0.003584743               0.001181748               0.000000000               0.000000000               0.000000000               0.000000000              -0.003002857               0.007837768               0.000386361              -0.002105787               0.003314492               0.001208705               0.000000000               0.000000000               0.000000000               0.000000000              -0.002395432               0.007303449               0.000326166              -0.001811214               0.003038197               0.001226983               0.000000000               0.000000000               0.000000000               0.000000000              -0.001819423               0.006792554               0.000296284              -0.001531349               0.002774612               0.001243263               0.000000000               0.000000000               0.000000000               0.000000000              -0.001277877               0.006330557               0.000275083              -0.001270520               0.002533671               0.001263151               0.000000000               0.000000000               0.000000000               0.000000000              -0.000800371               0.005921486               0.000248171              -0.001040322               0.002320583               0.001280261               0.000000000               0.000000000               0.000000000               0.000000000              -0.000427227               0.005578721               0.000216239              -0.000857548               0.002145404               0.001287856               0.000000000               0.000000000               0.000000000               0.000000000              -0.000167325               0.005321264               0.000176000              -0.000727903               0.002016371               0.001288468               0.000000000               0.000000000               0.000000000               0.000000000              -0.000009495               0.005158342               0.000126637              -0.000648352               0.001935548               0.001287196               0.000000000               0.000000000               0.000000000               0.000000000               0.000058293               0.005060196               0.000071301              -0.000610663               0.001890269               0.001279606               0.000000000               0.000000000               0.000000000               0.000000000               0.000061790               0.004998350               0.000020567              -0.000601621               0.001866640               0.001265019               0.000000000               0.000000000               0.000000000               0.000000000               0.000034393               0.004963917              -0.000009351              -0.000607591               0.001857153               0.001249562               0.000000000               0.000000000               0.000000000               0.000000000               0.000014564               0.004954763              -0.000017380              -0.000613882               0.001856198               0.001242316               0.000000000               0.000000000               0.000000000               0.000000000              -0.002950926               0.003908190               0.000745837              -0.001595118               0.001834422               0.000239305               0.000000000               0.000000000               0.000000000               0.000000000              -0.003939484               0.005841866               0.001181518              -0.002207534               0.002683114               0.000475579               0.000000000               0.000000000               0.000000000               0.000000000              -0.004815990               0.007689937               0.001416838              -0.002767232               0.003485697               0.000718465               0.000000000               0.000000000               0.000000000               0.000000000              -0.004474023               0.008038941               0.001248576              -0.002682620               0.003573827               0.000891207               0.000000000               0.000000000               0.000000000               0.000000000              -0.003848841               0.007900846               0.001051662              -0.002430915               0.003443894               0.001012979               0.000000000               0.000000000               0.000000000               0.000000000              -0.003175918               0.007594803               0.000885349              -0.002140315               0.003245014               0.001104699               0.000000000               0.000000000               0.000000000               0.000000000              -0.002530265               0.007221918               0.000762667              -0.001851585               0.003024477               0.001172892               0.000000000               0.000000000               0.000000000               0.000000000              -0.001923270               0.006831336               0.000681303              -0.001575139               0.002802136               0.001226996               0.000000000               0.000000000               0.000000000               0.000000000              -0.001356370               0.006450377               0.000616280              -0.001314933               0.002588415               0.001273482               0.000000000               0.000000000               0.000000000               0.000000000              -0.000848899               0.006096288               0.000539630              -0.001080370               0.002392199               0.001311829               0.000000000               0.000000000               0.000000000               0.000000000              -0.000436514               0.005774542               0.000452971              -0.000885508               0.002219997               0.001334489               0.000000000               0.000000000               0.000000000               0.000000000              -0.000137369               0.005505975               0.000361793              -0.000739758               0.002081893               0.001342134               0.000000000               0.000000000               0.000000000               0.000000000               0.000053384               0.005303256               0.000266402              -0.000642886               0.001982030               0.001339143               0.000000000               0.000000000               0.000000000               0.000000000               0.000147486               0.005161087               0.000170026              -0.000589827               0.001916954               0.001327127               0.000000000               0.000000000               0.000000000               0.000000000               0.000165050               0.005073245               0.000080785              -0.000572260               0.001881818               0.001309558               0.000000000               0.000000000               0.000000000               0.000000000               0.000131137               0.005024087               0.000020493              -0.000578833               0.001867623               0.001288790               0.000000000               0.000000000               0.000000000               0.000000000               0.000094268               0.005001233              -0.000003435              -0.000589802               0.001863662               0.001273860               0.000000000               0.000000000               0.000000000               0.000000000              -0.004862939               0.002127818              -0.000155483              -0.002089576               0.001405789              -0.000683787               0.000000000               0.000000000               0.000000000               0.000000000              -0.004905487               0.004286628               0.000965783              -0.002375381               0.002220654              -0.000154727               0.000000000               0.000000000               0.000000000               0.000000000              -0.005217441               0.006345253               0.001820326              -0.002749691               0.003031626               0.000281936               0.000000000               0.000000000               0.000000000               0.000000000              -0.004732476               0.007070598               0.001809088              -0.002658497               0.003243008               0.000584511               0.000000000               0.000000000               0.000000000               0.000000000              -0.004053941               0.007250481               0.001615613              -0.002426532               0.003225647               0.000799114               0.000000000               0.000000000               0.000000000               0.000000000              -0.003355988               0.007191577               0.001406575              -0.002157438               0.003116314               0.000958876               0.000000000               0.000000000               0.000000000               0.000000000              -0.002693410               0.007014423               0.001230838              -0.001886827               0.002967060               0.001080233               0.000000000               0.000000000               0.000000000               0.000000000              -0.002075288               0.006775144               0.001100045              -0.001625122               0.002800066               0.001174944               0.000000000               0.000000000               0.000000000               0.000000000              -0.001493709               0.006511364               0.000989361              -0.001374058               0.002628452               0.001254394               0.000000000               0.000000000               0.000000000               0.000000000              -0.000955935               0.006238316               0.000871988              -0.001138262               0.002458838               0.001320576               0.000000000               0.000000000               0.000000000               0.000000000              -0.000484359               0.005961875               0.000745021              -0.000926867               0.002296227               0.001369361               0.000000000               0.000000000               0.000000000               0.000000000              -0.000105179               0.005699580               0.000615033              -0.000751888               0.002150470               0.001398582               0.000000000               0.000000000               0.000000000               0.000000000               0.000171405               0.005468072               0.000483761              -0.000619231               0.002029083               0.001409852               0.000000000               0.000000000               0.000000000               0.000000000               0.000341764               0.005278177               0.000347376              -0.000531609               0.001936578               0.001404969               0.000000000               0.000000000               0.000000000               0.000000000               0.000408423               0.005137297               0.000208889              -0.000489002               0.001875416               0.001386414               0.000000000               0.000000000               0.000000000               0.000000000               0.000385182               0.005051110               0.000088997              -0.000486944               0.001846001               0.001359057               0.000000000               0.000000000               0.000000000               0.000000000               0.000326474               0.005004936               0.000027499              -0.000503188               0.001836025               0.001332837               0.000000000               0.000000000               0.000000000               0.000000000              -0.007034322               0.000700100              -0.000922012              -0.002725380               0.001141819              -0.001583562               0.000000000               0.000000000               0.000000000               0.000000000              -0.006016696               0.002834541               0.000684267              -0.002610574               0.001815026              -0.000795548               0.000000000               0.000000000               0.000000000               0.000000000              -0.005565262               0.004819946               0.002016470              -0.002689461               0.002503118              -0.000186343               0.000000000               0.000000000               0.000000000               0.000000000              -0.004857652               0.005802627               0.002202783              -0.002546942               0.002783169               0.000236227               0.000000000               0.000000000               0.000000000               0.000000000              -0.004109701               0.006274184               0.002066348              -0.002325406               0.002866508               0.000541103               0.000000000               0.000000000               0.000000000               0.000000000              -0.003389876               0.006469722               0.001855216              -0.002079914               0.002849857               0.000769942               0.000000000               0.000000000               0.000000000               0.000000000              -0.002716440               0.006509344               0.001652933              -0.001832329               0.002780536               0.000948207               0.000000000               0.000000000               0.000000000               0.000000000              -0.002094303               0.006457175               0.001488489              -0.001592507               0.002683205               0.001090698               0.000000000               0.000000000               0.000000000               0.000000000              -0.001511378               0.006344187               0.001346451              -0.001359787               0.002567970               0.001208183               0.000000000               0.000000000               0.000000000               0.000000000              -0.000957895               0.006187521               0.001201134              -0.001132648               0.002440036               0.001307387               0.000000000               0.000000000               0.000000000               0.000000000              -0.000446441               0.006000875               0.001047053              -0.000917523               0.002306112               0.001388589               0.000000000               0.000000000               0.000000000               0.000000000               0.000001358               0.005795316               0.000890489              -0.000723904               0.002173054               0.001449150               0.000000000               0.000000000               0.000000000               0.000000000               0.000366392               0.005581037               0.000732727              -0.000560232               0.002047071               0.001486839               0.000000000               0.000000000               0.000000000               0.000000000               0.000637300               0.005377181               0.000563006              -0.000433159               0.001936762               0.001503603               0.000000000               0.000000000               0.000000000               0.000000000               0.000801519               0.005204277               0.000376838              -0.000349964               0.001851396               0.001501432               0.000000000               0.000000000               0.000000000               0.000000000               0.000844610               0.005082581               0.000185905              -0.000318593               0.001800374               0.001481781               0.000000000               0.000000000               0.000000000               0.000000000               0.000807798               0.005022046               0.000083231              -0.000324831               0.001782276               0.001457445               0.000000000               0.000000000               0.000000000               0.000000000              -0.009311386              -0.000296351              -0.001434590              -0.003454723               0.001052783              -0.002401940               0.000000000               0.000000000               0.000000000               0.000000000              -0.007210932               0.001565835               0.000389314              -0.002899825               0.001488543              -0.001411282               0.000000000               0.000000000               0.000000000               0.000000000              -0.005879807               0.003252557               0.001980784              -0.002611493               0.001954669              -0.000656823               0.000000000               0.000000000               0.000000000               0.000000000              -0.004869536               0.004353973               0.002338250              -0.002370318               0.002241414              -0.000128904               0.000000000               0.000000000               0.000000000               0.000000000              -0.004019839               0.005047716               0.002289724              -0.002138400               0.002395354               0.000256954               0.000000000               0.000000000               0.000000000               0.000000000              -0.003270797               0.005470006               0.002115282              -0.001910295               0.002460081               0.000549786               0.000000000               0.000000000               0.000000000               0.000000000              -0.002593354               0.005723435               0.001920122              -0.001687934               0.002470436               0.000782503               0.000000000               0.000000000               0.000000000               0.000000000              -0.001967958               0.005868426               0.001746402              -0.001471535               0.002446633               0.000975099               0.000000000               0.000000000               0.000000000               0.000000000              -0.001386419               0.005922341               0.001592425              -0.001260197               0.002394159               0.001133962               0.000000000               0.000000000               0.000000000               0.000000000              -0.000827605               0.005909805               0.001437913              -0.001049075               0.002319607               0.001270531               0.000000000               0.000000000               0.000000000               0.000000000              -0.000288876               0.005849249               0.001273502              -0.000839483               0.002229558               0.001390075               0.000000000               0.000000000               0.000000000               0.000000000               0.000213804               0.005740172               0.001106606              -0.000637344               0.002125819               0.001488475               0.000000000               0.000000000               0.000000000               0.000000000               0.000664777               0.005592855               0.000938706              -0.000449815               0.002014205               0.001564390               0.000000000               0.000000000               0.000000000               0.000000000               0.001052905               0.005429698               0.000756509              -0.000283872               0.001904505               0.001620633               0.000000000               0.000000000               0.000000000               0.000000000               0.001358354               0.005264042               0.000538267              -0.000148623               0.001804204               0.001655581               0.000000000               0.000000000               0.000000000               0.000000000               0.001552612               0.005122775               0.000281415              -0.000058118               0.001726947               0.001668830               0.000000000               0.000000000               0.000000000               0.000000000               0.001619116               0.005062396               0.000146220              -0.000025631               0.001695992               0.001670361               0.000000000               0.000000000               0.000000000               0.000000000              -0.011478394              -0.000883928              -0.001588525              -0.004193904               0.001103317              -0.003090586               0.000000000               0.000000000               0.000000000               0.000000000              -0.008382374               0.000554594               0.000146284              -0.003212711               0.001255760              -0.001956952               0.000000000               0.000000000               0.000000000               0.000000000              -0.006163599               0.001798197               0.001718196              -0.002536121               0.001444762              -0.001091359               0.000000000               0.000000000               0.000000000               0.000000000              -0.004804882               0.002889443               0.002159934              -0.002163008               0.001684138              -0.000478870               0.000000000               0.000000000               0.000000000               0.000000000              -0.003818846               0.003720853               0.002191297              -0.001897170               0.001872660              -0.000024510               0.000000000               0.000000000               0.000000000               0.000000000              -0.003021699               0.004320827               0.002073816              -0.001673237               0.001998006               0.000324769               0.000000000               0.000000000               0.000000000               0.000000000              -0.002334821               0.004754746               0.001914898              -0.001469898               0.002074865               0.000604967               0.000000000               0.000000000               0.000000000               0.000000000              -0.001711919               0.005071211               0.001761318              -0.001275869               0.002115676               0.000839807               0.000000000               0.000000000               0.000000000               0.000000000              -0.001132435               0.005289191               0.001619525              -0.001085810               0.002124982               0.001039172               0.000000000               0.000000000               0.000000000               0.000000000              -0.000573536               0.005425110               0.001478411              -0.000893213               0.002106089               0.001212876               0.000000000               0.000000000               0.000000000               0.000000000              -0.000016930               0.005501403               0.001327105              -0.000694023               0.002065124               0.001371100               0.000000000               0.000000000               0.000000000               0.000000000               0.000535126               0.005518930               0.001171254              -0.000489193               0.002002689               0.001513496               0.000000000               0.000000000               0.000000000               0.000000000               0.001066444               0.005477461               0.001013108              -0.000284766               0.001920724               0.001635958               0.000000000               0.000000000               0.000000000               0.000000000               0.001568908               0.005390754               0.000838779              -0.000085504               0.001825401               0.001739897               0.000000000               0.000000000               0.000000000               0.000000000               0.002032507               0.005269930               0.000619561               0.000103447               0.001722143               0.001825591               0.000000000               0.000000000               0.000000000               0.000000000               0.002441613               0.005138812               0.000338085               0.000273251               0.001621837               0.001895087               0.000000000               0.000000000               0.000000000               0.000000000               0.002685846               0.005096808               0.000193419               0.000370088               0.001575556               0.001945644               0.000000000               0.000000000               0.000000000               0.000000000              -0.013299219              -0.001172043              -0.001345969              -0.004840699               0.001222876              -0.003617822               0.000000000               0.000000000               0.000000000               0.000000000              -0.009389958              -0.000170606               0.000006378              -0.003499906               0.001109759              -0.002390147               0.000000000               0.000000000               0.000000000               0.000000000              -0.006400130               0.000614290               0.001262802              -0.002476833               0.001030367              -0.001446466               0.000000000               0.000000000               0.000000000               0.000000000              -0.004708827               0.001615822               0.001665148              -0.001967785               0.001194527              -0.000773258               0.000000000               0.000000000               0.000000000               0.000000000              -0.003581280               0.002510263               0.001733348              -0.001656760               0.001388998              -0.000267762               0.000000000               0.000000000               0.000000000               0.000000000              -0.002732485               0.003228063               0.001668246              -0.001428187               0.001552072               0.000123885               0.000000000               0.000000000               0.000000000               0.000000000              -0.002024985               0.003793778               0.001561438              -0.001233589               0.001675776               0.000442187               0.000000000               0.000000000               0.000000000               0.000000000              -0.001396429               0.004243592               0.001451358              -0.001054108               0.001765885               0.000711777               0.000000000               0.000000000               0.000000000               0.000000000              -0.000814746               0.004597733               0.001345726              -0.000880245               0.001825977               0.000945732               0.000000000               0.000000000               0.000000000               0.000000000              -0.000255094               0.004862023               0.001241054              -0.000703412               0.001855129               0.001151717               0.000000000               0.000000000               0.000000000               0.000000000               0.000312782               0.005057969               0.001129816              -0.000514952               0.001857623               0.001342671               0.000000000               0.000000000               0.000000000               0.000000000               0.000896303               0.005193227               0.001008537              -0.000313040               0.001835405               0.001522365               0.000000000               0.000000000               0.000000000               0.000000000               0.001487322               0.005264145               0.000879544              -0.000100273               0.001788121               0.001687849               0.000000000               0.000000000               0.000000000               0.000000000               0.002086311               0.005274107               0.000740400               0.000123102               0.001716984               0.001840086               0.000000000               0.000000000               0.000000000               0.000000000               0.002701879               0.005222442               0.000564555               0.000360396               0.001620665               0.001981060               0.000000000               0.000000000               0.000000000               0.000000000               0.003328664               0.005119985               0.000317892               0.000608245               0.001503896               0.002112141               0.000000000               0.000000000               0.000000000               0.000000000               0.003767502               0.005106272               0.000191284               0.000774521               0.001443900               0.002218421               0.000000000               0.000000000               0.000000000               0.000000000              -0.014527581              -0.001285069              -0.000770897              -0.005287206               0.001334036              -0.003953169               0.000000000               0.000000000               0.000000000               0.000000000              -0.010082740              -0.000608068              -0.000029105              -0.003705016               0.001032309              -0.002672707               0.000000000               0.000000000               0.000000000               0.000000000              -0.006563641              -0.000164902               0.000668650              -0.002440751               0.000758611              -0.001682140               0.000000000               0.000000000               0.000000000               0.000000000              -0.004626167               0.000741349               0.000908078              -0.001827479               0.000856270              -0.000971209               0.000000000               0.000000000               0.000000000               0.000000000              -0.003396651               0.001649324               0.000959853              -0.001479907               0.001043070              -0.000436837               0.000000000               0.000000000               0.000000000               0.000000000              -0.002506066               0.002434815               0.000932444              -0.001244124               0.001226304              -0.000017820               0.000000000               0.000000000               0.000000000               0.000000000              -0.001779497               0.003084226               0.000881131              -0.001052837               0.001379011               0.000326173               0.000000000               0.000000000               0.000000000               0.000000000              -0.001141565               0.003616741               0.000824911              -0.000880178               0.001498961               0.000618783               0.000000000               0.000000000               0.000000000               0.000000000              -0.000550647               0.004055413               0.000768900              -0.000713418               0.001589596               0.000876179               0.000000000               0.000000000               0.000000000               0.000000000               0.000016418               0.004404876               0.000716289              -0.000544452               0.001649761               0.001105309               0.000000000               0.000000000               0.000000000               0.000000000               0.000586951               0.004682599               0.000660321              -0.000365218               0.001682590               0.001317372               0.000000000               0.000000000               0.000000000               0.000000000               0.001181240               0.004898558               0.000592371              -0.000169355               0.001689288               0.001519933               0.000000000               0.000000000               0.000000000               0.000000000               0.001811786               0.005051929               0.000516190               0.000047928               0.001667984               0.001715911               0.000000000               0.000000000               0.000000000               0.000000000               0.002484350               0.005142111               0.000440939               0.000288865               0.001617732               0.001906596               0.000000000               0.000000000               0.000000000               0.000000000               0.003207569               0.005163033               0.000344855               0.000557454               0.001535176               0.002092629               0.000000000               0.000000000               0.000000000               0.000000000               0.003999843               0.005103977               0.000196090               0.000861935               0.001413997               0.002275932               0.000000000               0.000000000               0.000000000               0.000000000               0.004599178               0.005118980               0.000119729               0.001084809               0.001344707               0.002429515               0.000000000               0.000000000               0.000000000               0.000000000              -0.014961796              -0.001308633              -0.000000000              -0.005447091               0.001379477              -0.004067614               0.000000000               0.000000000               0.000000000               0.000000000              -0.010330726              -0.000751634               0.000000000              -0.003780065               0.001009470              -0.002770595               0.000000000               0.000000000               0.000000000               0.000000000              -0.006623159              -0.000438254               0.000000000              -0.002428901               0.000663545              -0.001765357               0.000000000               0.000000000               0.000000000               0.000000000              -0.004593604               0.000428144               0.000000000              -0.001776118               0.000734749              -0.001041369               0.000000000               0.000000000               0.000000000               0.000000000              -0.003327438               0.001339167               0.000000000              -0.001415183               0.000918110              -0.000497073               0.000000000               0.000000000               0.000000000               0.000000000              -0.002419255               0.002146236              -0.000000000              -0.001175498               0.001107237              -0.000068261               0.000000000               0.000000000               0.000000000               0.000000000              -0.001685450               0.002822680              -0.000000000              -0.000984876               0.001269176               0.000284300               0.000000000               0.000000000               0.000000000               0.000000000              -0.001045594               0.003380872              -0.000000000              -0.000814705               0.001398514               0.000583810               0.000000000               0.000000000               0.000000000               0.000000000              -0.000449058               0.003848684              -0.000000000              -0.000649481               0.001499375               0.000849895               0.000000000               0.000000000               0.000000000               0.000000000               0.000123911               0.004232258              -0.000000000              -0.000482565               0.001571593               0.001089029               0.000000000               0.000000000               0.000000000               0.000000000               0.000691422               0.004537060               0.000000000              -0.000307848               0.001614954               0.001307106               0.000000000               0.000000000               0.000000000               0.000000000               0.001285223               0.004776644               0.000000000              -0.000115122               0.001630573               0.001515451               0.000000000               0.000000000               0.000000000               0.000000000               0.001932546               0.004959078               0.000000000               0.000104819               0.001618070               0.001722889               0.000000000               0.000000000               0.000000000               0.000000000               0.002636464               0.005079547              -0.000000000               0.000353727               0.001575256               0.001928984               0.000000000               0.000000000               0.000000000               0.000000000               0.003395939               0.005130405               0.000000000               0.000632170               0.001499395               0.002131565               0.000000000               0.000000000               0.000000000               0.000000000               0.004250732               0.005095454               0.000000000               0.000957083               0.001379440               0.002336523               0.000000000               0.000000000               0.000000000               0.000000000               0.004915912               0.005125812              -0.000000000               0.001202728               0.001307678               0.002510406               0.000000000               0.000000000               0.000000000               0.000000000               0.002215888               0.023243517              -0.000000000              -0.002074477               0.008439254               0.006364777               0.000000000               0.000000000               0.000000000               0.000000000               0.002103947               0.017751447              -0.000000000              -0.001429947               0.006393739               0.004963792               0.000000000               0.000000000               0.000000000               0.000000000               0.002681252               0.013295091              -0.000000000              -0.000656415               0.004650458               0.003994043               0.000000000               0.000000000               0.000000000               0.000000000               0.002461016               0.010782407               0.000000000              -0.000424919               0.003735739               0.003310820               0.000000000               0.000000000               0.000000000               0.000000000               0.002029286               0.009186723               0.000000000              -0.000387357               0.003191329               0.002803972               0.000000000               0.000000000               0.000000000               0.000000000               0.001585620               0.008054430              -0.000000000              -0.000412195               0.002822182               0.002409986               0.000000000               0.000000000               0.000000000               0.000000000               0.001201082               0.007169567              -0.000000000              -0.000445789               0.002538428               0.002092639               0.000000000               0.000000000               0.000000000               0.000000000               0.000875597               0.006420741               0.000000000              -0.000474243               0.002298307               0.001824064               0.000000000               0.000000000               0.000000000               0.000000000               0.000600679               0.005752538              -0.000000000              -0.000493812               0.002082097               0.001588286               0.000000000               0.000000000               0.000000000               0.000000000               0.000386082               0.005132127              -0.000000000              -0.000496734               0.001876270               0.001379536               0.000000000               0.000000000               0.000000000               0.000000000               0.000217716               0.004527590               0.000000000              -0.000484304               0.001670616               0.001186312               0.000000000               0.000000000               0.000000000               0.000000000               0.000084656               0.003913174               0.000000000              -0.000457400               0.001456845               0.000999445               0.000000000               0.000000000               0.000000000               0.000000000              -0.000011523               0.003264730               0.000000000              -0.000412412               0.001225703               0.000813291               0.000000000               0.000000000               0.000000000               0.000000000              -0.000069388               0.002565584              -0.000000000              -0.000346718               0.000970759               0.000624041               0.000000000               0.000000000               0.000000000               0.000000000              -0.000084936               0.001794585               0.000000000              -0.000256174               0.000683580               0.000427406               0.000000000               0.000000000               0.000000000               0.000000000              -0.000053998               0.000928344              -0.000000000              -0.000136292               0.000354876               0.000218583               0.000000000               0.000000000               0.000000000               0.000000000              -0.000095028               0.000272993              -0.000000000              -0.000069760               0.000114250               0.000044490               0.000000000               0.000000000               0.000000000               0.000000000               0.002267298               0.022727262              -0.001504290              -0.001990666               0.008239234               0.006248567               0.000000000               0.000000000               0.000000000               0.000000000               0.002026130               0.017427381              -0.000642255              -0.001418620               0.006281942               0.004863322               0.000000000               0.000000000               0.000000000               0.000000000               0.002465768               0.013174695               0.000203194              -0.000722172               0.004632245               0.003910073               0.000000000               0.000000000               0.000000000               0.000000000               0.002195052               0.010767911               0.000542489              -0.000522843               0.003763549               0.003240706               0.000000000               0.000000000               0.000000000               0.000000000               0.001755410               0.009226219               0.000664113              -0.000494998               0.003240375               0.002745377               0.000000000               0.000000000               0.000000000               0.000000000               0.001323382               0.008118914               0.000688599              -0.000518595               0.002879143               0.002360547               0.000000000               0.000000000               0.000000000               0.000000000               0.000957815               0.007245315               0.000672541              -0.000546483               0.002597242               0.002050759               0.000000000               0.000000000               0.000000000               0.000000000               0.000659679               0.006505935               0.000642654              -0.000565861               0.002357244               0.001791382               0.000000000               0.000000000               0.000000000               0.000000000               0.000417738               0.005842080               0.000610023              -0.000573607               0.002138543               0.001564936               0.000000000               0.000000000               0.000000000               0.000000000               0.000230835               0.005221365               0.000575394              -0.000566106               0.001929140               0.001363033               0.000000000               0.000000000               0.000000000               0.000000000               0.000090855               0.004617368               0.000538010              -0.000543099               0.001720140               0.001177041               0.000000000               0.000000000               0.000000000               0.000000000              -0.000009545               0.004008958               0.000494158              -0.000504698               0.001504539               0.000999841               0.000000000               0.000000000               0.000000000               0.000000000              -0.000076200               0.003374872               0.000441177              -0.000450433               0.001275090               0.000824657               0.000000000               0.000000000               0.000000000               0.000000000              -0.000108701               0.002701413               0.000374128              -0.000378439               0.001026608               0.000648169               0.000000000               0.000000000               0.000000000               0.000000000              -0.000104953               0.001974375               0.000282061              -0.000286154               0.000753503               0.000467349               0.000000000               0.000000000               0.000000000               0.000000000              -0.000062547               0.001179336               0.000158070              -0.000170872               0.000450065               0.000279193               0.000000000               0.000000000               0.000000000               0.000000000              -0.000093462               0.000588112               0.000099576              -0.000108562               0.000232223               0.000123660               0.000000000               0.000000000               0.000000000               0.000000000               0.002376774               0.021252148              -0.002775452              -0.001765225               0.007672387               0.005907162               0.000000000               0.000000000               0.000000000               0.000000000               0.001783255               0.016512935              -0.001180371              -0.001395393               0.005969388               0.004573994               0.000000000               0.000000000               0.000000000               0.000000000               0.001846529               0.012834920               0.000367641              -0.000911915               0.004582235               0.003670321               0.000000000               0.000000000               0.000000000               0.000000000               0.001448411               0.010717412               0.000964388              -0.000796521               0.003837942               0.003041421               0.000000000               0.000000000               0.000000000               0.000000000               0.001001354               0.009317851               0.001166386              -0.000789222               0.003368993               0.002579771               0.000000000               0.000000000               0.000000000               0.000000000               0.000617767               0.008277503               0.001198615              -0.000803024               0.003026814               0.002223791               0.000000000               0.000000000               0.000000000               0.000000000               0.000319100               0.007438787               0.001165623              -0.000810184               0.002749632               0.001939448               0.000000000               0.000000000               0.000000000               0.000000000               0.000095179               0.006717955               0.001110313              -0.000804051               0.002507313               0.001703262               0.000000000               0.000000000               0.000000000               0.000000000              -0.000064148               0.006065212               0.001048938              -0.000782206               0.002282452               0.001500247               0.000000000               0.000000000               0.000000000               0.000000000              -0.000169272               0.005448702               0.000986391              -0.000744563               0.002064403               0.001319840               0.000000000               0.000000000               0.000000000               0.000000000              -0.000225268               0.004850709               0.000921994              -0.000690813               0.001847157               0.001156345               0.000000000               0.000000000               0.000000000               0.000000000              -0.000239139               0.004260040               0.000846983              -0.000622181               0.001627393               0.001005212               0.000000000               0.000000000               0.000000000               0.000000000              -0.000230004               0.003666072               0.000753612              -0.000544509               0.001403515               0.000859005               0.000000000               0.000000000               0.000000000               0.000000000              -0.000199781               0.003065074               0.000635314              -0.000458051               0.001174365               0.000716314               0.000000000               0.000000000               0.000000000               0.000000000              -0.000146814               0.002460165               0.000477632              -0.000362575               0.000940905               0.000578330               0.000000000               0.000000000               0.000000000               0.000000000              -0.000078749               0.001854780               0.000267523              -0.000261378               0.000705380               0.000444002               0.000000000               0.000000000               0.000000000               0.000000000              -0.000083294               0.001439355               0.000162906              -0.000211154               0.000550165               0.000339011               0.000000000               0.000000000               0.000000000               0.000000000               0.002436700               0.019025468              -0.003632985              -0.001464419               0.006829898               0.005365479               0.000000000               0.000000000               0.000000000               0.000000000               0.001356595               0.015158402              -0.001540073              -0.001386074               0.005514775               0.004128700               0.000000000               0.000000000               0.000000000               0.000000000               0.000903419               0.012333450               0.000460132              -0.001202896               0.004512074               0.003309178               0.000000000               0.000000000               0.000000000               0.000000000               0.000370186               0.010617063               0.001182288              -0.001188310               0.003935089               0.002746778               0.000000000               0.000000000               0.000000000               0.000000000              -0.000052700               0.009405168               0.001403822              -0.001195406               0.003533493               0.002338087               0.000000000               0.000000000               0.000000000               0.000000000              -0.000342373               0.008457012               0.001423813              -0.001185514               0.003214147               0.002028633               0.000000000               0.000000000               0.000000000               0.000000000              -0.000521808               0.007665851               0.001371164              -0.001153907               0.002939894               0.001785987               0.000000000               0.000000000               0.000000000               0.000000000              -0.000621627               0.006966474               0.001297777              -0.001103917               0.002690107               0.001586190               0.000000000               0.000000000               0.000000000               0.000000000              -0.000655274               0.006325358               0.001220846              -0.001036395               0.002453897               0.001417501               0.000000000               0.000000000               0.000000000               0.000000000              -0.000635284               0.005720301               0.001141385              -0.000953267               0.002224503               0.001271236               0.000000000               0.000000000               0.000000000               0.000000000              -0.000574472               0.005139795               0.001058184              -0.000857900               0.001999214               0.001141314               0.000000000               0.000000000               0.000000000               0.000000000              -0.000486933               0.004579652               0.000961224              -0.000755055               0.001778220               0.001023165               0.000000000               0.000000000               0.000000000               0.000000000              -0.000384992               0.004044786               0.000841652              -0.000649969               0.001564905               0.000914936               0.000000000               0.000000000               0.000000000               0.000000000              -0.000276021               0.003545458               0.000695182              -0.000546689               0.001364037               0.000817348               0.000000000               0.000000000               0.000000000               0.000000000              -0.000171437               0.003100320               0.000510024              -0.000451828               0.001184039               0.000732211               0.000000000               0.000000000               0.000000000               0.000000000              -0.000082496               0.002732700               0.000278866              -0.000372523               0.001035065               0.000662542               0.000000000               0.000000000               0.000000000               0.000000000              -0.000057410               0.002530174               0.000159661              -0.000337800               0.000955983               0.000618183               0.000000000               0.000000000               0.000000000               0.000000000               0.002310798               0.016333201              -0.003990554              -0.001175101               0.005836046               0.004660945               0.000000000               0.000000000               0.000000000               0.000000000               0.000736957               0.013548735              -0.001705084              -0.001417230               0.004988610               0.003571379               0.000000000               0.000000000               0.000000000               0.000000000              -0.000244104               0.011723792               0.000440907              -0.001557009               0.004426895               0.002869885               0.000000000               0.000000000               0.000000000               0.000000000              -0.000851873               0.010438833               0.001154457              -0.001624303               0.004021010               0.002396707               0.000000000               0.000000000               0.000000000               0.000000000              -0.001180861               0.009421102               0.001348417              -0.001620457               0.003680488               0.002060031               0.000000000               0.000000000               0.000000000               0.000000000              -0.001324367               0.008570067               0.001348497              -0.001567892               0.003379291               0.001811399               0.000000000               0.000000000               0.000000000               0.000000000              -0.001344171               0.007827216               0.001284426              -0.001482463               0.003103200               0.001620737               0.000000000               0.000000000               0.000000000               0.000000000              -0.001283841               0.007152349               0.001205901              -0.001375481               0.002842586               0.001467105               0.000000000               0.000000000               0.000000000               0.000000000              -0.001169829               0.006524078               0.001124541              -0.001254193               0.002592735               0.001338542               0.000000000               0.000000000               0.000000000               0.000000000              -0.001016919               0.005935045               0.001037807              -0.001123223               0.002352736               0.001229513               0.000000000               0.000000000               0.000000000               0.000000000              -0.000841359               0.005383671               0.000941666              -0.000988466               0.002124028               0.001135561               0.000000000               0.000000000               0.000000000               0.000000000              -0.000658349               0.004870783               0.000830828              -0.000855727               0.001908820               0.001053093               0.000000000               0.000000000               0.000000000               0.000000000              -0.000475113               0.004410712               0.000701686              -0.000729505               0.001713391               0.000983886               0.000000000               0.000000000               0.000000000               0.000000000              -0.000307711               0.004022409               0.000555532              -0.000618191               0.001546853               0.000928662               0.000000000               0.000000000               0.000000000               0.000000000              -0.000170261               0.003732018               0.000389712              -0.000530349               0.001420777               0.000890428               0.000000000               0.000000000               0.000000000               0.000000000              -0.000073529               0.003557591               0.000202725              -0.000472271               0.001343276               0.000871005               0.000000000               0.000000000               0.000000000               0.000000000              -0.000034037               0.003501675               0.000104233              -0.000450472               0.001317371               0.000866899               0.000000000               0.000000000               0.000000000               0.000000000               0.001871324               0.013456589              -0.003872253              -0.000980328               0.004812260               0.003831932               0.000000000               0.000000000               0.000000000               0.000000000              -0.000070618               0.011853036              -0.001713576              -0.001508109               0.004453675               0.002945566               0.000000000               0.000000000               0.000000000               0.000000000              -0.001454974               0.011048888               0.000284021              -0.001926722               0.004325166               0.002398445               0.000000000               0.000000000               0.000000000               0.000000000              -0.002023628               0.010160378               0.000894410              -0.002028903               0.004063060               0.002034157               0.000000000               0.000000000               0.000000000               0.000000000              -0.002185624               0.009313111               0.001044419              -0.001983743               0.003765587               0.001781844               0.000000000               0.000000000               0.000000000               0.000000000              -0.002137767               0.008546373               0.001037767              -0.001869955               0.003472081               0.001602126               0.000000000               0.000000000               0.000000000               0.000000000              -0.001973487               0.007851155               0.000978867              -0.001721448               0.003190841               0.001469393               0.000000000               0.000000000               0.000000000               0.000000000              -0.001749458               0.007203737               0.000906474              -0.001556510               0.002920058               0.001363548               0.000000000               0.000000000               0.000000000               0.000000000              -0.001496200               0.006597349               0.000829737              -0.001385740               0.002661008               0.001275267               0.000000000               0.000000000               0.000000000               0.000000000              -0.001224535               0.006037565               0.000747231              -0.001213893               0.002417133               0.001203239               0.000000000               0.000000000               0.000000000               0.000000000              -0.000951980               0.005528620               0.000655075              -0.001048067               0.002192211               0.001144143               0.000000000               0.000000000               0.000000000               0.000000000              -0.000693825               0.005082409               0.000551863              -0.000895483               0.001992614               0.001097130               0.000000000               0.000000000               0.000000000               0.000000000              -0.000463261               0.004713909               0.000438613              -0.000762960               0.001825607               0.001062648               0.000000000               0.000000000               0.000000000               0.000000000              -0.000282690               0.004434749               0.000326338              -0.000660351               0.001698352               0.001038001               0.000000000               0.000000000               0.000000000               0.000000000              -0.000149022               0.004262571               0.000215852              -0.000588703               0.001617077               0.001028374               0.000000000               0.000000000               0.000000000               0.000000000              -0.000058754               0.004192083               0.000103432              -0.000546042               0.001579361               0.001033319               0.000000000               0.000000000               0.000000000               0.000000000              -0.000021442               0.004188887               0.000045626              -0.000531650               0.001573499               0.001041848               0.000000000               0.000000000               0.000000000               0.000000000               0.001057109               0.010637806              -0.003371789              -0.000933310               0.003857002               0.002923692               0.000000000               0.000000000               0.000000000               0.000000000              -0.001023408               0.010211205              -0.001620789              -0.001660175               0.003957092               0.002296917               0.000000000               0.000000000               0.000000000               0.000000000              -0.002602462               0.010337928              -0.000008517              -0.002268159               0.004201994               0.001933836               0.000000000               0.000000000               0.000000000               0.000000000              -0.002999992               0.009771266               0.000456173              -0.002346400               0.004039189               0.001692790               0.000000000               0.000000000               0.000000000               0.000000000              -0.002930260               0.009064591               0.000576826              -0.002231916               0.003765472               0.001533556               0.000000000               0.000000000               0.000000000               0.000000000              -0.002667587               0.008373189               0.000586585              -0.002046989               0.003473364               0.001426376               0.000000000               0.000000000               0.000000000               0.000000000              -0.002325459               0.007722016               0.000550700              -0.001837294               0.003186411               0.001349117               0.000000000               0.000000000               0.000000000               0.000000000              -0.001955579               0.007109282               0.000496443              -0.001621998               0.002910403               0.001288405               0.000000000               0.000000000               0.000000000               0.000000000              -0.001582064               0.006540937               0.000440199              -0.001410888               0.002650586               0.001239699               0.000000000               0.000000000               0.000000000               0.000000000              -0.001216697               0.006029444               0.000378934              -0.001209939               0.002413108               0.001203169               0.000000000               0.000000000               0.000000000               0.000000000              -0.000878240               0.005579559               0.000313603              -0.001026782               0.002202095               0.001175313               0.000000000               0.000000000               0.000000000               0.000000000              -0.000582584               0.005208741               0.000245129              -0.000869559               0.002026083               0.001156523               0.000000000               0.000000000               0.000000000               0.000000000              -0.000349953               0.004926280               0.000173891              -0.000747015               0.001891082               0.001144067               0.000000000               0.000000000               0.000000000               0.000000000              -0.000193410               0.004737512               0.000116290              -0.000664716               0.001800727               0.001136011               0.000000000               0.000000000               0.000000000               0.000000000              -0.000094286               0.004636453               0.000073289              -0.000614912               0.001750440               0.001135527               0.000000000               0.000000000               0.000000000               0.000000000              -0.000034039               0.004599565               0.000032110              -0.000587709               0.001729076               0.001141367               0.000000000               0.000000000               0.000000000               0.000000000              -0.000017656               0.004593688               0.000013354              -0.000580831               0.001724824               0.001143994               0.000000000               0.000000000               0.000000000               0.000000000              -0.000090553               0.008055465              -0.002603533              -0.001040890               0.003032091               0.001991201               0.000000000               0.000000000               0.000000000               0.000000000              -0.002063783               0.008720379              -0.001481541              -0.001863962               0.003528084               0.001664122               0.000000000               0.000000000               0.000000000               0.000000000              -0.003576266               0.009589745              -0.000419475              -0.002539812               0.004043154               0.001503342               0.000000000               0.000000000               0.000000000               0.000000000              -0.003694394               0.009270397              -0.000084519              -0.002544191               0.003938165               0.001393974               0.000000000               0.000000000               0.000000000               0.000000000              -0.003365634               0.008691859               0.000042445              -0.002348589               0.003680120               0.001331531               0.000000000               0.000000000               0.000000000               0.000000000              -0.002898781               0.008078648               0.000090859              -0.002096869               0.003391812               0.001294943               0.000000000               0.000000000               0.000000000               0.000000000              -0.002403577               0.007477726               0.000095942              -0.001836053               0.003104568               0.001268515               0.000000000               0.000000000               0.000000000               0.000000000              -0.001914254               0.006911732               0.000078284              -0.001581808               0.002831157               0.001249349               0.000000000               0.000000000               0.000000000               0.000000000              -0.001446854               0.006396929               0.000057780              -0.001342183               0.002579683               0.001237499               0.000000000               0.000000000               0.000000000               0.000000000              -0.001018121               0.005942059               0.000036412              -0.001124550               0.002355517               0.001230967               0.000000000               0.000000000               0.000000000               0.000000000              -0.000656248               0.005556659               0.000014641              -0.000940673               0.002165759               0.001225086               0.000000000               0.000000000               0.000000000               0.000000000              -0.000377459               0.005254161              -0.000002806              -0.000798315               0.002017475               0.001219159               0.000000000               0.000000000               0.000000000               0.000000000              -0.000186119               0.005045741              -0.000013335              -0.000700510               0.001915400               0.001214890               0.000000000               0.000000000               0.000000000               0.000000000              -0.000077201               0.004924369              -0.000007391              -0.000644495               0.001856271               0.001211777               0.000000000               0.000000000               0.000000000               0.000000000              -0.000023917               0.004860467               0.000006530              -0.000616526               0.001825648               0.001209123               0.000000000               0.000000000               0.000000000               0.000000000              -0.000004850               0.004832930               0.000009134              -0.000605934               0.001812938               0.001207005               0.000000000               0.000000000               0.000000000               0.000000000              -0.000009502               0.004825026               0.000008819              -0.000606690               0.001810556               0.001203866               0.000000000               0.000000000               0.000000000               0.000000000              -0.001426684               0.005893335              -0.001690613              -0.001271671               0.002388315               0.001116644               0.000000000               0.000000000               0.000000000               0.000000000              -0.003080570               0.007387175              -0.001337266              -0.002078606               0.003155235               0.001076630               0.000000000               0.000000000               0.000000000               0.000000000              -0.004341650               0.008825713              -0.000909123              -0.002731326               0.003852317               0.001120991               0.000000000               0.000000000               0.000000000               0.000000000              -0.004162958               0.008772502              -0.000653133              -0.002657665               0.003810026               0.001152361               0.000000000               0.000000000               0.000000000               0.000000000              -0.003624231               0.008351318              -0.000490782              -0.002402996               0.003584743               0.001181748               0.000000000               0.000000000               0.000000000               0.000000000              -0.003002857               0.007837768              -0.000386361              -0.002105787               0.003314492               0.001208705               0.000000000               0.000000000               0.000000000               0.000000000              -0.002395432               0.007303449              -0.000326166              -0.001811214               0.003038197               0.001226983               0.000000000               0.000000000               0.000000000               0.000000000              -0.001819423               0.006792554              -0.000296284              -0.001531349               0.002774612               0.001243263               0.000000000               0.000000000               0.000000000               0.000000000              -0.001277877               0.006330557              -0.000275083              -0.001270520               0.002533671               0.001263151               0.000000000               0.000000000               0.000000000               0.000000000              -0.000800371               0.005921486              -0.000248171              -0.001040322               0.002320583               0.001280261               0.000000000               0.000000000               0.000000000               0.000000000              -0.000427227               0.005578721              -0.000216239              -0.000857548               0.002145404               0.001287856               0.000000000               0.000000000               0.000000000               0.000000000              -0.000167325               0.005321264              -0.000176000              -0.000727903               0.002016371               0.001288468               0.000000000               0.000000000               0.000000000               0.000000000              -0.000009495               0.005158342              -0.000126637              -0.000648352               0.001935548               0.001287196               0.000000000               0.000000000               0.000000000               0.000000000               0.000058293               0.005060196              -0.000071301              -0.000610663               0.001890269               0.001279606               0.000000000               0.000000000               0.000000000               0.000000000               0.000061790               0.004998350              -0.000020567              -0.000601621               0.001866640               0.001265019               0.000000000               0.000000000               0.000000000               0.000000000               0.000034393               0.004963917               0.000009351              -0.000607591               0.001857153               0.001249562               0.000000000               0.000000000               0.000000000               0.000000000               0.000014564               0.004954763               0.000017380              -0.000613882               0.001856198               0.001242316               0.000000000               0.000000000               0.000000000               0.000000000              -0.002950926               0.003908190              -0.000745837              -0.001595118               0.001834422               0.000239305               0.000000000               0.000000000               0.000000000               0.000000000              -0.003939484               0.005841866              -0.001181518              -0.002207534               0.002683114               0.000475579               0.000000000               0.000000000               0.000000000               0.000000000              -0.004815990               0.007689937              -0.001416838              -0.002767232               0.003485697               0.000718465               0.000000000               0.000000000               0.000000000               0.000000000              -0.004474023               0.008038941              -0.001248576              -0.002682620               0.003573827               0.000891207               0.000000000               0.000000000               0.000000000               0.000000000              -0.003848841               0.007900846              -0.001051662              -0.002430915               0.003443894               0.001012979               0.000000000               0.000000000               0.000000000               0.000000000              -0.003175918               0.007594803              -0.000885349              -0.002140315               0.003245014               0.001104699               0.000000000               0.000000000               0.000000000               0.000000000              -0.002530265               0.007221918              -0.000762667              -0.001851585               0.003024477               0.001172892               0.000000000               0.000000000               0.000000000               0.000000000              -0.001923270               0.006831336              -0.000681303              -0.001575139               0.002802136               0.001226996               0.000000000               0.000000000               0.000000000               0.000000000              -0.001356370               0.006450377              -0.000616280              -0.001314933               0.002588415               0.001273482               0.000000000               0.000000000               0.000000000               0.000000000              -0.000848899               0.006096288              -0.000539630              -0.001080370               0.002392199               0.001311829               0.000000000               0.000000000               0.000000000               0.000000000              -0.000436514               0.005774542              -0.000452971              -0.000885508               0.002219997               0.001334489               0.000000000               0.000000000               0.000000000               0.000000000              -0.000137369               0.005505975              -0.000361793              -0.000739758               0.002081893               0.001342134               0.000000000               0.000000000               0.000000000               0.000000000               0.000053384               0.005303256              -0.000266402              -0.000642886               0.001982030               0.001339143               0.000000000               0.000000000               0.000000000               0.000000000               0.000147486               0.005161087              -0.000170026              -0.000589827               0.001916954               0.001327127               0.000000000               0.000000000               0.000000000               0.000000000               0.000165050               0.005073245              -0.000080785              -0.000572260               0.001881818               0.001309558               0.000000000               0.000000000               0.000000000               0.000000000               0.000131137               0.005024087              -0.000020493              -0.000578833               0.001867623               0.001288790               0.000000000               0.000000000               0.000000000               0.000000000               0.000094268               0.005001233               0.000003435              -0.000589802               0.001863662               0.001273860               0.000000000               0.000000000               0.000000000               0.000000000              -0.004862939               0.002127818               0.000155483              -0.002089576               0.001405789              -0.000683787               0.000000000               0.000000000               0.000000000               0.000000000              -0.004905487               0.004286628              -0.000965783              -0.002375381               0.002220654              -0.000154727               0.000000000               0.000000000               0.000000000               0.000000000              -0.005217441               0.006345253              -0.001820326              -0.002749691               0.003031626               0.000281936               0.000000000               0.000000000               0.000000000               0.000000000              -0.004732476               0.007070598              -0.001809088              -0.002658497               0.003243008               0.000584511               0.000000000               0.000000000               0.000000000               0.000000000              -0.004053941               0.007250481              -0.001615613              -0.002426532               0.003225647               0.000799114               0.000000000               0.000000000               0.000000000               0.000000000              -0.003355988               0.007191577              -0.001406575              -0.002157438               0.003116314               0.000958876               0.000000000               0.000000000               0.000000000               0.000000000              -0.002693410               0.007014423              -0.001230838              -0.001886827               0.002967060               0.001080233               0.000000000               0.000000000               0.000000000               0.000000000              -0.002075288               0.006775144              -0.001100045              -0.001625122               0.002800066               0.001174944               0.000000000               0.000000000               0.000000000               0.000000000              -0.001493709               0.006511364              -0.000989361              -0.001374058               0.002628452               0.001254394               0.000000000               0.000000000               0.000000000               0.000000000              -0.000955935               0.006238316              -0.000871988              -0.001138262               0.002458838               0.001320576               0.000000000               0.000000000               0.000000000               0.000000000              -0.000484359               0.005961875              -0.000745021              -0.000926867               0.002296227               0.001369361               0.000000000               0.000000000               0.000000000               0.000000000              -0.000105179               0.005699580              -0.000615033              -0.000751888               0.002150470               0.001398582               0.000000000               0.000000000               0.000000000               0.000000000               0.000171405               0.005468072              -0.000483761              -0.000619231               0.002029083               0.001409852               0.000000000               0.000000000               0.000000000               0.000000000               0.000341764               0.005278177              -0.000347376              -0.000531609               0.001936578               0.001404969               0.000000000               0.000000000               0.000000000               0.000000000               0.000408423               0.005137297              -0.000208889              -0.000489002               0.001875416               0.001386414               0.000000000               0.000000000               0.000000000               0.000000000               0.000385182               0.005051110              -0.000088997              -0.000486944               0.001846001               0.001359057               0.000000000               0.000000000               0.000000000               0.000000000               0.000326474               0.005004936              -0.000027499              -0.000503188               0.001836025               0.001332837               0.000000000               0.000000000               0.000000000               0.000000000              -0.007034322               0.000700100               0.000922012              -0.002725380               0.001141819              -0.001583562               0.000000000               0.000000000               0.000000000               0.000000000              -0.006016696               0.002834541              -0.000684267              -0.002610574               0.001815026              -0.000795548               0.000000000               0.000000000               0.000000000               0.000000000              -0.005565262               0.004819946              -0.002016470              -0.002689461               0.002503118              -0.000186343               0.000000000               0.000000000               0.000000000               0.000000000              -0.004857652               0.005802627              -0.002202783              -0.002546942               0.002783169               0.000236227               0.000000000               0.000000000               0.000000000               0.000000000              -0.004109701               0.006274184              -0.002066348              -0.002325406               0.002866508               0.000541103               0.000000000               0.000000000               0.000000000               0.000000000              -0.003389876               0.006469722              -0.001855216              -0.002079914               0.002849857               0.000769942               0.000000000               0.000000000               0.000000000               0.000000000              -0.002716440               0.006509344              -0.001652933              -0.001832329               0.002780536               0.000948207               0.000000000               0.000000000               0.000000000               0.000000000              -0.002094303               0.006457175              -0.001488489              -0.001592507               0.002683205               0.001090698               0.000000000               0.000000000               0.000000000               0.000000000              -0.001511378               0.006344187              -0.001346451              -0.001359787               0.002567970               0.001208183               0.000000000               0.000000000               0.000000000               0.000000000              -0.000957895               0.006187521              -0.001201134              -0.001132648               0.002440036               0.001307387               0.000000000               0.000000000               0.000000000               0.000000000              -0.000446441               0.006000875              -0.001047053              -0.000917523               0.002306112               0.001388589               0.000000000               0.000000000               0.000000000               0.000000000               0.000001358               0.005795316              -0.000890489              -0.000723904               0.002173054               0.001449150               0.000000000               0.000000000               0.000000000               0.000000000               0.000366392               0.005581037              -0.000732727              -0.000560232               0.002047071               0.001486839               0.000000000               0.000000000               0.000000000               0.000000000               0.000637300               0.005377181              -0.000563006              -0.000433159               0.001936762               0.001503603               0.000000000               0.000000000               0.000000000               0.000000000               0.000801519               0.005204277              -0.000376838              -0.000349964               0.001851396               0.001501432               0.000000000               0.000000000               0.000000000               0.000000000               0.000844610               0.005082581              -0.000185905              -0.000318593               0.001800374               0.001481781               0.000000000               0.000000000               0.000000000               0.000000000               0.000807798               0.005022046              -0.000083231              -0.000324831               0.001782276               0.001457445               0.000000000               0.000000000               0.000000000               0.000000000              -0.009311386              -0.000296351               0.001434590              -0.003454723               0.001052783              -0.002401940               0.000000000               0.000000000               0.000000000               0.000000000              -0.007210932               0.001565835              -0.000389314              -0.002899825               0.001488543              -0.001411282               0.000000000               0.000000000               0.000000000               0.000000000              -0.005879807               0.003252557              -0.001980784              -0.002611493               0.001954669              -0.000656823               0.000000000               0.000000000               0.000000000               0.000000000              -0.004869536               0.004353973              -0.002338250              -0.002370318               0.002241414              -0.000128904               0.000000000               0.000000000               0.000000000               0.000000000              -0.004019839               0.005047716              -0.002289724              -0.002138400               0.002395354               0.000256954               0.000000000               0.000000000               0.000000000               0.000000000              -0.003270797               0.005470006              -0.002115282              -0.001910295               0.002460081               0.000549786               0.000000000               0.000000000               0.000000000               0.000000000              -0.002593354               0.005723435              -0.001920122              -0.001687934               0.002470436               0.000782503               0.000000000               0.000000000               0.000000000               0.000000000              -0.001967958               0.005868426              -0.001746402              -0.001471535               0.002446633               0.000975099               0.000000000               0.000000000               0.000000000               0.000000000              -0.001386419               0.005922341              -0.001592425              -0.001260197               0.002394159               0.001133962               0.000000000               0.000000000               0.000000000               0.000000000              -0.000827605               0.005909805              -0.001437913              -0.001049075               0.002319607               0.001270531               0.000000000               0.000000000               0.000000000               0.000000000              -0.000288876               0.005849249              -0.001273502              -0.000839483               0.002229558               0.001390075               0.000000000               0.000000000               0.000000000               0.000000000               0.000213804               0.005740172              -0.001106606              -0.000637344               0.002125819               0.001488475               0.000000000               0.000000000               0.000000000               0.000000000               0.000664777               0.005592855              -0.000938706              -0.000449815               0.002014205               0.001564390               0.000000000               0.000000000               0.000000000               0.000000000               0.001052905               0.005429698              -0.000756509              -0.000283872               0.001904505               0.001620633               0.000000000               0.000000000               0.000000000               0.000000000               0.001358354               0.005264042              -0.000538267              -0.000148623               0.001804204               0.001655581               0.000000000               0.000000000               0.000000000               0.000000000               0.001552612               0.005122775              -0.000281415              -0.000058118               0.001726947               0.001668830               0.000000000               0.000000000               0.000000000               0.000000000               0.001619116               0.005062396              -0.000146220              -0.000025631               0.001695992               0.001670361               0.000000000               0.000000000               0.000000000               0.000000000              -0.011478394              -0.000883928               0.001588525              -0.004193904               0.001103317              -0.003090586               0.000000000               0.000000000               0.000000000               0.000000000              -0.008382374               0.000554594              -0.000146284              -0.003212711               0.001255760              -0.001956952               0.000000000               0.000000000               0.000000000               0.000000000              -0.006163599               0.001798197              -0.001718196              -0.002536121               0.001444762              -0.001091359               0.000000000               0.000000000               0.000000000               0.000000000              -0.004804882               0.002889443              -0.002159934              -0.002163008               0.001684138              -0.000478870               0.000000000               0.000000000               0.000000000               0.000000000              -0.003818846               0.003720853              -0.002191297              -0.001897170               0.001872660              -0.000024510               0.000000000               0.000000000               0.000000000               0.000000000              -0.003021699               0.004320827              -0.002073816              -0.001673237               0.001998006               0.000324769               0.000000000               0.000000000               0.000000000               0.000000000              -0.002334821               0.004754746              -0.001914898              -0.001469898               0.002074865               0.000604967               0.000000000               0.000000000               0.000000000               0.000000000              -0.001711919               0.005071211              -0.001761318              -0.001275869               0.002115676               0.000839807               0.000000000               0.000000000               0.000000000               0.000000000              -0.001132435               0.005289191              -0.001619525              -0.001085810               0.002124982               0.001039172               0.000000000               0.000000000               0.000000000               0.000000000              -0.000573536               0.005425110              -0.001478411              -0.000893213               0.002106089               0.001212876               0.000000000               0.000000000               0.000000000               0.000000000              -0.000016930               0.005501403              -0.001327105              -0.000694023               0.002065124               0.001371100               0.000000000               0.000000000               0.000000000               0.000000000               0.000535126               0.005518930              -0.001171254              -0.000489193               0.002002689               0.001513496               0.000000000               0.000000000               0.000000000               0.000000000               0.001066444               0.005477461              -0.001013108              -0.000284766               0.001920724               0.001635958               0.000000000               0.000000000               0.000000000               0.000000000               0.001568908               0.005390754              -0.000838779              -0.000085504               0.001825401               0.001739897               0.000000000               0.000000000               0.000000000               0.000000000               0.002032507               0.005269930              -0.000619561               0.000103447               0.001722143               0.001825591               0.000000000               0.000000000               0.000000000               0.000000000               0.002441613               0.005138812              -0.000338085               0.000273251               0.001621837               0.001895087               0.000000000               0.000000000               0.000000000               0.000000000               0.002685846               0.005096808              -0.000193419               0.000370088               0.001575556               0.001945644               0.000000000               0.000000000               0.000000000               0.000000000              -0.013299219              -0.001172043               0.001345969              -0.004840699               0.001222876              -0.003617822               0.000000000               0.000000000               0.000000000               0.000000000              -0.009389958              -0.000170606              -0.000006378              -0.003499906               0.001109759              -0.002390147               0.000000000               0.000000000               0.000000000               0.000000000              -0.006400130               0.000614290              -0.001262802              -0.002476833               0.001030367              -0.001446466               0.000000000               0.000000000               0.000000000               0.000000000              -0.004708827               0.001615822              -0.001665148              -0.001967785               0.001194527              -0.000773258               0.000000000               0.000000000               0.000000000               0.000000000              -0.003581280               0.002510263              -0.001733348              -0.001656760               0.001388998              -0.000267762               0.000000000               0.000000000               0.000000000               0.000000000              -0.002732485               0.003228063              -0.001668246              -0.001428187               0.001552072               0.000123885               0.000000000               0.000000000               0.000000000               0.000000000              -0.002024985               0.003793778              -0.001561438              -0.001233589               0.001675776               0.000442187               0.000000000               0.000000000               0.000000000               0.000000000              -0.001396429               0.004243592              -0.001451358              -0.001054108               0.001765885               0.000711777               0.000000000               0.000000000               0.000000000               0.000000000              -0.000814746               0.004597733              -0.001345726              -0.000880245               0.001825977               0.000945732               0.000000000               0.000000000               0.000000000               0.000000000              -0.000255094               0.004862023              -0.001241054              -0.000703412               0.001855129               0.001151717               0.000000000               0.000000000               0.000000000               0.000000000               0.000312782               0.005057969              -0.001129816              -0.000514952               0.001857623               0.001342671               0.000000000               0.000000000               0.000000000               0.000000000               0.000896303               0.005193227              -0.001008537              -0.000313040               0.001835405               0.001522365               0.000000000               0.000000000               0.000000000               0.000000000               0.001487322               0.005264145              -0.000879544              -0.000100273               0.001788121               0.001687849               0.000000000               0.000000000               0.000000000               0.000000000               0.002086311               0.005274107              -0.000740400               0.000123102               0.001716984               0.001840086               0.000000000               0.000000000               0.000000000               0.000000000               0.002701879               0.005222442              -0.000564555               0.000360396               0.001620665               0.001981060               0.000000000               0.000000000               0.000000000               0.000000000               0.003328664               0.005119985              -0.000317892               0.000608245               0.001503896               0.002112141               0.000000000               0.000000000               0.000000000               0.000000000               0.003767502               0.005106272              -0.000191284               0.000774521               0.001443900               0.002218421               0.000000000               0.000000000               0.000000000               0.000000000              -0.014527581              -0.001285069               0.000770897              -0.005287206               0.001334036              -0.003953169               0.000000000               0.000000000               0.000000000               0.000000000              -0.010082740              -0.000608068               0.000029105              -0.003705016               0.001032309              -0.002672707               0.000000000               0.000000000               0.000000000               0.000000000              -0.006563641              -0.000164902              -0.000668650              -0.002440751               0.000758611              -0.001682140               0.000000000               0.000000000               0.000000000               0.000000000              -0.004626167               0.000741349              -0.000908078              -0.001827479               0.000856270              -0.000971209               0.000000000               0.000000000               0.000000000               0.000000000              -0.003396651               0.001649324              -0.000959853              -0.001479907               0.001043070              -0.000436837               0.000000000               0.000000000               0.000000000               0.000000000              -0.002506066               0.002434815              -0.000932444              -0.001244124               0.001226304              -0.000017820               0.000000000               0.000000000               0.000000000               0.000000000              -0.001779497               0.003084226              -0.000881131              -0.001052837               0.001379011               0.000326173               0.000000000               0.000000000               0.000000000               0.000000000              -0.001141565               0.003616741              -0.000824911              -0.000880178               0.001498961               0.000618783               0.000000000               0.000000000               0.000000000               0.000000000              -0.000550647               0.004055413              -0.000768900              -0.000713418               0.001589596               0.000876179               0.000000000               0.000000000               0.000000000               0.000000000               0.000016418               0.004404876              -0.000716289              -0.000544452               0.001649761               0.001105309               0.000000000               0.000000000               0.000000000               0.000000000               0.000586951               0.004682599              -0.000660321              -0.000365218               0.001682590               0.001317372               0.000000000               0.000000000               0.000000000               0.000000000               0.001181240               0.004898558              -0.000592371              -0.000169355               0.001689288               0.001519933               0.000000000               0.000000000               0.000000000               0.000000000               0.001811786               0.005051929              -0.000516190               0.000047928               0.001667984               0.001715911               0.000000000               0.000000000               0.000000000               0.000000000               0.002484350               0.005142111              -0.000440939               0.000288865               0.001617732               0.001906596               0.000000000               0.000000000               0.000000000               0.000000000               0.003207569               0.005163033              -0.000344855               0.000557454               0.001535176               0.002092629               0.000000000               0.000000000               0.000000000               0.000000000               0.003999843               0.005103977              -0.000196090               0.000861935               0.001413997               0.002275932               0.000000000               0.000000000               0.000000000               0.000000000               0.004599178               0.005118980              -0.000119729               0.001084809               0.001344707               0.002429515               0.000000000               0.000000000               0.000000000               0.000000000               0.000000000               0.000000000               0.000000000               0.000000000               0.000000000               0.000000000               0.000000000               0.000000000               0.000000000               0.000000000               0.000000000               0.000000000               0.000000000               0.000000000               0.000000000               0.000000000               0.000000000               0.000000000               0.000000000               0.000000000               0.000000000               0.000000000               0.000000000               0.000000000               0.000000000               0.000000000               0.000000000               0.000000000               0.000000000               0.000000000               0.000000000               0.000000000               0.000000000               0.000000000               0.000000000               0.000000000               0.000000000               0.000000000               0.000000000               0.000000000               0.000000000               0.000000000               0.000000000               0.000000000               0.000000000               0.000000000               0.000000000               0.000000000               0.000000000               0.000000000               0.000000000               0.000000000               0.000000000               0.000000000               0.000000000               0.000000000               0.000000000               0.000000000               0.000000000               0.000000000               0.000000000               0.000000000               0.000000000               0.000000000               0.000000000               0.000000000               0.000000000               0.000000000               0.000000000               0.000000000               0.000000000               0.000000000               0.000000000               0.000000000               0.000000000               0.000000000               0.000000000               0.000000000               0.000000000               0.000000000               0.000000000               0.000000000               0.000000000               0.000000000               0.000000000               0.000000000               0.000000000               0.000000000               0.000000000               0.000000000               0.000000000               0.000000000               0.000000000               0.000000000               0.000000000               0.000000000               0.000000000               0.000000000               0.000000000               0.000000000               0.000000000               0.000000000               0.000000000               0.000000000               0.000000000               0.000000000               0.000000000               0.000000000               0.000000000               0.000000000               0.000000000               0.000000000               0.000000000               0.000000000               0.000000000               0.000000000               0.000000000               0.000000000               0.000000000               0.000000000               0.000000000               0.000000000               0.000000000               0.000000000               0.000000000               0.000000000               0.000000000               0.000000000               0.000000000               0.000000000               0.000000000               0.000000000               0.000000000               0.000000000               0.000000000               0.000000000               0.000000000               0.000000000               0.000000000               0.000000000               0.000000000               0.000000000               0.000000000               0.000000000               0.000000000               0.000000000               0.000000000               0.000000000               0.000000000               0.000000000               0.000000000               0.000000000               0.000000000               0.000000000               0.000000000               0.000000000               0.000000000               0.000000000               0.000000000               0.000000000               0.000000000               0.000000000               0.000000000               0.000000000               0.000000000               0.000000000               0.000000000               0.000000000               0.000000000               0.000000000               0.000000000               0.000000000               0.000000000               0.000000000               0.000000000               0.000000000               0.000000000               0.000000000               0.000000000               0.000000000               0.000000000               0.000000000               0.000000000               0.000000000               0.000000000               0.000000000               0.000000000               0.000000000               0.000000000               0.000000000               0.000000000               0.000000000               0.000000000               0.000000000               0.000000000               0.000000000               0.000000000               0.000000000               0.000000000               0.000000000               0.000000000               0.000000000               0.000000000               0.000000000               0.000000000               0.000000000               0.000000000               0.000000000               0.000000000               0.000000000               0.000000000               0.000000000               0.000000000               0.000000000               0.000000000               0.000000000               0.000000000               0.000000000               0.000000000               0.000000000               0.000000000               0.000000000               0.000000000               0.000000000               0.000000000               0.000000000               0.000000000               0.000000000               0.000000000               0.000000000               0.000000000               0.000000000               0.000000000               0.000000000               0.000000000               0.000000000               0.000000000               0.000000000               0.000000000               0.000000000               0.000000000               0.000000000               0.000000000               0.000000000               0.000000000               0.000000000               0.000000000               0.000000000               0.000000000               0.000000000               0.000000000               0.000000000               0.000000000               0.000000000               0.000000000               0.000000000               0.000000000               0.000000000               0.000000000               0.000000000               0.000000000               0.000000000               0.000000000               0.000000000               0.000000000               0.000000000               0.000000000               0.000000000               0.000000000               0.000000000               0.000000000               0.000000000               0.000000000               0.000000000               0.000000000               0.000000000               0.000000000               0.000000000               0.000000000               0.000000000               0.000000000               0.000000000               0.000000000               0.000000000               0.000000000               0.000000000               0.000000000               0.000000000               0.000000000               0.000000000               0.000000000               0.000000000               0.000000000               0.000000000               0.000000000               0.000000000               0.000000000               0.000000000               0.000000000               0.000000000               0.000000000               0.000000000               0.000000000               0.000000000               0.000000000               0.000000000               0.000000000               0.000000000               0.000000000               0.000000000               0.000000000               0.000000000               0.000000000               0.000000000               0.000000000               0.000000000               0.000000000               0.000000000               0.000000000               0.000000000               0.000000000               0.000000000               0.000000000               0.000000000               0.000000000               0.000000000               0.000000000               0.000000000               0.000000000               0.000000000               0.000000000               0.000000000               0.000000000               0.000000000               0.000000000               0.000000000               0.000000000               0.000000000               0.000000000               0.000000000               0.002267298               0.022727262               0.001504290              -0.001990666               0.008239234               0.006248567               0.000000000               0.000000000               0.000000000               0.000000000               0.002026130               0.017427381               0.000642255              -0.001418620               0.006281942               0.004863322               0.000000000               0.000000000               0.000000000               0.000000000               0.002465768               0.013174695              -0.000203194              -0.000722172               0.004632245               0.003910073               0.000000000               0.000000000               0.000000000               0.000000000               0.002195052               0.010767911              -0.000542489              -0.000522843               0.003763549               0.003240706               0.000000000               0.000000000               0.000000000               0.000000000               0.001755410               0.009226219              -0.000664113              -0.000494998               0.003240375               0.002745377               0.000000000               0.000000000               0.000000000               0.000000000               0.001323382               0.008118914              -0.000688599              -0.000518595               0.002879143               0.002360547               0.000000000               0.000000000               0.000000000               0.000000000               0.000957815               0.007245315              -0.000672541              -0.000546483               0.002597242               0.002050759               0.000000000               0.000000000               0.000000000               0.000000000               0.000659679               0.006505935              -0.000642654              -0.000565861               0.002357244               0.001791382               0.000000000               0.000000000               0.000000000               0.000000000               0.000417738               0.005842080              -0.000610023              -0.000573607               0.002138543               0.001564936               0.000000000               0.000000000               0.000000000               0.000000000               0.000230835               0.005221365              -0.000575394              -0.000566106               0.001929140               0.001363033               0.000000000               0.000000000               0.000000000               0.000000000               0.000090855               0.004617368              -0.000538010              -0.000543099               0.001720140               0.001177041               0.000000000               0.000000000               0.000000000               0.000000000              -0.000009545               0.004008958              -0.000494158              -0.000504698               0.001504539               0.000999841               0.000000000               0.000000000               0.000000000               0.000000000              -0.000076200               0.003374872              -0.000441177              -0.000450433               0.001275090               0.000824657               0.000000000               0.000000000               0.000000000               0.000000000              -0.000108701               0.002701413              -0.000374128              -0.000378439               0.001026608               0.000648169               0.000000000               0.000000000               0.000000000               0.000000000              -0.000104953               0.001974375              -0.000282061              -0.000286154               0.000753503               0.000467349               0.000000000               0.000000000               0.000000000               0.000000000              -0.000062547               0.001179336              -0.000158070              -0.000170872               0.000450065               0.000279193               0.000000000               0.000000000               0.000000000               0.000000000              -0.000093462               0.000588112              -0.000099576              -0.000108562               0.000232223               0.000123660               0.000000000               0.000000000               0.000000000               0.000000000               0.002376774               0.021252148               0.002775452              -0.001765225               0.007672387               0.005907162               0.000000000               0.000000000               0.000000000               0.000000000               0.001783255               0.016512935               0.001180371              -0.001395393               0.005969388               0.004573994               0.000000000               0.000000000               0.000000000               0.000000000               0.001846529               0.012834920              -0.000367641              -0.000911915               0.004582235               0.003670321               0.000000000               0.000000000               0.000000000               0.000000000               0.001448411               0.010717412              -0.000964388              -0.000796521               0.003837942               0.003041421               0.000000000               0.000000000               0.000000000               0.000000000               0.001001354               0.009317851              -0.001166386              -0.000789222               0.003368993               0.002579771               0.000000000               0.000000000               0.000000000               0.000000000               0.000617767               0.008277503              -0.001198615              -0.000803024               0.003026814               0.002223791               0.000000000               0.000000000               0.000000000               0.000000000               0.000319100               0.007438787              -0.001165623              -0.000810184               0.002749632               0.001939448               0.000000000               0.000000000               0.000000000               0.000000000               0.000095179               0.006717955              -0.001110313              -0.000804051               0.002507313               0.001703262               0.000000000               0.000000000               0.000000000               0.000000000              -0.000064148               0.006065212              -0.001048938              -0.000782206               0.002282452               0.001500247               0.000000000               0.000000000               0.000000000               0.000000000              -0.000169272               0.005448702              -0.000986391              -0.000744563               0.002064403               0.001319840               0.000000000               0.000000000               0.000000000               0.000000000              -0.000225268               0.004850709              -0.000921994              -0.000690813               0.001847157               0.001156345               0.000000000               0.000000000               0.000000000               0.000000000              -0.000239139               0.004260040              -0.000846983              -0.000622181               0.001627393               0.001005212               0.000000000               0.000000000               0.000000000               0.000000000              -0.000230004               0.003666072              -0.000753612              -0.000544509               0.001403515               0.000859005               0.000000000               0.000000000               0.000000000               0.000000000              -0.000199781               0.003065074              -0.000635314              -0.000458051               0.001174365               0.000716314               0.000000000               0.000000000               0.000000000               0.000000000              -0.000146814               0.002460165              -0.000477632              -0.000362575               0.000940905               0.000578330               0.000000000               0.000000000               0.000000000               0.000000000              -0.000078749               0.001854780              -0.000267523              -0.000261378               0.000705380               0.000444002               0.000000000               0.000000000               0.000000000               0.000000000              -0.000083294               0.001439355              -0.000162906              -0.000211154               0.000550165               0.000339011               0.000000000               0.000000000               0.000000000               0.000000000               0.002436700               0.019025468               0.003632985              -0.001464419               0.006829898               0.005365479               0.000000000               0.000000000               0.000000000               0.000000000               0.001356595               0.015158402               0.001540073              -0.001386074               0.005514775               0.004128700               0.000000000               0.000000000               0.000000000               0.000000000               0.000903419               0.012333450              -0.000460132              -0.001202896               0.004512074               0.003309178               0.000000000               0.000000000               0.000000000               0.000000000               0.000370186               0.010617063              -0.001182288              -0.001188310               0.003935089               0.002746778               0.000000000               0.000000000               0.000000000               0.000000000              -0.000052700               0.009405168              -0.001403822              -0.001195406               0.003533493               0.002338087               0.000000000               0.000000000               0.000000000               0.000000000              -0.000342373               0.008457012              -0.001423813              -0.001185514               0.003214147               0.002028633               0.000000000               0.000000000               0.000000000               0.000000000              -0.000521808               0.007665851              -0.001371164              -0.001153907               0.002939894               0.001785987               0.000000000               0.000000000               0.000000000               0.000000000              -0.000621627               0.006966474              -0.001297777              -0.001103917               0.002690107               0.001586190               0.000000000               0.000000000               0.000000000               0.000000000              -0.000655274               0.006325358              -0.001220846              -0.001036395               0.002453897               0.001417501               0.000000000               0.000000000               0.000000000               0.000000000              -0.000635284               0.005720301              -0.001141385              -0.000953267               0.002224503               0.001271236               0.000000000               0.000000000               0.000000000               0.000000000              -0.000574472               0.005139795              -0.001058184              -0.000857900               0.001999214               0.001141314               0.000000000               0.000000000               0.000000000               0.000000000              -0.000486933               0.004579652              -0.000961224              -0.000755055               0.001778220               0.001023165               0.000000000               0.000000000               0.000000000               0.000000000              -0.000384992               0.004044786              -0.000841652              -0.000649969               0.001564905               0.000914936               0.000000000               0.000000000               0.000000000               0.000000000              -0.000276021               0.003545458              -0.000695182              -0.000546689               0.001364037               0.000817348               0.000000000               0.000000000               0.000000000               0.000000000              -0.000171437               0.003100320              -0.000510024              -0.000451828               0.001184039               0.000732211               0.000000000               0.000000000               0.000000000               0.000000000              -0.000082496               0.002732700              -0.000278866              -0.000372523               0.001035065               0.000662542               0.000000000               0.000000000               0.000000000               0.000000000              -0.000057410               0.002530174              -0.000159661              -0.000337800               0.000955983               0.000618183               0.000000000               0.000000000               0.000000000               0.000000000               0.002310798               0.016333201               0.003990554              -0.001175101               0.005836046               0.004660945               0.000000000               0.000000000               0.000000000               0.000000000               0.000736957               0.013548735               0.001705084              -0.001417230               0.004988610               0.003571379               0.000000000               0.000000000               0.000000000               0.000000000              -0.000244104               0.011723792              -0.000440907              -0.001557009               0.004426895               0.002869885               0.000000000               0.000000000               0.000000000               0.000000000              -0.000851873               0.010438833              -0.001154457              -0.001624303               0.004021010               0.002396707               0.000000000               0.000000000               0.000000000               0.000000000              -0.001180861               0.009421102              -0.001348417              -0.001620457               0.003680488               0.002060031               0.000000000               0.000000000               0.000000000               0.000000000              -0.001324367               0.008570067              -0.001348497              -0.001567892               0.003379291               0.001811399               0.000000000               0.000000000               0.000000000               0.000000000              -0.001344171               0.007827216              -0.001284426              -0.001482463               0.003103200               0.001620737               0.000000000               0.000000000               0.000000000               0.000000000              -0.001283841               0.007152349              -0.001205901              -0.001375481               0.002842586               0.001467105               0.000000000               0.000000000               0.000000000               0.000000000              -0.001169829               0.006524078              -0.001124541              -0.001254193               0.002592735               0.001338542               0.000000000               0.000000000               0.000000000               0.000000000              -0.001016919               0.005935045              -0.001037807              -0.001123223               0.002352736               0.001229513               0.000000000               0.000000000               0.000000000               0.000000000              -0.000841359               0.005383671              -0.000941666              -0.000988466               0.002124028               0.001135561               0.000000000               0.000000000               0.000000000               0.000000000              -0.000658349               0.004870783              -0.000830828              -0.000855727               0.001908820               0.001053093               0.000000000               0.000000000               0.000000000               0.000000000              -0.000475113               0.004410712              -0.000701686              -0.000729505               0.001713391               0.000983886               0.000000000               0.000000000               0.000000000               0.000000000              -0.000307711               0.004022409              -0.000555532              -0.000618191               0.001546853               0.000928662               0.000000000               0.000000000               0.000000000               0.000000000              -0.000170261               0.003732018              -0.000389712              -0.000530349               0.001420777               0.000890428               0.000000000               0.000000000               0.000000000               0.000000000              -0.000073529               0.003557591              -0.000202725              -0.000472271               0.001343276               0.000871005               0.000000000               0.000000000               0.000000000               0.000000000              -0.000034037               0.003501675              -0.000104233              -0.000450472               0.001317371               0.000866899               0.000000000               0.000000000               0.000000000               0.000000000               0.001871324               0.013456589               0.003872253              -0.000980328               0.004812260               0.003831932               0.000000000               0.000000000               0.000000000               0.000000000              -0.000070618               0.011853036               0.001713576              -0.001508109               0.004453675               0.002945566               0.000000000               0.000000000               0.000000000               0.000000000              -0.001454974               0.011048888              -0.000284021              -0.001926722               0.004325166               0.002398445               0.000000000               0.000000000               0.000000000               0.000000000              -0.002023628               0.010160378              -0.000894410              -0.002028903               0.004063060               0.002034157               0.000000000               0.000000000               0.000000000               0.000000000              -0.002185624               0.009313111              -0.001044419              -0.001983743               0.003765587               0.001781844               0.000000000               0.000000000               0.000000000               0.000000000              -0.002137767               0.008546373              -0.001037767              -0.001869955               0.003472081               0.001602126               0.000000000               0.000000000               0.000000000               0.000000000              -0.001973487               0.007851155              -0.000978867              -0.001721448               0.003190841               0.001469393               0.000000000               0.000000000               0.000000000               0.000000000              -0.001749458               0.007203737              -0.000906474              -0.001556510               0.002920058               0.001363548               0.000000000               0.000000000               0.000000000               0.000000000              -0.001496200               0.006597349              -0.000829737              -0.001385740               0.002661008               0.001275267               0.000000000               0.000000000               0.000000000               0.000000000              -0.001224535               0.006037565              -0.000747231              -0.001213893               0.002417133               0.001203239               0.000000000               0.000000000               0.000000000               0.000000000              -0.000951980               0.005528620              -0.000655075              -0.001048067               0.002192211               0.001144143               0.000000000               0.000000000               0.000000000               0.000000000              -0.000693825               0.005082409              -0.000551863              -0.000895483               0.001992614               0.001097130               0.000000000               0.000000000               0.000000000               0.000000000              -0.000463261               0.004713909              -0.000438613              -0.000762960               0.001825607               0.001062648               0.000000000               0.000000000               0.000000000               0.000000000              -0.000282690               0.004434749              -0.000326338              -0.000660351               0.001698352               0.001038001               0.000000000               0.000000000               0.000000000               0.000000000              -0.000149022               0.004262571              -0.000215852              -0.000588703               0.001617077               0.001028374               0.000000000               0.000000000               0.000000000               0.000000000              -0.000058754               0.004192083              -0.000103432              -0.000546042               0.001579361               0.001033319               0.000000000               0.000000000               0.000000000               0.000000000              -0.000021442               0.004188887              -0.000045626              -0.000531650               0.001573499               0.001041848               0.000000000               0.000000000               0.000000000               0.000000000               0.001057109               0.010637806               0.003371789              -0.000933310               0.003857002               0.002923692               0.000000000               0.000000000               0.000000000               0.000000000              -0.001023408               0.010211205               0.001620789              -0.001660175               0.003957092               0.002296917               0.000000000               0.000000000               0.000000000               0.000000000              -0.002602462               0.010337928               0.000008517              -0.002268159               0.004201994               0.001933836               0.000000000               0.000000000               0.000000000               0.000000000              -0.002999992               0.009771266              -0.000456173              -0.002346400               0.004039189               0.001692790               0.000000000               0.000000000               0.000000000               0.000000000              -0.002930260               0.009064591              -0.000576826              -0.002231916               0.003765472               0.001533556               0.000000000               0.000000000               0.000000000               0.000000000              -0.002667587               0.008373189              -0.000586585              -0.002046989               0.003473364               0.001426376               0.000000000               0.000000000               0.000000000               0.000000000              -0.002325459               0.007722016              -0.000550700              -0.001837294               0.003186411               0.001349117               0.000000000               0.000000000               0.000000000               0.000000000              -0.001955579               0.007109282              -0.000496443              -0.001621998               0.002910403               0.001288405               0.000000000               0.000000000               0.000000000               0.000000000              -0.001582064               0.006540937              -0.000440199              -0.001410888               0.002650586               0.001239699               0.000000000               0.000000000               0.000000000               0.000000000              -0.001216697               0.006029444              -0.000378934              -0.001209939               0.002413108               0.001203169               0.000000000               0.000000000               0.000000000               0.000000000              -0.000878240               0.005579559              -0.000313603              -0.001026782               0.002202095               0.001175313               0.000000000               0.000000000               0.000000000               0.000000000              -0.000582584               0.005208741              -0.000245129              -0.000869559               0.002026083               0.001156523               0.000000000               0.000000000               0.000000000               0.000000000              -0.000349953               0.004926280              -0.000173891              -0.000747015               0.001891082               0.001144067               0.000000000               0.000000000               0.000000000               0.000000000              -0.000193410               0.004737512              -0.000116290              -0.000664716               0.001800727               0.001136011               0.000000000               0.000000000               0.000000000               0.000000000              -0.000094286               0.004636453              -0.000073289              -0.000614912               0.001750440               0.001135527               0.000000000               0.000000000               0.000000000               0.000000000              -0.000034039               0.004599565              -0.000032110              -0.000587709               0.001729076               0.001141367               0.000000000               0.000000000               0.000000000               0.000000000              -0.000017656               0.004593688              -0.000013354              -0.000580831               0.001724824               0.001143994               0.000000000               0.000000000               0.000000000               0.000000000              -0.000090553               0.008055465               0.002603533              -0.001040890               0.003032091               0.001991201               0.000000000               0.000000000               0.000000000               0.000000000              -0.002063783               0.008720379               0.001481541              -0.001863962               0.003528084               0.001664122               0.000000000               0.000000000               0.000000000               0.000000000              -0.003576266               0.009589745               0.000419475              -0.002539812               0.004043154               0.001503342               0.000000000               0.000000000               0.000000000               0.000000000              -0.003694394               0.009270397               0.000084519              -0.002544191               0.003938165               0.001393974               0.000000000               0.000000000               0.000000000               0.000000000              -0.003365634               0.008691859              -0.000042445              -0.002348589               0.003680120               0.001331531               0.000000000               0.000000000               0.000000000               0.000000000              -0.002898781               0.008078648              -0.000090859              -0.002096869               0.003391812               0.001294943               0.000000000               0.000000000               0.000000000               0.000000000              -0.002403577               0.007477726              -0.000095942              -0.001836053               0.003104568               0.001268515               0.000000000               0.000000000               0.000000000               0.000000000              -0.001914254               0.006911732              -0.000078284              -0.001581808               0.002831157               0.001249349               0.000000000               0.000000000               0.000000000               0.000000000              -0.001446854               0.006396929              -0.000057780              -0.001342183               0.002579683               0.001237499               0.000000000               0.000000000               0.000000000               0.000000000              -0.001018121               0.005942059              -0.000036412              -0.001124550               0.002355517               0.001230967               0.000000000               0.000000000               0.000000000               0.000000000              -0.000656248               0.005556659              -0.000014641              -0.000940673               0.002165759               0.001225086               0.000000000               0.000000000               0.000000000               0.000000000              -0.000377459               0.005254161               0.000002806              -0.000798315               0.002017475               0.001219159               0.000000000               0.000000000               0.000000000               0.000000000              -0.000186119               0.005045741               0.000013335              -0.000700510               0.001915400               0.001214890               0.000000000               0.000000000               0.000000000               0.000000000              -0.000077201               0.004924369               0.000007391              -0.000644495               0.001856271               0.001211777               0.000000000               0.000000000               0.000000000               0.000000000              -0.000023917               0.004860467              -0.000006530              -0.000616526               0.001825648               0.001209123               0.000000000               0.000000000               0.000000000               0.000000000              -0.000004850               0.004832930              -0.000009134              -0.000605934               0.001812938               0.001207005               0.000000000               0.000000000               0.000000000               0.000000000              -0.000009502               0.004825026              -0.000008819              -0.000606690               0.001810556               0.001203866               0.000000000               0.000000000               0.000000000               0.000000000              -0.001426684               0.005893335               0.001690613              -0.001271671               0.002388315               0.001116644               0.000000000               0.000000000               0.000000000               0.000000000              -0.003080570               0.007387175               0.001337266              -0.002078606               0.003155235               0.001076630               0.000000000               0.000000000               0.000000000               0.000000000              -0.004341650               0.008825713               0.000909123              -0.002731326               0.003852317               0.001120991               0.000000000               0.000000000               0.000000000               0.000000000              -0.004162958               0.008772502               0.000653133              -0.002657665               0.003810026               0.001152361               0.000000000               0.000000000               0.000000000               0.000000000              -0.003624231               0.008351318               0.000490782              -0.002402996               0.003584743               0.001181748               0.000000000               0.000000000               0.000000000               0.000000000              -0.003002857               0.007837768               0.000386361              -0.002105787               0.003314492               0.001208705               0.000000000               0.000000000               0.000000000               0.000000000              -0.002395432               0.007303449               0.000326166              -0.001811214               0.003038197               0.001226983               0.000000000               0.000000000               0.000000000               0.000000000              -0.001819423               0.006792554               0.000296284              -0.001531349               0.002774612               0.001243263               0.000000000               0.000000000               0.000000000               0.000000000              -0.001277877               0.006330557               0.000275083              -0.001270520               0.002533671               0.001263151               0.000000000               0.000000000               0.000000000               0.000000000              -0.000800371               0.005921486               0.000248171              -0.001040322               0.002320583               0.001280261               0.000000000               0.000000000               0.000000000               0.000000000              -0.000427227               0.005578721               0.000216239              -0.000857548               0.002145404               0.001287856               0.000000000               0.000000000               0.000000000               0.000000000              -0.000167325               0.005321264               0.000176000              -0.000727903               0.002016371               0.001288468               0.000000000               0.000000000               0.000000000               0.000000000              -0.000009495               0.005158342               0.000126637              -0.000648352               0.001935548               0.001287196               0.000000000               0.000000000               0.000000000               0.000000000               0.000058293               0.005060196               0.000071301              -0.000610663               0.001890269               0.001279606               0.000000000               0.000000000               0.000000000               0.000000000               0.000061790               0.004998350               0.000020567              -0.000601621               0.001866640               0.001265019               0.000000000               0.000000000               0.000000000               0.000000000               0.000034393               0.004963917              -0.000009351              -0.000607591               0.001857153               0.001249562               0.000000000               0.000000000               0.000000000               0.000000000               0.000014564               0.004954763              -0.000017380              -0.000613882               0.001856198               0.001242316               0.000000000               0.000000000               0.000000000               0.000000000              -0.002950926               0.003908190               0.000745837              -0.001595118               0.001834422               0.000239305               0.000000000               0.000000000               0.000000000               0.000000000              -0.003939484               0.005841866               0.001181518              -0.002207534               0.002683114               0.000475579               0.000000000               0.000000000               0.000000000               0.000000000              -0.004815990               0.007689937               0.001416838              -0.002767232               0.003485697               0.000718465               0.000000000               0.000000000               0.000000000               0.000000000              -0.004474023               0.008038941               0.001248576              -0.002682620               0.003573827               0.000891207               0.000000000               0.000000000               0.000000000               0.000000000              -0.003848841               0.007900846               0.001051662              -0.002430915               0.003443894               0.001012979               0.000000000               0.000000000               0.000000000               0.000000000              -0.003175918               0.007594803               0.000885349              -0.002140315               0.003245014               0.001104699               0.000000000               0.000000000               0.000000000               0.000000000              -0.002530265               0.007221918               0.000762667              -0.001851585               0.003024477               0.001172892               0.000000000               0.000000000               0.000000000               0.000000000              -0.001923270               0.006831336               0.000681303              -0.001575139               0.002802136               0.001226996               0.000000000               0.000000000               0.000000000               0.000000000              -0.001356370               0.006450377               0.000616280              -0.001314933               0.002588415               0.001273482               0.000000000               0.000000000               0.000000000               0.000000000              -0.000848899               0.006096288               0.000539630              -0.001080370               0.002392199               0.001311829               0.000000000               0.000000000               0.000000000               0.000000000              -0.000436514               0.005774542               0.000452971              -0.000885508               0.002219997               0.001334489               0.000000000               0.000000000               0.000000000               0.000000000              -0.000137369               0.005505975               0.000361793              -0.000739758               0.002081893               0.001342134               0.000000000               0.000000000               0.000000000               0.000000000               0.000053384               0.005303256               0.000266402              -0.000642886               0.001982030               0.001339143               0.000000000               0.000000000               0.000000000               0.000000000               0.000147486               0.005161087               0.000170026              -0.000589827               0.001916954               0.001327127               0.000000000               0.000000000               0.000000000               0.000000000               0.000165050               0.005073245               0.000080785              -0.000572260               0.001881818               0.001309558               0.000000000               0.000000000               0.000000000               0.000000000               0.000131137               0.005024087               0.000020493              -0.000578833               0.001867623               0.001288790               0.000000000               0.000000000               0.000000000               0.000000000               0.000094268               0.005001233              -0.000003435              -0.000589802               0.001863662               0.001273860               0.000000000               0.000000000               0.000000000               0.000000000              -0.004862939               0.002127818              -0.000155483              -0.002089576               0.001405789              -0.000683787               0.000000000               0.000000000               0.000000000               0.000000000              -0.004905487               0.004286628               0.000965783              -0.002375381               0.002220654              -0.000154727               0.000000000               0.000000000               0.000000000               0.000000000              -0.005217441               0.006345253               0.001820326              -0.002749691               0.003031626               0.000281936               0.000000000               0.000000000               0.000000000               0.000000000              -0.004732476               0.007070598               0.001809088              -0.002658497               0.003243008               0.000584511               0.000000000               0.000000000               0.000000000               0.000000000              -0.004053941               0.007250481               0.001615613              -0.002426532               0.003225647               0.000799114               0.000000000               0.000000000               0.000000000               0.000000000              -0.003355988               0.007191577               0.001406575              -0.002157438               0.003116314               0.000958876               0.000000000               0.000000000               0.000000000               0.000000000              -0.002693410               0.007014423               0.001230838              -0.001886827               0.002967060               0.001080233               0.000000000               0.000000000               0.000000000               0.000000000              -0.002075288               0.006775144               0.001100045              -0.001625122               0.002800066               0.001174944               0.000000000               0.000000000               0.000000000               0.000000000              -0.001493709               0.006511364               0.000989361              -0.001374058               0.002628452               0.001254394               0.000000000               0.000000000               0.000000000               0.000000000              -0.000955935               0.006238316               0.000871988              -0.001138262               0.002458838               0.001320576               0.000000000               0.000000000               0.000000000               0.000000000              -0.000484359               0.005961875               0.000745021              -0.000926867               0.002296227               0.001369361               0.000000000               0.000000000               0.000000000               0.000000000              -0.000105179               0.005699580               0.000615033              -0.000751888               0.002150470               0.001398582               0.000000000               0.000000000               0.000000000               0.000000000               0.000171405               0.005468072               0.000483761              -0.000619231               0.002029083               0.001409852               0.000000000               0.000000000               0.000000000               0.000000000               0.000341764               0.005278177               0.000347376              -0.000531609               0.001936578               0.001404969               0.000000000               0.000000000               0.000000000               0.000000000               0.000408423               0.005137297               0.000208889              -0.000489002               0.001875416               0.001386414               0.000000000               0.000000000               0.000000000               0.000000000               0.000385182               0.005051110               0.000088997              -0.000486944               0.001846001               0.001359057               0.000000000               0.000000000               0.000000000               0.000000000               0.000326474               0.005004936               0.000027499              -0.000503188               0.001836025               0.001332837               0.000000000               0.000000000               0.000000000               0.000000000              -0.007034322               0.000700100              -0.000922012              -0.002725380               0.001141819              -0.001583562               0.000000000               0.000000000               0.000000000               0.000000000              -0.006016696               0.002834541               0.000684267              -0.002610574               0.001815026              -0.000795548               0.000000000               0.000000000               0.000000000               0.000000000              -0.005565262               0.004819946               0.002016470              -0.002689461               0.002503118              -0.000186343               0.000000000               0.000000000               0.000000000               0.000000000              -0.004857652               0.005802627               0.002202783              -0.002546942               0.002783169               0.000236227               0.000000000               0.000000000               0.000000000               0.000000000              -0.004109701               0.006274184               0.002066348              -0.002325406               0.002866508               0.000541103               0.000000000               0.000000000               0.000000000               0.000000000              -0.003389876               0.006469722               0.001855216              -0.002079914               0.002849857               0.000769942               0.000000000               0.000000000               0.000000000               0.000000000              -0.002716440               0.006509344               0.001652933              -0.001832329               0.002780536               0.000948207               0.000000000               0.000000000               0.000000000               0.000000000              -0.002094303               0.006457175               0.001488489              -0.001592507               0.002683205               0.001090698               0.000000000               0.000000000               0.000000000               0.000000000              -0.001511378               0.006344187               0.001346451              -0.001359787               0.002567970               0.001208183               0.000000000               0.000000000               0.000000000               0.000000000              -0.000957895               0.006187521               0.001201134              -0.001132648               0.002440036               0.001307387               0.000000000               0.000000000               0.000000000               0.000000000              -0.000446441               0.006000875               0.001047053              -0.000917523               0.002306112               0.001388589               0.000000000               0.000000000               0.000000000               0.000000000               0.000001358               0.005795316               0.000890489              -0.000723904               0.002173054               0.001449150               0.000000000               0.000000000               0.000000000               0.000000000               0.000366392               0.005581037               0.000732727              -0.000560232               0.002047071               0.001486839               0.000000000               0.000000000               0.000000000               0.000000000               0.000637300               0.005377181               0.000563006              -0.000433159               0.001936762               0.001503603               0.000000000               0.000000000               0.000000000               0.000000000               0.000801519               0.005204277               0.000376838              -0.000349964               0.001851396               0.001501432               0.000000000               0.000000000               0.000000000               0.000000000               0.000844610               0.005082581               0.000185905              -0.000318593               0.001800374               0.001481781               0.000000000               0.000000000               0.000000000               0.000000000               0.000807798               0.005022046               0.000083231              -0.000324831               0.001782276               0.001457445               0.000000000               0.000000000               0.000000000               0.000000000              -0.009311386              -0.000296351              -0.001434590              -0.003454723               0.001052783              -0.002401940               0.000000000               0.000000000               0.000000000               0.000000000              -0.007210932               0.001565835               0.000389314              -0.002899825               0.001488543              -0.001411282               0.000000000               0.000000000               0.000000000               0.000000000              -0.005879807               0.003252557               0.001980784              -0.002611493               0.001954669              -0.000656823               0.000000000               0.000000000               0.000000000               0.000000000              -0.004869536               0.004353973               0.002338250              -0.002370318               0.002241414              -0.000128904               0.000000000               0.000000000               0.000000000               0.000000000              -0.004019839               0.005047716               0.002289724              -0.002138400               0.002395354               0.000256954               0.000000000               0.000000000               0.000000000               0.000000000              -0.003270797               0.005470006               0.002115282              -0.001910295               0.002460081               0.000549786               0.000000000               0.000000000               0.000000000               0.000000000              -0.002593354               0.005723435               0.001920122              -0.001687934               0.002470436               0.000782503               0.000000000               0.000000000               0.000000000               0.000000000              -0.001967958               0.005868426               0.001746402              -0.001471535               0.002446633               0.000975099               0.000000000               0.000000000               0.000000000               0.000000000              -0.001386419               0.005922341               0.001592425              -0.001260197               0.002394159               0.001133962               0.000000000               0.000000000               0.000000000               0.000000000              -0.000827605               0.005909805               0.001437913              -0.001049075               0.002319607               0.001270531               0.000000000               0.000000000               0.000000000               0.000000000              -0.000288876               0.005849249               0.001273502              -0.000839483               0.002229558               0.001390075               0.000000000               0.000000000               0.000000000               0.000000000               0.000213804               0.005740172               0.001106606              -0.000637344               0.002125819               0.001488475               0.000000000               0.000000000               0.000000000               0.000000000               0.000664777               0.005592855               0.000938706              -0.000449815               0.002014205               0.001564390               0.000000000               0.000000000               0.000000000               0.000000000               0.001052905               0.005429698               0.000756509              -0.000283872               0.001904505               0.001620633               0.000000000               0.000000000               0.000000000               0.000000000               0.001358354               0.005264042               0.000538267              -0.000148623               0.001804204               0.001655581               0.000000000               0.000000000               0.000000000               0.000000000               0.001552612               0.005122775               0.000281415              -0.000058118               0.001726947               0.001668830               0.000000000               0.000000000               0.000000000               0.000000000               0.001619116               0.005062396               0.000146220              -0.000025631               0.001695992               0.001670361               0.000000000               0.000000000               0.000000000               0.000000000              -0.011478394              -0.000883928              -0.001588525              -0.004193904               0.001103317              -0.003090586               0.000000000               0.000000000               0.000000000               0.000000000              -0.008382374               0.000554594               0.000146284              -0.003212711               0.001255760              -0.001956952               0.000000000               0.000000000               0.000000000               0.000000000              -0.006163599               0.001798197               0.001718196              -0.002536121               0.001444762              -0.001091359               0.000000000               0.000000000               0.000000000               0.000000000              -0.004804882               0.002889443               0.002159934              -0.002163008               0.001684138              -0.000478870               0.000000000               0.000000000               0.000000000               0.000000000              -0.003818846               0.003720853               0.002191297              -0.001897170               0.001872660              -0.000024510               0.000000000               0.000000000               0.000000000               0.000000000              -0.003021699               0.004320827               0.002073816              -0.001673237               0.001998006               0.000324769               0.000000000               0.000000000               0.000000000               0.000000000              -0.002334821               0.004754746               0.001914898              -0.001469898               0.002074865               0.000604967               0.000000000               0.000000000               0.000000000               0.000000000              -0.001711919               0.005071211               0.001761318              -0.001275869               0.002115676               0.000839807               0.000000000               0.000000000               0.000000000               0.000000000              -0.001132435               0.005289191               0.001619525              -0.001085810               0.002124982               0.001039172               0.000000000               0.000000000               0.000000000               0.000000000              -0.000573536               0.005425110               0.001478411              -0.000893213               0.002106089               0.001212876               0.000000000               0.000000000               0.000000000               0.000000000              -0.000016930               0.005501403               0.001327105              -0.000694023               0.002065124               0.001371100               0.000000000               0.000000000               0.000000000               0.000000000               0.000535126               0.005518930               0.001171254              -0.000489193               0.002002689               0.001513496               0.000000000               0.000000000               0.000000000               0.000000000               0.001066444               0.005477461               0.001013108              -0.000284766               0.001920724               0.001635958               0.000000000               0.000000000               0.000000000               0.000000000               0.001568908               0.005390754               0.000838779              -0.000085504               0.001825401               0.001739897               0.000000000               0.000000000               0.000000000               0.000000000               0.002032507               0.005269930               0.000619561               0.000103447               0.001722143               0.001825591               0.000000000               0.000000000               0.000000000               0.000000000               0.002441613               0.005138812               0.000338085               0.000273251               0.001621837               0.001895087               0.000000000               0.000000000               0.000000000               0.000000000               0.002685846               0.005096808               0.000193419               0.000370088               0.001575556               0.001945644               0.000000000               0.000000000               0.000000000               0.000000000              -0.013299219              -0.001172043              -0.001345969              -0.004840699               0.001222876              -0.003617822               0.000000000               0.000000000               0.000000000               0.000000000              -0.009389958              -0.000170606               0.000006378              -0.003499906               0.001109759              -0.002390147               0.000000000               0.000000000               0.000000000               0.000000000              -0.006400130               0.000614290               0.001262802              -0.002476833               0.001030367              -0.001446466               0.000000000               0.000000000               0.000000000               0.000000000              -0.004708827               0.001615822               0.001665148              -0.001967785               0.001194527              -0.000773258               0.000000000               0.000000000               0.000000000               0.000000000              -0.003581280               0.002510263               0.001733348              -0.001656760               0.001388998              -0.000267762               0.000000000               0.000000000               0.000000000               0.000000000              -0.002732485               0.003228063               0.001668246              -0.001428187               0.001552072               0.000123885               0.000000000               0.000000000               0.000000000               0.000000000              -0.002024985               0.003793778               0.001561438              -0.001233589               0.001675776               0.000442187               0.000000000               0.000000000               0.000000000               0.000000000              -0.001396429               0.004243592               0.001451358              -0.001054108               0.001765885               0.000711777               0.000000000               0.000000000               0.000000000               0.000000000              -0.000814746               0.004597733               0.001345726              -0.000880245               0.001825977               0.000945732               0.000000000               0.000000000               0.000000000               0.000000000              -0.000255094               0.004862023               0.001241054              -0.000703412               0.001855129               0.001151717               0.000000000               0.000000000               0.000000000               0.000000000               0.000312782               0.005057969               0.001129816              -0.000514952               0.001857623               0.001342671               0.000000000               0.000000000               0.000000000               0.000000000               0.000896303               0.005193227               0.001008537              -0.000313040               0.001835405               0.001522365               0.000000000               0.000000000               0.000000000               0.000000000               0.001487322               0.005264145               0.000879544              -0.000100273               0.001788121               0.001687849               0.000000000               0.000000000               0.000000000               0.000000000               0.002086311               0.005274107               0.000740400               0.000123102               0.001716984               0.001840086               0.000000000               0.000000000               0.000000000               0.000000000               0.002701879               0.005222442               0.000564555               0.000360396               0.001620665               0.001981060               0.000000000               0.000000000               0.000000000               0.000000000               0.003328664               0.005119985               0.000317892               0.000608245               0.001503896               0.002112141               0.000000000               0.000000000               0.000000000               0.000000000               0.003767502               0.005106272               0.000191284               0.000774521               0.001443900               0.002218421               0.000000000               0.000000000               0.000000000               0.000000000              -0.014527581              -0.001285069              -0.000770897              -0.005287206               0.001334036              -0.003953169               0.000000000               0.000000000               0.000000000               0.000000000              -0.010082740              -0.000608068              -0.000029105              -0.003705016               0.001032309              -0.002672707               0.000000000               0.000000000               0.000000000               0.000000000              -0.006563641              -0.000164902               0.000668650              -0.002440751               0.000758611              -0.001682140               0.000000000               0.000000000               0.000000000               0.000000000              -0.004626167               0.000741349               0.000908078              -0.001827479               0.000856270              -0.000971209               0.000000000               0.000000000               0.000000000               0.000000000              -0.003396651               0.001649324               0.000959853              -0.001479907               0.001043070              -0.000436837               0.000000000               0.000000000               0.000000000               0.000000000              -0.002506066               0.002434815               0.000932444              -0.001244124               0.001226304              -0.000017820               0.000000000               0.000000000               0.000000000               0.000000000              -0.001779497               0.003084226               0.000881131              -0.001052837               0.001379011               0.000326173               0.000000000               0.000000000               0.000000000               0.000000000              -0.001141565               0.003616741               0.000824911              -0.000880178               0.001498961               0.000618783               0.000000000               0.000000000               0.000000000               0.000000000              -0.000550647               0.004055413               0.000768900              -0.000713418               0.001589596               0.000876179               0.000000000               0.000000000               0.000000000               0.000000000               0.000016418               0.004404876               0.000716289              -0.000544452               0.001649761               0.001105309               0.000000000               0.000000000               0.000000000               0.000000000               0.000586951               0.004682599               0.000660321              -0.000365218               0.001682590               0.001317372               0.000000000               0.000000000               0.000000000               0.000000000               0.001181240               0.004898558               0.000592371              -0.000169355               0.001689288               0.001519933               0.000000000               0.000000000               0.000000000               0.000000000               0.001811786               0.005051929               0.000516190               0.000047928               0.001667984               0.001715911               0.000000000               0.000000000               0.000000000               0.000000000               0.002484350               0.005142111               0.000440939               0.000288865               0.001617732               0.001906596               0.000000000               0.000000000               0.000000000               0.000000000               0.003207569               0.005163033               0.000344855               0.000557454               0.001535176               0.002092629               0.000000000               0.000000000               0.000000000               0.000000000               0.003999843               0.005103977               0.000196090               0.000861935               0.001413997               0.002275932               0.000000000               0.000000000               0.000000000               0.000000000               0.004599178               0.005118980               0.000119729               0.001084809               0.001344707               0.002429515               0.000000000               0.000000000               0.000000000               0.000000000               0.000000000               0.000000000               0.000000000               0.000000000               0.000000000               0.000000000               0.000000000               0.000000000               0.000000000               0.000000000               0.000000000               0.000000000               0.000000000               0.000000000               0.000000000               0.000000000               0.000000000               0.000000000               0.000000000               0.000000000               0.000000000               0.000000000               0.000000000               0.000000000               0.000000000               0.000000000               0.000000000               0.000000000               0.000000000               0.000000000               0.000000000               0.000000000               0.000000000               0.000000000               0.000000000               0.000000000               0.000000000               0.000000000               0.000000000               0.000000000               0.000000000               0.000000000               0.000000000               0.000000000               0.000000000               0.000000000               0.000000000               0.000000000               0.000000000               0.000000000               0.000000000               0.000000000               0.000000000               0.000000000               0.000000000               0.000000000               0.000000000               0.000000000               0.000000000               0.000000000               0.000000000               0.000000000               0.000000000               0.000000000               0.000000000               0.000000000               0.000000000               0.000000000               0.000000000               0.000000000               0.000000000               0.000000000               0.000000000               0.000000000               0.000000000               0.000000000               0.000000000               0.000000000               0.000000000               0.000000000               0.000000000               0.000000000               0.000000000               0.000000000               0.000000000               0.000000000               0.000000000               0.000000000               0.000000000               0.000000000               0.000000000               0.000000000               0.000000000               0.000000000               0.000000000               0.000000000               0.000000000               0.000000000               0.000000000               0.000000000               0.000000000               0.000000000               0.000000000               0.000000000               0.000000000               0.000000000               0.000000000               0.000000000               0.000000000               0.000000000               0.000000000               0.000000000               0.000000000               0.000000000               0.000000000               0.000000000               0.000000000               0.000000000               0.000000000               0.000000000               0.000000000               0.000000000               0.000000000               0.000000000               0.000000000               0.000000000               0.000000000               0.000000000               0.000000000               0.000000000               0.000000000               0.000000000               0.000000000               0.000000000               0.000000000               0.000000000               0.000000000               0.000000000               0.000000000               0.000000000               0.000000000               0.000000000               0.000000000               0.000000000               0.000000000               0.000000000               0.000000000               0.000000000               0.000000000               0.000000000               0.000000000               0.000000000               0.000000000               0.000000000               0.000000000               0.000000000               0.000000000               0.000000000               0.000000000               0.000000000               0.000000000               0.000000000               0.000000000               0.000000000               0.000000000               0.000000000               0.000000000               0.000000000               0.000000000               0.000000000 </DataArray>
</PointData>
</Piece>
</UnstructuredGrid> </VTKFile>
