<?xml version="1.0"?>
<VTKFile type="UnstructuredGrid" version="0.1">
<UnstructuredGrid>
<Piece NumberOfPoints="      1156" NumberOfCells="      1024">
<Points>
<DataArray type="Float64"                                    Name="coordinates"                                                      NumberOfComponents=" 3" format="ascii">
              0.133000000               0.000000000               0.000000000               0.155937500               0.000000000               0.000000000               0.178875000               0.000000000               0.000000000               0.201812500               0.000000000               0.000000000               0.224750000               0.000000000               0.000000000               0.247687500               0.000000000               0.000000000               0.270625000               0.000000000               0.000000000               0.293562500               0.000000000               0.000000000               0.316500000               0.000000000               0.000000000               0.339437500               0.000000000               0.000000000               0.362375000               0.000000000               0.000000000               0.385312500               0.000000000               0.000000000               0.408250000               0.000000000               0.000000000               0.431187500               0.000000000               0.000000000               0.454125000               0.000000000               0.000000000               0.477062500               0.000000000               0.000000000               0.500000000               0.000000000               0.000000000               0.132359569               0.013036280               0.000000000               0.155337096               0.016127762               0.000000000               0.178314623               0.019219245               0.000000000               0.201292150               0.022310727               0.000000000               0.224269676               0.025402210               0.000000000               0.247247203               0.028493692               0.000000000               0.270224730               0.031585175               0.000000000               0.293202257               0.034676657               0.000000000               0.316179784               0.037768140               0.000000000               0.339157311               0.040859622               0.000000000               0.362134838               0.043951105               0.000000000               0.385112365               0.047042587               0.000000000               0.408089892               0.050134070               0.000000000               0.431067419               0.053225552               0.000000000               0.454044946               0.056317035               0.000000000               0.477022473               0.059408517               0.000000000               0.500000000               0.062500000               0.000000000               0.130444442               0.025947013               0.000000000               0.153541665               0.032137825               0.000000000               0.176638887               0.038328636               0.000000000               0.199736109               0.044519448               0.000000000               0.222833332               0.050710260               0.000000000               0.245930554               0.056901071               0.000000000               0.269027776               0.063091883               0.000000000               0.292124999               0.069282695               0.000000000               0.315222221               0.075473506               0.000000000               0.338319444               0.081664318               0.000000000               0.361416666               0.087855130               0.000000000               0.384513888               0.094045942               0.000000000               0.407611111               0.100236753               0.000000000               0.430708333               0.106427565               0.000000000               0.453805555               0.112618377               0.000000000               0.476902778               0.118809188               0.000000000               0.500000000               0.125000000               0.000000000               0.127273065               0.038607862               0.000000000               0.150568498               0.047913621               0.000000000               0.173863932               0.057219379               0.000000000               0.197159365               0.066525138               0.000000000               0.220454798               0.075830897               0.000000000               0.243750232               0.085136655               0.000000000               0.267045665               0.094442414               0.000000000               0.290341099               0.103748172               0.000000000               0.313636532               0.113053931               0.000000000               0.336931966               0.122359690               0.000000000               0.360227399               0.131665448               0.000000000               0.383522833               0.140971207               0.000000000               0.406818266               0.150276966               0.000000000               0.430113700               0.159582724               0.000000000               0.453409133               0.168888483               0.000000000               0.476704567               0.178194241               0.000000000               0.500000000               0.187500000               0.000000000               0.122875978               0.050896897               0.000000000               0.146446229               0.063340840               0.000000000               0.170016481               0.075784784               0.000000000               0.193586732               0.088228728               0.000000000               0.217156983               0.100672672               0.000000000               0.240727235               0.113116616               0.000000000               0.264297486               0.125560560               0.000000000               0.287867738               0.138004504               0.000000000               0.311437989               0.150448448               0.000000000               0.335008240               0.162892392               0.000000000               0.358578492               0.175336336               0.000000000               0.382148743               0.187780280               0.000000000               0.405718994               0.200224224               0.000000000               0.429289246               0.212668168               0.000000000               0.452859497               0.225112112               0.000000000               0.476429749               0.237556056               0.000000000               0.500000000               0.250000000               0.000000000               0.117295528               0.062695766               0.000000000               0.141214558               0.078308531               0.000000000               0.165133587               0.093921295               0.000000000               0.189052617               0.109534060               0.000000000               0.212971646               0.125146824               0.000000000               0.236890676               0.140759589               0.000000000               0.260809705               0.156372354               0.000000000               0.284728735               0.171985118               0.000000000               0.308647764               0.187597883               0.000000000               0.332566794               0.203210648               0.000000000               0.356485823               0.218823412               0.000000000               0.380404853               0.234436177               0.000000000               0.404323882               0.250048941               0.000000000               0.428242912               0.265661706               0.000000000               0.452161941               0.281274471               0.000000000               0.476080971               0.296887235               0.000000000               0.500000000               0.312500000               0.000000000               0.110585458               0.073890841               0.000000000               0.134923867               0.092710163               0.000000000               0.159262276               0.111529486               0.000000000               0.183600685               0.130348808               0.000000000               0.207939094               0.149168131               0.000000000               0.232277503               0.167987453               0.000000000               0.256615912               0.186806776               0.000000000               0.280954320               0.205626098               0.000000000               0.305292729               0.224445420               0.000000000               0.329631138               0.243264743               0.000000000               0.353969547               0.262084065               0.000000000               0.378307956               0.280903388               0.000000000               0.402646365               0.299722710               0.000000000               0.426984773               0.318542033               0.000000000               0.451323182               0.337361355               0.000000000               0.475661591               0.356180678               0.000000000               0.500000000               0.375000000               0.000000000               0.102810390               0.084374307               0.000000000               0.127634741               0.106444663               0.000000000               0.152459092               0.128515018               0.000000000               0.177283442               0.150585374               0.000000000               0.202107793               0.172655730               0.000000000               0.226932143               0.194726086               0.000000000               0.251756494               0.216796442               0.000000000               0.276580845               0.238866798               0.000000000               0.301405195               0.260937153               0.000000000               0.326229546               0.283007509               0.000000000               0.351053896               0.305077865               0.000000000               0.375878247               0.327148221               0.000000000               0.400702598               0.349218577               0.000000000               0.425526948               0.371288933               0.000000000               0.450351299               0.393359288               0.000000000               0.475175649               0.415429644               0.000000000               0.500000000               0.437500000               0.000000000               0.094045202               0.094045202               0.000000000               0.119417377               0.119417377               0.000000000               0.144789552               0.144789552               0.000000000               0.170161727               0.170161727               0.000000000               0.195533901               0.195533901               0.000000000               0.220906076               0.220906076               0.000000000               0.246278251               0.246278251               0.000000000               0.271650426               0.271650426               0.000000000               0.297022601               0.297022601               0.000000000               0.322394776               0.322394776               0.000000000               0.347766951               0.347766951               0.000000000               0.373139126               0.373139126               0.000000000               0.398511300               0.398511300               0.000000000               0.423883475               0.423883475               0.000000000               0.449255650               0.449255650               0.000000000               0.474627825               0.474627825               0.000000000               0.500000000               0.500000000               0.000000000               0.084374307               0.102810390               0.000000000               0.106444663               0.127634741               0.000000000               0.128515018               0.152459092               0.000000000               0.150585374               0.177283442               0.000000000               0.172655730               0.202107793               0.000000000               0.194726086               0.226932143               0.000000000               0.216796442               0.251756494               0.000000000               0.238866798               0.276580845               0.000000000               0.260937153               0.301405195               0.000000000               0.283007509               0.326229546               0.000000000               0.305077865               0.351053896               0.000000000               0.327148221               0.375878247               0.000000000               0.349218577               0.400702598               0.000000000               0.371288933               0.425526948               0.000000000               0.393359288               0.450351299               0.000000000               0.415429644               0.475175649               0.000000000               0.437500000               0.500000000               0.000000000               0.073890841               0.110585458               0.000000000               0.092710163               0.134923867               0.000000000               0.111529486               0.159262276               0.000000000               0.130348808               0.183600685               0.000000000               0.149168131               0.207939094               0.000000000               0.167987453               0.232277503               0.000000000               0.186806776               0.256615912               0.000000000               0.205626098               0.280954320               0.000000000               0.224445420               0.305292729               0.000000000               0.243264743               0.329631138               0.000000000               0.262084065               0.353969547               0.000000000               0.280903388               0.378307956               0.000000000               0.299722710               0.402646365               0.000000000               0.318542033               0.426984773               0.000000000               0.337361355               0.451323182               0.000000000               0.356180678               0.475661591               0.000000000               0.375000000               0.500000000               0.000000000               0.062695766               0.117295528               0.000000000               0.078308531               0.141214558               0.000000000               0.093921295               0.165133587               0.000000000               0.109534060               0.189052617               0.000000000               0.125146824               0.212971646               0.000000000               0.140759589               0.236890676               0.000000000               0.156372354               0.260809705               0.000000000               0.171985118               0.284728735               0.000000000               0.187597883               0.308647764               0.000000000               0.203210648               0.332566794               0.000000000               0.218823412               0.356485823               0.000000000               0.234436177               0.380404853               0.000000000               0.250048941               0.404323882               0.000000000               0.265661706               0.428242912               0.000000000               0.281274471               0.452161941               0.000000000               0.296887235               0.476080971               0.000000000               0.312500000               0.500000000               0.000000000               0.050896897               0.122875978               0.000000000               0.063340840               0.146446229               0.000000000               0.075784784               0.170016481               0.000000000               0.088228728               0.193586732               0.000000000               0.100672672               0.217156983               0.000000000               0.113116616               0.240727235               0.000000000               0.125560560               0.264297486               0.000000000               0.138004504               0.287867738               0.000000000               0.150448448               0.311437989               0.000000000               0.162892392               0.335008240               0.000000000               0.175336336               0.358578492               0.000000000               0.187780280               0.382148743               0.000000000               0.200224224               0.405718994               0.000000000               0.212668168               0.429289246               0.000000000               0.225112112               0.452859497               0.000000000               0.237556056               0.476429749               0.000000000               0.250000000               0.500000000               0.000000000               0.038607862               0.127273065               0.000000000               0.047913621               0.150568498               0.000000000               0.057219379               0.173863932               0.000000000               0.066525138               0.197159365               0.000000000               0.075830897               0.220454798               0.000000000               0.085136655               0.243750232               0.000000000               0.094442414               0.267045665               0.000000000               0.103748172               0.290341099               0.000000000               0.113053931               0.313636532               0.000000000               0.122359690               0.336931966               0.000000000               0.131665448               0.360227399               0.000000000               0.140971207               0.383522833               0.000000000               0.150276966               0.406818266               0.000000000               0.159582724               0.430113700               0.000000000               0.168888483               0.453409133               0.000000000               0.178194241               0.476704567               0.000000000               0.187500000               0.500000000               0.000000000               0.025947013               0.130444442               0.000000000               0.032137825               0.153541665               0.000000000               0.038328636               0.176638887               0.000000000               0.044519448               0.199736109               0.000000000               0.050710260               0.222833332               0.000000000               0.056901071               0.245930554               0.000000000               0.063091883               0.269027776               0.000000000               0.069282695               0.292124999               0.000000000               0.075473506               0.315222221               0.000000000               0.081664318               0.338319444               0.000000000               0.087855130               0.361416666               0.000000000               0.094045942               0.384513888               0.000000000               0.100236753               0.407611111               0.000000000               0.106427565               0.430708333               0.000000000               0.112618377               0.453805555               0.000000000               0.118809188               0.476902778               0.000000000               0.125000000               0.500000000               0.000000000               0.013036280               0.132359569               0.000000000               0.016127762               0.155337096               0.000000000               0.019219245               0.178314623               0.000000000               0.022310727               0.201292150               0.000000000               0.025402210               0.224269676               0.000000000               0.028493692               0.247247203               0.000000000               0.031585175               0.270224730               0.000000000               0.034676657               0.293202257               0.000000000               0.037768140               0.316179784               0.000000000               0.040859622               0.339157311               0.000000000               0.043951105               0.362134838               0.000000000               0.047042587               0.385112365               0.000000000               0.050134070               0.408089892               0.000000000               0.053225552               0.431067419               0.000000000               0.056317035               0.454044946               0.000000000               0.059408517               0.477022473               0.000000000               0.062500000               0.500000000               0.000000000               0.000000000               0.133000000               0.000000000               0.000000000               0.155937500               0.000000000               0.000000000               0.178875000               0.000000000               0.000000000               0.201812500               0.000000000               0.000000000               0.224750000               0.000000000               0.000000000               0.247687500               0.000000000               0.000000000               0.270625000               0.000000000               0.000000000               0.293562500               0.000000000               0.000000000               0.316500000               0.000000000               0.000000000               0.339437500               0.000000000               0.000000000               0.362375000               0.000000000               0.000000000               0.385312500               0.000000000               0.000000000               0.408250000               0.000000000               0.000000000               0.431187500               0.000000000               0.000000000               0.454125000               0.000000000               0.000000000               0.477062500               0.000000000               0.000000000               0.500000000               0.000000000               0.133000000               0.000000000               0.000000000               0.155937500               0.000000000               0.000000000               0.178875000               0.000000000               0.000000000               0.201812500               0.000000000               0.000000000               0.224750000               0.000000000               0.000000000               0.247687500               0.000000000               0.000000000               0.270625000               0.000000000               0.000000000               0.293562500               0.000000000               0.000000000               0.316500000               0.000000000               0.000000000               0.339437500               0.000000000               0.000000000               0.362375000               0.000000000               0.000000000               0.385312500               0.000000000               0.000000000               0.408250000               0.000000000               0.000000000               0.431187500               0.000000000               0.000000000               0.454125000               0.000000000               0.000000000               0.477062500               0.000000000               0.000000000               0.500000000               0.000000000               0.000000000               0.132359569              -0.013036280               0.000000000               0.155337096              -0.016127762               0.000000000               0.178314623              -0.019219245               0.000000000               0.201292150              -0.022310727               0.000000000               0.224269676              -0.025402210               0.000000000               0.247247203              -0.028493692               0.000000000               0.270224730              -0.031585175               0.000000000               0.293202257              -0.034676657               0.000000000               0.316179784              -0.037768140               0.000000000               0.339157311              -0.040859622               0.000000000               0.362134838              -0.043951105               0.000000000               0.385112365              -0.047042587               0.000000000               0.408089892              -0.050134070               0.000000000               0.431067419              -0.053225552               0.000000000               0.454044946              -0.056317035               0.000000000               0.477022473              -0.059408517               0.000000000               0.500000000              -0.062500000               0.000000000               0.130444442              -0.025947013               0.000000000               0.153541665              -0.032137825               0.000000000               0.176638887              -0.038328636               0.000000000               0.199736109              -0.044519448               0.000000000               0.222833332              -0.050710260               0.000000000               0.245930554              -0.056901071               0.000000000               0.269027776              -0.063091883               0.000000000               0.292124999              -0.069282695               0.000000000               0.315222221              -0.075473506               0.000000000               0.338319444              -0.081664318               0.000000000               0.361416666              -0.087855130               0.000000000               0.384513888              -0.094045942               0.000000000               0.407611111              -0.100236753               0.000000000               0.430708333              -0.106427565               0.000000000               0.453805555              -0.112618377               0.000000000               0.476902778              -0.118809188               0.000000000               0.500000000              -0.125000000               0.000000000               0.127273065              -0.038607862               0.000000000               0.150568498              -0.047913621               0.000000000               0.173863932              -0.057219379               0.000000000               0.197159365              -0.066525138               0.000000000               0.220454798              -0.075830897               0.000000000               0.243750232              -0.085136655               0.000000000               0.267045665              -0.094442414               0.000000000               0.290341099              -0.103748172               0.000000000               0.313636532              -0.113053931               0.000000000               0.336931966              -0.122359690               0.000000000               0.360227399              -0.131665448               0.000000000               0.383522833              -0.140971207               0.000000000               0.406818266              -0.150276966               0.000000000               0.430113700              -0.159582724               0.000000000               0.453409133              -0.168888483               0.000000000               0.476704567              -0.178194241               0.000000000               0.500000000              -0.187500000               0.000000000               0.122875978              -0.050896897               0.000000000               0.146446229              -0.063340840               0.000000000               0.170016481              -0.075784784               0.000000000               0.193586732              -0.088228728               0.000000000               0.217156983              -0.100672672               0.000000000               0.240727235              -0.113116616               0.000000000               0.264297486              -0.125560560               0.000000000               0.287867738              -0.138004504               0.000000000               0.311437989              -0.150448448               0.000000000               0.335008240              -0.162892392               0.000000000               0.358578492              -0.175336336               0.000000000               0.382148743              -0.187780280               0.000000000               0.405718994              -0.200224224               0.000000000               0.429289246              -0.212668168               0.000000000               0.452859497              -0.225112112               0.000000000               0.476429749              -0.237556056               0.000000000               0.500000000              -0.250000000               0.000000000               0.117295528              -0.062695766               0.000000000               0.141214558              -0.078308531               0.000000000               0.165133587              -0.093921295               0.000000000               0.189052617              -0.109534060               0.000000000               0.212971646              -0.125146824               0.000000000               0.236890676              -0.140759589               0.000000000               0.260809705              -0.156372354               0.000000000               0.284728735              -0.171985118               0.000000000               0.308647764              -0.187597883               0.000000000               0.332566794              -0.203210648               0.000000000               0.356485823              -0.218823412               0.000000000               0.380404853              -0.234436177               0.000000000               0.404323882              -0.250048941               0.000000000               0.428242912              -0.265661706               0.000000000               0.452161941              -0.281274471               0.000000000               0.476080971              -0.296887235               0.000000000               0.500000000              -0.312500000               0.000000000               0.110585458              -0.073890841               0.000000000               0.134923867              -0.092710163               0.000000000               0.159262276              -0.111529486               0.000000000               0.183600685              -0.130348808               0.000000000               0.207939094              -0.149168131               0.000000000               0.232277503              -0.167987453               0.000000000               0.256615912              -0.186806776               0.000000000               0.280954320              -0.205626098               0.000000000               0.305292729              -0.224445420               0.000000000               0.329631138              -0.243264743               0.000000000               0.353969547              -0.262084065               0.000000000               0.378307956              -0.280903388               0.000000000               0.402646365              -0.299722710               0.000000000               0.426984773              -0.318542033               0.000000000               0.451323182              -0.337361355               0.000000000               0.475661591              -0.356180678               0.000000000               0.500000000              -0.375000000               0.000000000               0.102810390              -0.084374307               0.000000000               0.127634741              -0.106444663               0.000000000               0.152459092              -0.128515018               0.000000000               0.177283442              -0.150585374               0.000000000               0.202107793              -0.172655730               0.000000000               0.226932143              -0.194726086               0.000000000               0.251756494              -0.216796442               0.000000000               0.276580845              -0.238866798               0.000000000               0.301405195              -0.260937153               0.000000000               0.326229546              -0.283007509               0.000000000               0.351053896              -0.305077865               0.000000000               0.375878247              -0.327148221               0.000000000               0.400702598              -0.349218577               0.000000000               0.425526948              -0.371288933               0.000000000               0.450351299              -0.393359288               0.000000000               0.475175649              -0.415429644               0.000000000               0.500000000              -0.437500000               0.000000000               0.094045202              -0.094045202               0.000000000               0.119417377              -0.119417377               0.000000000               0.144789552              -0.144789552               0.000000000               0.170161727              -0.170161727               0.000000000               0.195533901              -0.195533901               0.000000000               0.220906076              -0.220906076               0.000000000               0.246278251              -0.246278251               0.000000000               0.271650426              -0.271650426               0.000000000               0.297022601              -0.297022601               0.000000000               0.322394776              -0.322394776               0.000000000               0.347766951              -0.347766951               0.000000000               0.373139126              -0.373139126               0.000000000               0.398511300              -0.398511300               0.000000000               0.423883475              -0.423883475               0.000000000               0.449255650              -0.449255650               0.000000000               0.474627825              -0.474627825               0.000000000               0.500000000              -0.500000000               0.000000000               0.084374307              -0.102810390               0.000000000               0.106444663              -0.127634741               0.000000000               0.128515018              -0.152459092               0.000000000               0.150585374              -0.177283442               0.000000000               0.172655730              -0.202107793               0.000000000               0.194726086              -0.226932143               0.000000000               0.216796442              -0.251756494               0.000000000               0.238866798              -0.276580845               0.000000000               0.260937153              -0.301405195               0.000000000               0.283007509              -0.326229546               0.000000000               0.305077865              -0.351053896               0.000000000               0.327148221              -0.375878247               0.000000000               0.349218577              -0.400702598               0.000000000               0.371288933              -0.425526948               0.000000000               0.393359288              -0.450351299               0.000000000               0.415429644              -0.475175649               0.000000000               0.437500000              -0.500000000               0.000000000               0.073890841              -0.110585458               0.000000000               0.092710163              -0.134923867               0.000000000               0.111529486              -0.159262276               0.000000000               0.130348808              -0.183600685               0.000000000               0.149168131              -0.207939094               0.000000000               0.167987453              -0.232277503               0.000000000               0.186806776              -0.256615912               0.000000000               0.205626098              -0.280954320               0.000000000               0.224445420              -0.305292729               0.000000000               0.243264743              -0.329631138               0.000000000               0.262084065              -0.353969547               0.000000000               0.280903388              -0.378307956               0.000000000               0.299722710              -0.402646365               0.000000000               0.318542033              -0.426984773               0.000000000               0.337361355              -0.451323182               0.000000000               0.356180678              -0.475661591               0.000000000               0.375000000              -0.500000000               0.000000000               0.062695766              -0.117295528               0.000000000               0.078308531              -0.141214558               0.000000000               0.093921295              -0.165133587               0.000000000               0.109534060              -0.189052617               0.000000000               0.125146824              -0.212971646               0.000000000               0.140759589              -0.236890676               0.000000000               0.156372354              -0.260809705               0.000000000               0.171985118              -0.284728735               0.000000000               0.187597883              -0.308647764               0.000000000               0.203210648              -0.332566794               0.000000000               0.218823412              -0.356485823               0.000000000               0.234436177              -0.380404853               0.000000000               0.250048941              -0.404323882               0.000000000               0.265661706              -0.428242912               0.000000000               0.281274471              -0.452161941               0.000000000               0.296887235              -0.476080971               0.000000000               0.312500000              -0.500000000               0.000000000               0.050896897              -0.122875978               0.000000000               0.063340840              -0.146446229               0.000000000               0.075784784              -0.170016481               0.000000000               0.088228728              -0.193586732               0.000000000               0.100672672              -0.217156983               0.000000000               0.113116616              -0.240727235               0.000000000               0.125560560              -0.264297486               0.000000000               0.138004504              -0.287867738               0.000000000               0.150448448              -0.311437989               0.000000000               0.162892392              -0.335008240               0.000000000               0.175336336              -0.358578492               0.000000000               0.187780280              -0.382148743               0.000000000               0.200224224              -0.405718994               0.000000000               0.212668168              -0.429289246               0.000000000               0.225112112              -0.452859497               0.000000000               0.237556056              -0.476429749               0.000000000               0.250000000              -0.500000000               0.000000000               0.038607862              -0.127273065               0.000000000               0.047913621              -0.150568498               0.000000000               0.057219379              -0.173863932               0.000000000               0.066525138              -0.197159365               0.000000000               0.075830897              -0.220454798               0.000000000               0.085136655              -0.243750232               0.000000000               0.094442414              -0.267045665               0.000000000               0.103748172              -0.290341099               0.000000000               0.113053931              -0.313636532               0.000000000               0.122359690              -0.336931966               0.000000000               0.131665448              -0.360227399               0.000000000               0.140971207              -0.383522833               0.000000000               0.150276966              -0.406818266               0.000000000               0.159582724              -0.430113700               0.000000000               0.168888483              -0.453409133               0.000000000               0.178194241              -0.476704567               0.000000000               0.187500000              -0.500000000               0.000000000               0.025947013              -0.130444442               0.000000000               0.032137825              -0.153541665               0.000000000               0.038328636              -0.176638887               0.000000000               0.044519448              -0.199736109               0.000000000               0.050710260              -0.222833332               0.000000000               0.056901071              -0.245930554               0.000000000               0.063091883              -0.269027776               0.000000000               0.069282695              -0.292124999               0.000000000               0.075473506              -0.315222221               0.000000000               0.081664318              -0.338319444               0.000000000               0.087855130              -0.361416666               0.000000000               0.094045942              -0.384513888               0.000000000               0.100236753              -0.407611111               0.000000000               0.106427565              -0.430708333               0.000000000               0.112618377              -0.453805555               0.000000000               0.118809188              -0.476902778               0.000000000               0.125000000              -0.500000000               0.000000000               0.013036280              -0.132359569               0.000000000               0.016127762              -0.155337096               0.000000000               0.019219245              -0.178314623               0.000000000               0.022310727              -0.201292150               0.000000000               0.025402210              -0.224269676               0.000000000               0.028493692              -0.247247203               0.000000000               0.031585175              -0.270224730               0.000000000               0.034676657              -0.293202257               0.000000000               0.037768140              -0.316179784               0.000000000               0.040859622              -0.339157311               0.000000000               0.043951105              -0.362134838               0.000000000               0.047042587              -0.385112365               0.000000000               0.050134070              -0.408089892               0.000000000               0.053225552              -0.431067419               0.000000000               0.056317035              -0.454044946               0.000000000               0.059408517              -0.477022473               0.000000000               0.062500000              -0.500000000               0.000000000               0.000000000              -0.133000000               0.000000000               0.000000000              -0.155937500               0.000000000               0.000000000              -0.178875000               0.000000000               0.000000000              -0.201812500               0.000000000               0.000000000              -0.224750000               0.000000000               0.000000000              -0.247687500               0.000000000               0.000000000              -0.270625000               0.000000000               0.000000000              -0.293562500               0.000000000               0.000000000              -0.316500000               0.000000000               0.000000000              -0.339437500               0.000000000               0.000000000              -0.362375000               0.000000000               0.000000000              -0.385312500               0.000000000               0.000000000              -0.408250000               0.000000000               0.000000000              -0.431187500               0.000000000               0.000000000              -0.454125000               0.000000000               0.000000000              -0.477062500               0.000000000               0.000000000              -0.500000000               0.000000000              -0.133000000               0.000000000               0.000000000              -0.155937500               0.000000000               0.000000000              -0.178875000               0.000000000               0.000000000              -0.201812500               0.000000000               0.000000000              -0.224750000               0.000000000               0.000000000              -0.247687500               0.000000000               0.000000000              -0.270625000               0.000000000               0.000000000              -0.293562500               0.000000000               0.000000000              -0.316500000               0.000000000               0.000000000              -0.339437500               0.000000000               0.000000000              -0.362375000               0.000000000               0.000000000              -0.385312500               0.000000000               0.000000000              -0.408250000               0.000000000               0.000000000              -0.431187500               0.000000000               0.000000000              -0.454125000               0.000000000               0.000000000              -0.477062500               0.000000000               0.000000000              -0.500000000               0.000000000               0.000000000              -0.132359569              -0.013036280               0.000000000              -0.155337096              -0.016127762               0.000000000              -0.178314623              -0.019219245               0.000000000              -0.201292150              -0.022310727               0.000000000              -0.224269676              -0.025402210               0.000000000              -0.247247203              -0.028493692               0.000000000              -0.270224730              -0.031585175               0.000000000              -0.293202257              -0.034676657               0.000000000              -0.316179784              -0.037768140               0.000000000              -0.339157311              -0.040859622               0.000000000              -0.362134838              -0.043951105               0.000000000              -0.385112365              -0.047042587               0.000000000              -0.408089892              -0.050134070               0.000000000              -0.431067419              -0.053225552               0.000000000              -0.454044946              -0.056317035               0.000000000              -0.477022473              -0.059408517               0.000000000              -0.500000000              -0.062500000               0.000000000              -0.130444442              -0.025947013               0.000000000              -0.153541665              -0.032137825               0.000000000              -0.176638887              -0.038328636               0.000000000              -0.199736109              -0.044519448               0.000000000              -0.222833332              -0.050710260               0.000000000              -0.245930554              -0.056901071               0.000000000              -0.269027776              -0.063091883               0.000000000              -0.292124999              -0.069282695               0.000000000              -0.315222221              -0.075473506               0.000000000              -0.338319444              -0.081664318               0.000000000              -0.361416666              -0.087855130               0.000000000              -0.384513888              -0.094045942               0.000000000              -0.407611111              -0.100236753               0.000000000              -0.430708333              -0.106427565               0.000000000              -0.453805555              -0.112618377               0.000000000              -0.476902778              -0.118809188               0.000000000              -0.500000000              -0.125000000               0.000000000              -0.127273065              -0.038607862               0.000000000              -0.150568498              -0.047913621               0.000000000              -0.173863932              -0.057219379               0.000000000              -0.197159365              -0.066525138               0.000000000              -0.220454798              -0.075830897               0.000000000              -0.243750232              -0.085136655               0.000000000              -0.267045665              -0.094442414               0.000000000              -0.290341099              -0.103748172               0.000000000              -0.313636532              -0.113053931               0.000000000              -0.336931966              -0.122359690               0.000000000              -0.360227399              -0.131665448               0.000000000              -0.383522833              -0.140971207               0.000000000              -0.406818266              -0.150276966               0.000000000              -0.430113700              -0.159582724               0.000000000              -0.453409133              -0.168888483               0.000000000              -0.476704567              -0.178194241               0.000000000              -0.500000000              -0.187500000               0.000000000              -0.122875978              -0.050896897               0.000000000              -0.146446229              -0.063340840               0.000000000              -0.170016481              -0.075784784               0.000000000              -0.193586732              -0.088228728               0.000000000              -0.217156983              -0.100672672               0.000000000              -0.240727235              -0.113116616               0.000000000              -0.264297486              -0.125560560               0.000000000              -0.287867738              -0.138004504               0.000000000              -0.311437989              -0.150448448               0.000000000              -0.335008240              -0.162892392               0.000000000              -0.358578492              -0.175336336               0.000000000              -0.382148743              -0.187780280               0.000000000              -0.405718994              -0.200224224               0.000000000              -0.429289246              -0.212668168               0.000000000              -0.452859497              -0.225112112               0.000000000              -0.476429749              -0.237556056               0.000000000              -0.500000000              -0.250000000               0.000000000              -0.117295528              -0.062695766               0.000000000              -0.141214558              -0.078308531               0.000000000              -0.165133587              -0.093921295               0.000000000              -0.189052617              -0.109534060               0.000000000              -0.212971646              -0.125146824               0.000000000              -0.236890676              -0.140759589               0.000000000              -0.260809705              -0.156372354               0.000000000              -0.284728735              -0.171985118               0.000000000              -0.308647764              -0.187597883               0.000000000              -0.332566794              -0.203210648               0.000000000              -0.356485823              -0.218823412               0.000000000              -0.380404853              -0.234436177               0.000000000              -0.404323882              -0.250048941               0.000000000              -0.428242912              -0.265661706               0.000000000              -0.452161941              -0.281274471               0.000000000              -0.476080971              -0.296887235               0.000000000              -0.500000000              -0.312500000               0.000000000              -0.110585458              -0.073890841               0.000000000              -0.134923867              -0.092710163               0.000000000              -0.159262276              -0.111529486               0.000000000              -0.183600685              -0.130348808               0.000000000              -0.207939094              -0.149168131               0.000000000              -0.232277503              -0.167987453               0.000000000              -0.256615912              -0.186806776               0.000000000              -0.280954320              -0.205626098               0.000000000              -0.305292729              -0.224445420               0.000000000              -0.329631138              -0.243264743               0.000000000              -0.353969547              -0.262084065               0.000000000              -0.378307956              -0.280903388               0.000000000              -0.402646365              -0.299722710               0.000000000              -0.426984773              -0.318542033               0.000000000              -0.451323182              -0.337361355               0.000000000              -0.475661591              -0.356180678               0.000000000              -0.500000000              -0.375000000               0.000000000              -0.102810390              -0.084374307               0.000000000              -0.127634741              -0.106444663               0.000000000              -0.152459092              -0.128515018               0.000000000              -0.177283442              -0.150585374               0.000000000              -0.202107793              -0.172655730               0.000000000              -0.226932143              -0.194726086               0.000000000              -0.251756494              -0.216796442               0.000000000              -0.276580845              -0.238866798               0.000000000              -0.301405195              -0.260937153               0.000000000              -0.326229546              -0.283007509               0.000000000              -0.351053896              -0.305077865               0.000000000              -0.375878247              -0.327148221               0.000000000              -0.400702598              -0.349218577               0.000000000              -0.425526948              -0.371288933               0.000000000              -0.450351299              -0.393359288               0.000000000              -0.475175649              -0.415429644               0.000000000              -0.500000000              -0.437500000               0.000000000              -0.094045202              -0.094045202               0.000000000              -0.119417377              -0.119417377               0.000000000              -0.144789552              -0.144789552               0.000000000              -0.170161727              -0.170161727               0.000000000              -0.195533901              -0.195533901               0.000000000              -0.220906076              -0.220906076               0.000000000              -0.246278251              -0.246278251               0.000000000              -0.271650426              -0.271650426               0.000000000              -0.297022601              -0.297022601               0.000000000              -0.322394776              -0.322394776               0.000000000              -0.347766951              -0.347766951               0.000000000              -0.373139126              -0.373139126               0.000000000              -0.398511300              -0.398511300               0.000000000              -0.423883475              -0.423883475               0.000000000              -0.449255650              -0.449255650               0.000000000              -0.474627825              -0.474627825               0.000000000              -0.500000000              -0.500000000               0.000000000              -0.084374307              -0.102810390               0.000000000              -0.106444663              -0.127634741               0.000000000              -0.128515018              -0.152459092               0.000000000              -0.150585374              -0.177283442               0.000000000              -0.172655730              -0.202107793               0.000000000              -0.194726086              -0.226932143               0.000000000              -0.216796442              -0.251756494               0.000000000              -0.238866798              -0.276580845               0.000000000              -0.260937153              -0.301405195               0.000000000              -0.283007509              -0.326229546               0.000000000              -0.305077865              -0.351053896               0.000000000              -0.327148221              -0.375878247               0.000000000              -0.349218577              -0.400702598               0.000000000              -0.371288933              -0.425526948               0.000000000              -0.393359288              -0.450351299               0.000000000              -0.415429644              -0.475175649               0.000000000              -0.437500000              -0.500000000               0.000000000              -0.073890841              -0.110585458               0.000000000              -0.092710163              -0.134923867               0.000000000              -0.111529486              -0.159262276               0.000000000              -0.130348808              -0.183600685               0.000000000              -0.149168131              -0.207939094               0.000000000              -0.167987453              -0.232277503               0.000000000              -0.186806776              -0.256615912               0.000000000              -0.205626098              -0.280954320               0.000000000              -0.224445420              -0.305292729               0.000000000              -0.243264743              -0.329631138               0.000000000              -0.262084065              -0.353969547               0.000000000              -0.280903388              -0.378307956               0.000000000              -0.299722710              -0.402646365               0.000000000              -0.318542033              -0.426984773               0.000000000              -0.337361355              -0.451323182               0.000000000              -0.356180678              -0.475661591               0.000000000              -0.375000000              -0.500000000               0.000000000              -0.062695766              -0.117295528               0.000000000              -0.078308531              -0.141214558               0.000000000              -0.093921295              -0.165133587               0.000000000              -0.109534060              -0.189052617               0.000000000              -0.125146824              -0.212971646               0.000000000              -0.140759589              -0.236890676               0.000000000              -0.156372354              -0.260809705               0.000000000              -0.171985118              -0.284728735               0.000000000              -0.187597883              -0.308647764               0.000000000              -0.203210648              -0.332566794               0.000000000              -0.218823412              -0.356485823               0.000000000              -0.234436177              -0.380404853               0.000000000              -0.250048941              -0.404323882               0.000000000              -0.265661706              -0.428242912               0.000000000              -0.281274471              -0.452161941               0.000000000              -0.296887235              -0.476080971               0.000000000              -0.312500000              -0.500000000               0.000000000              -0.050896897              -0.122875978               0.000000000              -0.063340840              -0.146446229               0.000000000              -0.075784784              -0.170016481               0.000000000              -0.088228728              -0.193586732               0.000000000              -0.100672672              -0.217156983               0.000000000              -0.113116616              -0.240727235               0.000000000              -0.125560560              -0.264297486               0.000000000              -0.138004504              -0.287867738               0.000000000              -0.150448448              -0.311437989               0.000000000              -0.162892392              -0.335008240               0.000000000              -0.175336336              -0.358578492               0.000000000              -0.187780280              -0.382148743               0.000000000              -0.200224224              -0.405718994               0.000000000              -0.212668168              -0.429289246               0.000000000              -0.225112112              -0.452859497               0.000000000              -0.237556056              -0.476429749               0.000000000              -0.250000000              -0.500000000               0.000000000              -0.038607862              -0.127273065               0.000000000              -0.047913621              -0.150568498               0.000000000              -0.057219379              -0.173863932               0.000000000              -0.066525138              -0.197159365               0.000000000              -0.075830897              -0.220454798               0.000000000              -0.085136655              -0.243750232               0.000000000              -0.094442414              -0.267045665               0.000000000              -0.103748172              -0.290341099               0.000000000              -0.113053931              -0.313636532               0.000000000              -0.122359690              -0.336931966               0.000000000              -0.131665448              -0.360227399               0.000000000              -0.140971207              -0.383522833               0.000000000              -0.150276966              -0.406818266               0.000000000              -0.159582724              -0.430113700               0.000000000              -0.168888483              -0.453409133               0.000000000              -0.178194241              -0.476704567               0.000000000              -0.187500000              -0.500000000               0.000000000              -0.025947013              -0.130444442               0.000000000              -0.032137825              -0.153541665               0.000000000              -0.038328636              -0.176638887               0.000000000              -0.044519448              -0.199736109               0.000000000              -0.050710260              -0.222833332               0.000000000              -0.056901071              -0.245930554               0.000000000              -0.063091883              -0.269027776               0.000000000              -0.069282695              -0.292124999               0.000000000              -0.075473506              -0.315222221               0.000000000              -0.081664318              -0.338319444               0.000000000              -0.087855130              -0.361416666               0.000000000              -0.094045942              -0.384513888               0.000000000              -0.100236753              -0.407611111               0.000000000              -0.106427565              -0.430708333               0.000000000              -0.112618377              -0.453805555               0.000000000              -0.118809188              -0.476902778               0.000000000              -0.125000000              -0.500000000               0.000000000              -0.013036280              -0.132359569               0.000000000              -0.016127762              -0.155337096               0.000000000              -0.019219245              -0.178314623               0.000000000              -0.022310727              -0.201292150               0.000000000              -0.025402210              -0.224269676               0.000000000              -0.028493692              -0.247247203               0.000000000              -0.031585175              -0.270224730               0.000000000              -0.034676657              -0.293202257               0.000000000              -0.037768140              -0.316179784               0.000000000              -0.040859622              -0.339157311               0.000000000              -0.043951105              -0.362134838               0.000000000              -0.047042587              -0.385112365               0.000000000              -0.050134070              -0.408089892               0.000000000              -0.053225552              -0.431067419               0.000000000              -0.056317035              -0.454044946               0.000000000              -0.059408517              -0.477022473               0.000000000              -0.062500000              -0.500000000               0.000000000               0.000000000              -0.133000000               0.000000000               0.000000000              -0.155937500               0.000000000               0.000000000              -0.178875000               0.000000000               0.000000000              -0.201812500               0.000000000               0.000000000              -0.224750000               0.000000000               0.000000000              -0.247687500               0.000000000               0.000000000              -0.270625000               0.000000000               0.000000000              -0.293562500               0.000000000               0.000000000              -0.316500000               0.000000000               0.000000000              -0.339437500               0.000000000               0.000000000              -0.362375000               0.000000000               0.000000000              -0.385312500               0.000000000               0.000000000              -0.408250000               0.000000000               0.000000000              -0.431187500               0.000000000               0.000000000              -0.454125000               0.000000000               0.000000000              -0.477062500               0.000000000               0.000000000              -0.500000000               0.000000000              -0.133000000               0.000000000               0.000000000              -0.155937500               0.000000000               0.000000000              -0.178875000               0.000000000               0.000000000              -0.201812500               0.000000000               0.000000000              -0.224750000               0.000000000               0.000000000              -0.247687500               0.000000000               0.000000000              -0.270625000               0.000000000               0.000000000              -0.293562500               0.000000000               0.000000000              -0.316500000               0.000000000               0.000000000              -0.339437500               0.000000000               0.000000000              -0.362375000               0.000000000               0.000000000              -0.385312500               0.000000000               0.000000000              -0.408250000               0.000000000               0.000000000              -0.431187500               0.000000000               0.000000000              -0.454125000               0.000000000               0.000000000              -0.477062500               0.000000000               0.000000000              -0.500000000               0.000000000               0.000000000              -0.132359569               0.013036280               0.000000000              -0.155337096               0.016127762               0.000000000              -0.178314623               0.019219245               0.000000000              -0.201292150               0.022310727               0.000000000              -0.224269676               0.025402210               0.000000000              -0.247247203               0.028493692               0.000000000              -0.270224730               0.031585175               0.000000000              -0.293202257               0.034676657               0.000000000              -0.316179784               0.037768140               0.000000000              -0.339157311               0.040859622               0.000000000              -0.362134838               0.043951105               0.000000000              -0.385112365               0.047042587               0.000000000              -0.408089892               0.050134070               0.000000000              -0.431067419               0.053225552               0.000000000              -0.454044946               0.056317035               0.000000000              -0.477022473               0.059408517               0.000000000              -0.500000000               0.062500000               0.000000000              -0.130444442               0.025947013               0.000000000              -0.153541665               0.032137825               0.000000000              -0.176638887               0.038328636               0.000000000              -0.199736109               0.044519448               0.000000000              -0.222833332               0.050710260               0.000000000              -0.245930554               0.056901071               0.000000000              -0.269027776               0.063091883               0.000000000              -0.292124999               0.069282695               0.000000000              -0.315222221               0.075473506               0.000000000              -0.338319444               0.081664318               0.000000000              -0.361416666               0.087855130               0.000000000              -0.384513888               0.094045942               0.000000000              -0.407611111               0.100236753               0.000000000              -0.430708333               0.106427565               0.000000000              -0.453805555               0.112618377               0.000000000              -0.476902778               0.118809188               0.000000000              -0.500000000               0.125000000               0.000000000              -0.127273065               0.038607862               0.000000000              -0.150568498               0.047913621               0.000000000              -0.173863932               0.057219379               0.000000000              -0.197159365               0.066525138               0.000000000              -0.220454798               0.075830897               0.000000000              -0.243750232               0.085136655               0.000000000              -0.267045665               0.094442414               0.000000000              -0.290341099               0.103748172               0.000000000              -0.313636532               0.113053931               0.000000000              -0.336931966               0.122359690               0.000000000              -0.360227399               0.131665448               0.000000000              -0.383522833               0.140971207               0.000000000              -0.406818266               0.150276966               0.000000000              -0.430113700               0.159582724               0.000000000              -0.453409133               0.168888483               0.000000000              -0.476704567               0.178194241               0.000000000              -0.500000000               0.187500000               0.000000000              -0.122875978               0.050896897               0.000000000              -0.146446229               0.063340840               0.000000000              -0.170016481               0.075784784               0.000000000              -0.193586732               0.088228728               0.000000000              -0.217156983               0.100672672               0.000000000              -0.240727235               0.113116616               0.000000000              -0.264297486               0.125560560               0.000000000              -0.287867738               0.138004504               0.000000000              -0.311437989               0.150448448               0.000000000              -0.335008240               0.162892392               0.000000000              -0.358578492               0.175336336               0.000000000              -0.382148743               0.187780280               0.000000000              -0.405718994               0.200224224               0.000000000              -0.429289246               0.212668168               0.000000000              -0.452859497               0.225112112               0.000000000              -0.476429749               0.237556056               0.000000000              -0.500000000               0.250000000               0.000000000              -0.117295528               0.062695766               0.000000000              -0.141214558               0.078308531               0.000000000              -0.165133587               0.093921295               0.000000000              -0.189052617               0.109534060               0.000000000              -0.212971646               0.125146824               0.000000000              -0.236890676               0.140759589               0.000000000              -0.260809705               0.156372354               0.000000000              -0.284728735               0.171985118               0.000000000              -0.308647764               0.187597883               0.000000000              -0.332566794               0.203210648               0.000000000              -0.356485823               0.218823412               0.000000000              -0.380404853               0.234436177               0.000000000              -0.404323882               0.250048941               0.000000000              -0.428242912               0.265661706               0.000000000              -0.452161941               0.281274471               0.000000000              -0.476080971               0.296887235               0.000000000              -0.500000000               0.312500000               0.000000000              -0.110585458               0.073890841               0.000000000              -0.134923867               0.092710163               0.000000000              -0.159262276               0.111529486               0.000000000              -0.183600685               0.130348808               0.000000000              -0.207939094               0.149168131               0.000000000              -0.232277503               0.167987453               0.000000000              -0.256615912               0.186806776               0.000000000              -0.280954320               0.205626098               0.000000000              -0.305292729               0.224445420               0.000000000              -0.329631138               0.243264743               0.000000000              -0.353969547               0.262084065               0.000000000              -0.378307956               0.280903388               0.000000000              -0.402646365               0.299722710               0.000000000              -0.426984773               0.318542033               0.000000000              -0.451323182               0.337361355               0.000000000              -0.475661591               0.356180678               0.000000000              -0.500000000               0.375000000               0.000000000              -0.102810390               0.084374307               0.000000000              -0.127634741               0.106444663               0.000000000              -0.152459092               0.128515018               0.000000000              -0.177283442               0.150585374               0.000000000              -0.202107793               0.172655730               0.000000000              -0.226932143               0.194726086               0.000000000              -0.251756494               0.216796442               0.000000000              -0.276580845               0.238866798               0.000000000              -0.301405195               0.260937153               0.000000000              -0.326229546               0.283007509               0.000000000              -0.351053896               0.305077865               0.000000000              -0.375878247               0.327148221               0.000000000              -0.400702598               0.349218577               0.000000000              -0.425526948               0.371288933               0.000000000              -0.450351299               0.393359288               0.000000000              -0.475175649               0.415429644               0.000000000              -0.500000000               0.437500000               0.000000000              -0.094045202               0.094045202               0.000000000              -0.119417377               0.119417377               0.000000000              -0.144789552               0.144789552               0.000000000              -0.170161727               0.170161727               0.000000000              -0.195533901               0.195533901               0.000000000              -0.220906076               0.220906076               0.000000000              -0.246278251               0.246278251               0.000000000              -0.271650426               0.271650426               0.000000000              -0.297022601               0.297022601               0.000000000              -0.322394776               0.322394776               0.000000000              -0.347766951               0.347766951               0.000000000              -0.373139126               0.373139126               0.000000000              -0.398511300               0.398511300               0.000000000              -0.423883475               0.423883475               0.000000000              -0.449255650               0.449255650               0.000000000              -0.474627825               0.474627825               0.000000000              -0.500000000               0.500000000               0.000000000              -0.084374307               0.102810390               0.000000000              -0.106444663               0.127634741               0.000000000              -0.128515018               0.152459092               0.000000000              -0.150585374               0.177283442               0.000000000              -0.172655730               0.202107793               0.000000000              -0.194726086               0.226932143               0.000000000              -0.216796442               0.251756494               0.000000000              -0.238866798               0.276580845               0.000000000              -0.260937153               0.301405195               0.000000000              -0.283007509               0.326229546               0.000000000              -0.305077865               0.351053896               0.000000000              -0.327148221               0.375878247               0.000000000              -0.349218577               0.400702598               0.000000000              -0.371288933               0.425526948               0.000000000              -0.393359288               0.450351299               0.000000000              -0.415429644               0.475175649               0.000000000              -0.437500000               0.500000000               0.000000000              -0.073890841               0.110585458               0.000000000              -0.092710163               0.134923867               0.000000000              -0.111529486               0.159262276               0.000000000              -0.130348808               0.183600685               0.000000000              -0.149168131               0.207939094               0.000000000              -0.167987453               0.232277503               0.000000000              -0.186806776               0.256615912               0.000000000              -0.205626098               0.280954320               0.000000000              -0.224445420               0.305292729               0.000000000              -0.243264743               0.329631138               0.000000000              -0.262084065               0.353969547               0.000000000              -0.280903388               0.378307956               0.000000000              -0.299722710               0.402646365               0.000000000              -0.318542033               0.426984773               0.000000000              -0.337361355               0.451323182               0.000000000              -0.356180678               0.475661591               0.000000000              -0.375000000               0.500000000               0.000000000              -0.062695766               0.117295528               0.000000000              -0.078308531               0.141214558               0.000000000              -0.093921295               0.165133587               0.000000000              -0.109534060               0.189052617               0.000000000              -0.125146824               0.212971646               0.000000000              -0.140759589               0.236890676               0.000000000              -0.156372354               0.260809705               0.000000000              -0.171985118               0.284728735               0.000000000              -0.187597883               0.308647764               0.000000000              -0.203210648               0.332566794               0.000000000              -0.218823412               0.356485823               0.000000000              -0.234436177               0.380404853               0.000000000              -0.250048941               0.404323882               0.000000000              -0.265661706               0.428242912               0.000000000              -0.281274471               0.452161941               0.000000000              -0.296887235               0.476080971               0.000000000              -0.312500000               0.500000000               0.000000000              -0.050896897               0.122875978               0.000000000              -0.063340840               0.146446229               0.000000000              -0.075784784               0.170016481               0.000000000              -0.088228728               0.193586732               0.000000000              -0.100672672               0.217156983               0.000000000              -0.113116616               0.240727235               0.000000000              -0.125560560               0.264297486               0.000000000              -0.138004504               0.287867738               0.000000000              -0.150448448               0.311437989               0.000000000              -0.162892392               0.335008240               0.000000000              -0.175336336               0.358578492               0.000000000              -0.187780280               0.382148743               0.000000000              -0.200224224               0.405718994               0.000000000              -0.212668168               0.429289246               0.000000000              -0.225112112               0.452859497               0.000000000              -0.237556056               0.476429749               0.000000000              -0.250000000               0.500000000               0.000000000              -0.038607862               0.127273065               0.000000000              -0.047913621               0.150568498               0.000000000              -0.057219379               0.173863932               0.000000000              -0.066525138               0.197159365               0.000000000              -0.075830897               0.220454798               0.000000000              -0.085136655               0.243750232               0.000000000              -0.094442414               0.267045665               0.000000000              -0.103748172               0.290341099               0.000000000              -0.113053931               0.313636532               0.000000000              -0.122359690               0.336931966               0.000000000              -0.131665448               0.360227399               0.000000000              -0.140971207               0.383522833               0.000000000              -0.150276966               0.406818266               0.000000000              -0.159582724               0.430113700               0.000000000              -0.168888483               0.453409133               0.000000000              -0.178194241               0.476704567               0.000000000              -0.187500000               0.500000000               0.000000000              -0.025947013               0.130444442               0.000000000              -0.032137825               0.153541665               0.000000000              -0.038328636               0.176638887               0.000000000              -0.044519448               0.199736109               0.000000000              -0.050710260               0.222833332               0.000000000              -0.056901071               0.245930554               0.000000000              -0.063091883               0.269027776               0.000000000              -0.069282695               0.292124999               0.000000000              -0.075473506               0.315222221               0.000000000              -0.081664318               0.338319444               0.000000000              -0.087855130               0.361416666               0.000000000              -0.094045942               0.384513888               0.000000000              -0.100236753               0.407611111               0.000000000              -0.106427565               0.430708333               0.000000000              -0.112618377               0.453805555               0.000000000              -0.118809188               0.476902778               0.000000000              -0.125000000               0.500000000               0.000000000              -0.013036280               0.132359569               0.000000000              -0.016127762               0.155337096               0.000000000              -0.019219245               0.178314623               0.000000000              -0.022310727               0.201292150               0.000000000              -0.025402210               0.224269676               0.000000000              -0.028493692               0.247247203               0.000000000              -0.031585175               0.270224730               0.000000000              -0.034676657               0.293202257               0.000000000              -0.037768140               0.316179784               0.000000000              -0.040859622               0.339157311               0.000000000              -0.043951105               0.362134838               0.000000000              -0.047042587               0.385112365               0.000000000              -0.050134070               0.408089892               0.000000000              -0.053225552               0.431067419               0.000000000              -0.056317035               0.454044946               0.000000000              -0.059408517               0.477022473               0.000000000              -0.062500000               0.500000000               0.000000000               0.000000000               0.133000000               0.000000000               0.000000000               0.155937500               0.000000000               0.000000000               0.178875000               0.000000000               0.000000000               0.201812500               0.000000000               0.000000000               0.224750000               0.000000000               0.000000000               0.247687500               0.000000000               0.000000000               0.270625000               0.000000000               0.000000000               0.293562500               0.000000000               0.000000000               0.316500000               0.000000000               0.000000000               0.339437500               0.000000000               0.000000000               0.362375000               0.000000000               0.000000000               0.385312500               0.000000000               0.000000000               0.408250000               0.000000000               0.000000000               0.431187500               0.000000000               0.000000000               0.454125000               0.000000000               0.000000000               0.477062500               0.000000000               0.000000000               0.500000000               0.000000000 </DataArray>
</Points>
<Cells>
<DataArray type="Int32"                                    Name="connectivity"                                                      NumberOfComponents=" 1" format="ascii">
         0          1         18         17          1          2         19         18          2          3         20         19          3          4         21         20          4          5         22         21          5          6         23         22          6          7         24         23          7          8         25         24          8          9         26         25          9         10         27         26         10         11         28         27         11         12         29         28         12         13         30         29         13         14         31         30         14         15         32         31         15         16         33         32         17         18         35         34         18         19         36         35         19         20         37         36         20         21         38         37         21         22         39         38         22         23         40         39         23         24         41         40         24         25         42         41         25         26         43         42         26         27         44         43         27         28         45         44         28         29         46         45         29         30         47         46         30         31         48         47         31         32         49         48         32         33         50         49         34         35         52         51         35         36         53         52         36         37         54         53         37         38         55         54         38         39         56         55         39         40         57         56         40         41         58         57         41         42         59         58         42         43         60         59         43         44         61         60         44         45         62         61         45         46         63         62         46         47         64         63         47         48         65         64         48         49         66         65         49         50         67         66         51         52         69         68         52         53         70         69         53         54         71         70         54         55         72         71         55         56         73         72         56         57         74         73         57         58         75         74         58         59         76         75         59         60         77         76         60         61         78         77         61         62         79         78         62         63         80         79         63         64         81         80         64         65         82         81         65         66         83         82         66         67         84         83         68         69         86         85         69         70         87         86         70         71         88         87         71         72         89         88         72         73         90         89         73         74         91         90         74         75         92         91         75         76         93         92         76         77         94         93         77         78         95         94         78         79         96         95         79         80         97         96         80         81         98         97         81         82         99         98         82         83        100         99         83         84        101        100         85         86        103        102         86         87        104        103         87         88        105        104         88         89        106        105         89         90        107        106         90         91        108        107         91         92        109        108         92         93        110        109         93         94        111        110         94         95        112        111         95         96        113        112         96         97        114        113         97         98        115        114         98         99        116        115         99        100        117        116        100        101        118        117        102        103        120        119        103        104        121        120        104        105        122        121        105        106        123        122        106        107        124        123        107        108        125        124        108        109        126        125        109        110        127        126        110        111        128        127        111        112        129        128        112        113        130        129        113        114        131        130        114        115        132        131        115        116        133        132        116        117        134        133        117        118        135        134        119        120        137        136        120        121        138        137        121        122        139        138        122        123        140        139        123        124        141        140        124        125        142        141        125        126        143        142        126        127        144        143        127        128        145        144        128        129        146        145        129        130        147        146        130        131        148        147        131        132        149        148        132        133        150        149        133        134        151        150        134        135        152        151        136        137        154        153        137        138        155        154        138        139        156        155        139        140        157        156        140        141        158        157        141        142        159        158        142        143        160        159        143        144        161        160        144        145        162        161        145        146        163        162        146        147        164        163        147        148        165        164        148        149        166        165        149        150        167        166        150        151        168        167        151        152        169        168        153        154        171        170        154        155        172        171        155        156        173        172        156        157        174        173        157        158        175        174        158        159        176        175        159        160        177        176        160        161        178        177        161        162        179        178        162        163        180        179        163        164        181        180        164        165        182        181        165        166        183        182        166        167        184        183        167        168        185        184        168        169        186        185        170        171        188        187        171        172        189        188        172        173        190        189        173        174        191        190        174        175        192        191        175        176        193        192        176        177        194        193        177        178        195        194        178        179        196        195        179        180        197        196        180        181        198        197        181        182        199        198        182        183        200        199        183        184        201        200        184        185        202        201        185        186        203        202        187        188        205        204        188        189        206        205        189        190        207        206        190        191        208        207        191        192        209        208        192        193        210        209        193        194        211        210        194        195        212        211        195        196        213        212        196        197        214        213        197        198        215        214        198        199        216        215        199        200        217        216        200        201        218        217        201        202        219        218        202        203        220        219        204        205        222        221        205        206        223        222        206        207        224        223        207        208        225        224        208        209        226        225        209        210        227        226        210        211        228        227        211        212        229        228        212        213        230        229        213        214        231        230        214        215        232        231        215        216        233        232        216        217        234        233        217        218        235        234        218        219        236        235        219        220        237        236        221        222        239        238        222        223        240        239        223        224        241        240        224        225        242        241        225        226        243        242        226        227        244        243        227        228        245        244        228        229        246        245        229        230        247        246        230        231        248        247        231        232        249        248        232        233        250        249        233        234        251        250        234        235        252        251        235        236        253        252        236        237        254        253        238        239        256        255        239        240        257        256        240        241        258        257        241        242        259        258        242        243        260        259        243        244        261        260        244        245        262        261        245        246        263        262        246        247        264        263        247        248        265        264        248        249        266        265        249        250        267        266        250        251        268        267        251        252        269        268        252        253        270        269        253        254        271        270        255        256        273        272        256        257        274        273        257        258        275        274        258        259        276        275        259        260        277        276        260        261        278        277        261        262        279        278        262        263        280        279        263        264        281        280        264        265        282        281        265        266        283        282        266        267        284        283        267        268        285        284        268        269        286        285        269        270        287        286        270        271        288        287        306        307          1          0        307        308          2          1        308        309          3          2        309        310          4          3        310        311          5          4        311        312          6          5        312        313          7          6        313        314          8          7        314        315          9          8        315        316         10          9        316        317         11         10        317        318         12         11        318        319         13         12        319        320         14         13        320        321         15         14        321        322         16         15        323        324        307        306        324        325        308        307        325        326        309        308        326        327        310        309        327        328        311        310        328        329        312        311        329        330        313        312        330        331        314        313        331        332        315        314        332        333        316        315        333        334        317        316        334        335        318        317        335        336        319        318        336        337        320        319        337        338        321        320        338        339        322        321        340        341        324        323        341        342        325        324        342        343        326        325        343        344        327        326        344        345        328        327        345        346        329        328        346        347        330        329        347        348        331        330        348        349        332        331        349        350        333        332        350        351        334        333        351        352        335        334        352        353        336        335        353        354        337        336        354        355        338        337        355        356        339        338        357        358        341        340        358        359        342        341        359        360        343        342        360        361        344        343        361        362        345        344        362        363        346        345        363        364        347        346        364        365        348        347        365        366        349        348        366        367        350        349        367        368        351        350        368        369        352        351        369        370        353        352        370        371        354        353        371        372        355        354        372        373        356        355        374        375        358        357        375        376        359        358        376        377        360        359        377        378        361        360        378        379        362        361        379        380        363        362        380        381        364        363        381        382        365        364        382        383        366        365        383        384        367        366        384        385        368        367        385        386        369        368        386        387        370        369        387        388        371        370        388        389        372        371        389        390        373        372        391        392        375        374        392        393        376        375        393        394        377        376        394        395        378        377        395        396        379        378        396        397        380        379        397        398        381        380        398        399        382        381        399        400        383        382        400        401        384        383        401        402        385        384        402        403        386        385        403        404        387        386        404        405        388        387        405        406        389        388        406        407        390        389        408        409        392        391        409        410        393        392        410        411        394        393        411        412        395        394        412        413        396        395        413        414        397        396        414        415        398        397        415        416        399        398        416        417        400        399        417        418        401        400        418        419        402        401        419        420        403        402        420        421        404        403        421        422        405        404        422        423        406        405        423        424        407        406        425        426        409        408        426        427        410        409        427        428        411        410        428        429        412        411        429        430        413        412        430        431        414        413        431        432        415        414        432        433        416        415        433        434        417        416        434        435        418        417        435        436        419        418        436        437        420        419        437        438        421        420        438        439        422        421        439        440        423        422        440        441        424        423        442        443        426        425        443        444        427        426        444        445        428        427        445        446        429        428        446        447        430        429        447        448        431        430        448        449        432        431        449        450        433        432        450        451        434        433        451        452        435        434        452        453        436        435        453        454        437        436        454        455        438        437        455        456        439        438        456        457        440        439        457        458        441        440        459        460        443        442        460        461        444        443        461        462        445        444        462        463        446        445        463        464        447        446        464        465        448        447        465        466        449        448        466        467        450        449        467        468        451        450        468        469        452        451        469        470        453        452        470        471        454        453        471        472        455        454        472        473        456        455        473        474        457        456        474        475        458        457        476        477        460        459        477        478        461        460        478        479        462        461        479        480        463        462        480        481        464        463        481        482        465        464        482        483        466        465        483        484        467        466        484        485        468        467        485        486        469        468        486        487        470        469        487        488        471        470        488        489        472        471        489        490        473        472        490        491        474        473        491        492        475        474        493        494        477        476        494        495        478        477        495        496        479        478        496        497        480        479        497        498        481        480        498        499        482        481        499        500        483        482        500        501        484        483        501        502        485        484        502        503        486        485        503        504        487        486        504        505        488        487        505        506        489        488        506        507        490        489        507        508        491        490        508        509        492        491        510        511        494        493        511        512        495        494        512        513        496        495        513        514        497        496        514        515        498        497        515        516        499        498        516        517        500        499        517        518        501        500        518        519        502        501        519        520        503        502        520        521        504        503        521        522        505        504        522        523        506        505        523        524        507        506        524        525        508        507        525        526        509        508        527        528        511        510        528        529        512        511        529        530        513        512        530        531        514        513        531        532        515        514        532        533        516        515        533        534        517        516        534        535        518        517        535        536        519        518        536        537        520        519        537        538        521        520        538        539        522        521        539        540        523        522        540        541        524        523        541        542        525        524        542        543        526        525        544        545        528        527        545        546        529        528        546        547        530        529        547        548        531        530        548        549        532        531        549        550        533        532        550        551        534        533        551        552        535        534        552        553        536        535        553        554        537        536        554        555        538        537        555        556        539        538        556        557        540        539        557        558        541        540        558        559        542        541        559        560        543        542        561        562        545        544        562        563        546        545        563        564        547        546        564        565        548        547        565        566        549        548        566        567        550        549        567        568        551        550        568        569        552        551        569        570        553        552        570        571        554        553        571        572        555        554        572        573        556        555        573        574        557        556        574        575        558        557        575        576        559        558        576        577        560        559        578        579        596        595        579        580        597        596        580        581        598        597        581        582        599        598        582        583        600        599        583        584        601        600        584        585        602        601        585        586        603        602        586        587        604        603        587        588        605        604        588        589        606        605        589        590        607        606        590        591        608        607        591        592        609        608        592        593        610        609        593        594        611        610        595        596        613        612        596        597        614        613        597        598        615        614        598        599        616        615        599        600        617        616        600        601        618        617        601        602        619        618        602        603        620        619        603        604        621        620        604        605        622        621        605        606        623        622        606        607        624        623        607        608        625        624        608        609        626        625        609        610        627        626        610        611        628        627        612        613        630        629        613        614        631        630        614        615        632        631        615        616        633        632        616        617        634        633        617        618        635        634        618        619        636        635        619        620        637        636        620        621        638        637        621        622        639        638        622        623        640        639        623        624        641        640        624        625        642        641        625        626        643        642        626        627        644        643        627        628        645        644        629        630        647        646        630        631        648        647        631        632        649        648        632        633        650        649        633        634        651        650        634        635        652        651        635        636        653        652        636        637        654        653        637        638        655        654        638        639        656        655        639        640        657        656        640        641        658        657        641        642        659        658        642        643        660        659        643        644        661        660        644        645        662        661        646        647        664        663        647        648        665        664        648        649        666        665        649        650        667        666        650        651        668        667        651        652        669        668        652        653        670        669        653        654        671        670        654        655        672        671        655        656        673        672        656        657        674        673        657        658        675        674        658        659        676        675        659        660        677        676        660        661        678        677        661        662        679        678        663        664        681        680        664        665        682        681        665        666        683        682        666        667        684        683        667        668        685        684        668        669        686        685        669        670        687        686        670        671        688        687        671        672        689        688        672        673        690        689        673        674        691        690        674        675        692        691        675        676        693        692        676        677        694        693        677        678        695        694        678        679        696        695        680        681        698        697        681        682        699        698        682        683        700        699        683        684        701        700        684        685        702        701        685        686        703        702        686        687        704        703        687        688        705        704        688        689        706        705        689        690        707        706        690        691        708        707        691        692        709        708        692        693        710        709        693        694        711        710        694        695        712        711        695        696        713        712        697        698        715        714        698        699        716        715        699        700        717        716        700        701        718        717        701        702        719        718        702        703        720        719        703        704        721        720        704        705        722        721        705        706        723        722        706        707        724        723        707        708        725        724        708        709        726        725        709        710        727        726        710        711        728        727        711        712        729        728        712        713        730        729        714        715        732        731        715        716        733        732        716        717        734        733        717        718        735        734        718        719        736        735        719        720        737        736        720        721        738        737        721        722        739        738        722        723        740        739        723        724        741        740        724        725        742        741        725        726        743        742        726        727        744        743        727        728        745        744        728        729        746        745        729        730        747        746        731        732        749        748        732        733        750        749        733        734        751        750        734        735        752        751        735        736        753        752        736        737        754        753        737        738        755        754        738        739        756        755        739        740        757        756        740        741        758        757        741        742        759        758        742        743        760        759        743        744        761        760        744        745        762        761        745        746        763        762        746        747        764        763        748        749        766        765        749        750        767        766        750        751        768        767        751        752        769        768        752        753        770        769        753        754        771        770        754        755        772        771        755        756        773        772        756        757        774        773        757        758        775        774        758        759        776        775        759        760        777        776        760        761        778        777        761        762        779        778        762        763        780        779        763        764        781        780        765        766        783        782        766        767        784        783        767        768        785        784        768        769        786        785        769        770        787        786        770        771        788        787        771        772        789        788        772        773        790        789        773        774        791        790        774        775        792        791        775        776        793        792        776        777        794        793        777        778        795        794        778        779        796        795        779        780        797        796        780        781        798        797        782        783        800        799        783        784        801        800        784        785        802        801        785        786        803        802        786        787        804        803        787        788        805        804        788        789        806        805        789        790        807        806        790        791        808        807        791        792        809        808        792        793        810        809        793        794        811        810        794        795        812        811        795        796        813        812        796        797        814        813        797        798        815        814        799        800        817        816        800        801        818        817        801        802        819        818        802        803        820        819        803        804        821        820        804        805        822        821        805        806        823        822        806        807        824        823        807        808        825        824        808        809        826        825        809        810        827        826        810        811        828        827        811        812        829        828        812        813        830        829        813        814        831        830        814        815        832        831        816        817        834        833        817        818        835        834        818        819        836        835        819        820        837        836        820        821        838        837        821        822        839        838        822        823        840        839        823        824        841        840        824        825        842        841        825        826        843        842        826        827        844        843        827        828        845        844        828        829        846        845        829        830        847        846        830        831        848        847        831        832        849        848        833        834        562        561        834        835        563        562        835        836        564        563        836        837        565        564        837        838        566        565        838        839        567        566        839        840        568        567        840        841        569        568        841        842        570        569        842        843        571        570        843        844        572        571        844        845        573        572        845        846        574        573        846        847        575        574        847        848        576        575        848        849        577        576        884        885        579        578        885        886        580        579        886        887        581        580        887        888        582        581        888        889        583        582        889        890        584        583        890        891        585        584        891        892        586        585        892        893        587        586        893        894        588        587        894        895        589        588        895        896        590        589        896        897        591        590        897        898        592        591        898        899        593        592        899        900        594        593        901        902        885        884        902        903        886        885        903        904        887        886        904        905        888        887        905        906        889        888        906        907        890        889        907        908        891        890        908        909        892        891        909        910        893        892        910        911        894        893        911        912        895        894        912        913        896        895        913        914        897        896        914        915        898        897        915        916        899        898        916        917        900        899        918        919        902        901        919        920        903        902        920        921        904        903        921        922        905        904        922        923        906        905        923        924        907        906        924        925        908        907        925        926        909        908        926        927        910        909        927        928        911        910        928        929        912        911        929        930        913        912        930        931        914        913        931        932        915        914        932        933        916        915        933        934        917        916        935        936        919        918        936        937        920        919        937        938        921        920        938        939        922        921        939        940        923        922        940        941        924        923        941        942        925        924        942        943        926        925        943        944        927        926        944        945        928        927        945        946        929        928        946        947        930        929        947        948        931        930        948        949        932        931        949        950        933        932        950        951        934        933        952        953        936        935        953        954        937        936        954        955        938        937        955        956        939        938        956        957        940        939        957        958        941        940        958        959        942        941        959        960        943        942        960        961        944        943        961        962        945        944        962        963        946        945        963        964        947        946        964        965        948        947        965        966        949        948        966        967        950        949        967        968        951        950        969        970        953        952        970        971        954        953        971        972        955        954        972        973        956        955        973        974        957        956        974        975        958        957        975        976        959        958        976        977        960        959        977        978        961        960        978        979        962        961        979        980        963        962        980        981        964        963        981        982        965        964        982        983        966        965        983        984        967        966        984        985        968        967        986        987        970        969        987        988        971        970        988        989        972        971        989        990        973        972        990        991        974        973        991        992        975        974        992        993        976        975        993        994        977        976        994        995        978        977        995        996        979        978        996        997        980        979        997        998        981        980        998        999        982        981        999       1000        983        982       1000       1001        984        983       1001       1002        985        984       1003       1004        987        986       1004       1005        988        987       1005       1006        989        988       1006       1007        990        989       1007       1008        991        990       1008       1009        992        991       1009       1010        993        992       1010       1011        994        993       1011       1012        995        994       1012       1013        996        995       1013       1014        997        996       1014       1015        998        997       1015       1016        999        998       1016       1017       1000        999       1017       1018       1001       1000       1018       1019       1002       1001       1020       1021       1004       1003       1021       1022       1005       1004       1022       1023       1006       1005       1023       1024       1007       1006       1024       1025       1008       1007       1025       1026       1009       1008       1026       1027       1010       1009       1027       1028       1011       1010       1028       1029       1012       1011       1029       1030       1013       1012       1030       1031       1014       1013       1031       1032       1015       1014       1032       1033       1016       1015       1033       1034       1017       1016       1034       1035       1018       1017       1035       1036       1019       1018       1037       1038       1021       1020       1038       1039       1022       1021       1039       1040       1023       1022       1040       1041       1024       1023       1041       1042       1025       1024       1042       1043       1026       1025       1043       1044       1027       1026       1044       1045       1028       1027       1045       1046       1029       1028       1046       1047       1030       1029       1047       1048       1031       1030       1048       1049       1032       1031       1049       1050       1033       1032       1050       1051       1034       1033       1051       1052       1035       1034       1052       1053       1036       1035       1054       1055       1038       1037       1055       1056       1039       1038       1056       1057       1040       1039       1057       1058       1041       1040       1058       1059       1042       1041       1059       1060       1043       1042       1060       1061       1044       1043       1061       1062       1045       1044       1062       1063       1046       1045       1063       1064       1047       1046       1064       1065       1048       1047       1065       1066       1049       1048       1066       1067       1050       1049       1067       1068       1051       1050       1068       1069       1052       1051       1069       1070       1053       1052       1071       1072       1055       1054       1072       1073       1056       1055       1073       1074       1057       1056       1074       1075       1058       1057       1075       1076       1059       1058       1076       1077       1060       1059       1077       1078       1061       1060       1078       1079       1062       1061       1079       1080       1063       1062       1080       1081       1064       1063       1081       1082       1065       1064       1082       1083       1066       1065       1083       1084       1067       1066       1084       1085       1068       1067       1085       1086       1069       1068       1086       1087       1070       1069       1088       1089       1072       1071       1089       1090       1073       1072       1090       1091       1074       1073       1091       1092       1075       1074       1092       1093       1076       1075       1093       1094       1077       1076       1094       1095       1078       1077       1095       1096       1079       1078       1096       1097       1080       1079       1097       1098       1081       1080       1098       1099       1082       1081       1099       1100       1083       1082       1100       1101       1084       1083       1101       1102       1085       1084       1102       1103       1086       1085       1103       1104       1087       1086       1105       1106       1089       1088       1106       1107       1090       1089       1107       1108       1091       1090       1108       1109       1092       1091       1109       1110       1093       1092       1110       1111       1094       1093       1111       1112       1095       1094       1112       1113       1096       1095       1113       1114       1097       1096       1114       1115       1098       1097       1115       1116       1099       1098       1116       1117       1100       1099       1117       1118       1101       1100       1118       1119       1102       1101       1119       1120       1103       1102       1120       1121       1104       1103       1122       1123       1106       1105       1123       1124       1107       1106       1124       1125       1108       1107       1125       1126       1109       1108       1126       1127       1110       1109       1127       1128       1111       1110       1128       1129       1112       1111       1129       1130       1113       1112       1130       1131       1114       1113       1131       1132       1115       1114       1132       1133       1116       1115       1133       1134       1117       1116       1134       1135       1118       1117       1135       1136       1119       1118       1136       1137       1120       1119       1137       1138       1121       1120        272        273       1123       1122        273        274       1124       1123        274        275       1125       1124        275        276       1126       1125        276        277       1127       1126        277        278       1128       1127        278        279       1129       1128        279        280       1130       1129        280        281       1131       1130        281        282       1132       1131        282        283       1133       1132        283        284       1134       1133        284        285       1135       1134        285        286       1136       1135        286        287       1137       1136        287        288       1138       1137 </DataArray>
<DataArray type="Int32"                                    Name="offsets"                                                      NumberOfComponents=" 1" format="ascii">
         4          8         12         16         20         24         28         32         36         40         44         48         52         56         60         64         68         72         76         80         84         88         92         96        100        104        108        112        116        120        124        128        132        136        140        144        148        152        156        160        164        168        172        176        180        184        188        192        196        200        204        208        212        216        220        224        228        232        236        240        244        248        252        256        260        264        268        272        276        280        284        288        292        296        300        304        308        312        316        320        324        328        332        336        340        344        348        352        356        360        364        368        372        376        380        384        388        392        396        400        404        408        412        416        420        424        428        432        436        440        444        448        452        456        460        464        468        472        476        480        484        488        492        496        500        504        508        512        516        520        524        528        532        536        540        544        548        552        556        560        564        568        572        576        580        584        588        592        596        600        604        608        612        616        620        624        628        632        636        640        644        648        652        656        660        664        668        672        676        680        684        688        692        696        700        704        708        712        716        720        724        728        732        736        740        744        748        752        756        760        764        768        772        776        780        784        788        792        796        800        804        808        812        816        820        824        828        832        836        840        844        848        852        856        860        864        868        872        876        880        884        888        892        896        900        904        908        912        916        920        924        928        932        936        940        944        948        952        956        960        964        968        972        976        980        984        988        992        996       1000       1004       1008       1012       1016       1020       1024       1028       1032       1036       1040       1044       1048       1052       1056       1060       1064       1068       1072       1076       1080       1084       1088       1092       1096       1100       1104       1108       1112       1116       1120       1124       1128       1132       1136       1140       1144       1148       1152       1156       1160       1164       1168       1172       1176       1180       1184       1188       1192       1196       1200       1204       1208       1212       1216       1220       1224       1228       1232       1236       1240       1244       1248       1252       1256       1260       1264       1268       1272       1276       1280       1284       1288       1292       1296       1300       1304       1308       1312       1316       1320       1324       1328       1332       1336       1340       1344       1348       1352       1356       1360       1364       1368       1372       1376       1380       1384       1388       1392       1396       1400       1404       1408       1412       1416       1420       1424       1428       1432       1436       1440       1444       1448       1452       1456       1460       1464       1468       1472       1476       1480       1484       1488       1492       1496       1500       1504       1508       1512       1516       1520       1524       1528       1532       1536       1540       1544       1548       1552       1556       1560       1564       1568       1572       1576       1580       1584       1588       1592       1596       1600       1604       1608       1612       1616       1620       1624       1628       1632       1636       1640       1644       1648       1652       1656       1660       1664       1668       1672       1676       1680       1684       1688       1692       1696       1700       1704       1708       1712       1716       1720       1724       1728       1732       1736       1740       1744       1748       1752       1756       1760       1764       1768       1772       1776       1780       1784       1788       1792       1796       1800       1804       1808       1812       1816       1820       1824       1828       1832       1836       1840       1844       1848       1852       1856       1860       1864       1868       1872       1876       1880       1884       1888       1892       1896       1900       1904       1908       1912       1916       1920       1924       1928       1932       1936       1940       1944       1948       1952       1956       1960       1964       1968       1972       1976       1980       1984       1988       1992       1996       2000       2004       2008       2012       2016       2020       2024       2028       2032       2036       2040       2044       2048       2052       2056       2060       2064       2068       2072       2076       2080       2084       2088       2092       2096       2100       2104       2108       2112       2116       2120       2124       2128       2132       2136       2140       2144       2148       2152       2156       2160       2164       2168       2172       2176       2180       2184       2188       2192       2196       2200       2204       2208       2212       2216       2220       2224       2228       2232       2236       2240       2244       2248       2252       2256       2260       2264       2268       2272       2276       2280       2284       2288       2292       2296       2300       2304       2308       2312       2316       2320       2324       2328       2332       2336       2340       2344       2348       2352       2356       2360       2364       2368       2372       2376       2380       2384       2388       2392       2396       2400       2404       2408       2412       2416       2420       2424       2428       2432       2436       2440       2444       2448       2452       2456       2460       2464       2468       2472       2476       2480       2484       2488       2492       2496       2500       2504       2508       2512       2516       2520       2524       2528       2532       2536       2540       2544       2548       2552       2556       2560       2564       2568       2572       2576       2580       2584       2588       2592       2596       2600       2604       2608       2612       2616       2620       2624       2628       2632       2636       2640       2644       2648       2652       2656       2660       2664       2668       2672       2676       2680       2684       2688       2692       2696       2700       2704       2708       2712       2716       2720       2724       2728       2732       2736       2740       2744       2748       2752       2756       2760       2764       2768       2772       2776       2780       2784       2788       2792       2796       2800       2804       2808       2812       2816       2820       2824       2828       2832       2836       2840       2844       2848       2852       2856       2860       2864       2868       2872       2876       2880       2884       2888       2892       2896       2900       2904       2908       2912       2916       2920       2924       2928       2932       2936       2940       2944       2948       2952       2956       2960       2964       2968       2972       2976       2980       2984       2988       2992       2996       3000       3004       3008       3012       3016       3020       3024       3028       3032       3036       3040       3044       3048       3052       3056       3060       3064       3068       3072       3076       3080       3084       3088       3092       3096       3100       3104       3108       3112       3116       3120       3124       3128       3132       3136       3140       3144       3148       3152       3156       3160       3164       3168       3172       3176       3180       3184       3188       3192       3196       3200       3204       3208       3212       3216       3220       3224       3228       3232       3236       3240       3244       3248       3252       3256       3260       3264       3268       3272       3276       3280       3284       3288       3292       3296       3300       3304       3308       3312       3316       3320       3324       3328       3332       3336       3340       3344       3348       3352       3356       3360       3364       3368       3372       3376       3380       3384       3388       3392       3396       3400       3404       3408       3412       3416       3420       3424       3428       3432       3436       3440       3444       3448       3452       3456       3460       3464       3468       3472       3476       3480       3484       3488       3492       3496       3500       3504       3508       3512       3516       3520       3524       3528       3532       3536       3540       3544       3548       3552       3556       3560       3564       3568       3572       3576       3580       3584       3588       3592       3596       3600       3604       3608       3612       3616       3620       3624       3628       3632       3636       3640       3644       3648       3652       3656       3660       3664       3668       3672       3676       3680       3684       3688       3692       3696       3700       3704       3708       3712       3716       3720       3724       3728       3732       3736       3740       3744       3748       3752       3756       3760       3764       3768       3772       3776       3780       3784       3788       3792       3796       3800       3804       3808       3812       3816       3820       3824       3828       3832       3836       3840       3844       3848       3852       3856       3860       3864       3868       3872       3876       3880       3884       3888       3892       3896       3900       3904       3908       3912       3916       3920       3924       3928       3932       3936       3940       3944       3948       3952       3956       3960       3964       3968       3972       3976       3980       3984       3988       3992       3996       4000       4004       4008       4012       4016       4020       4024       4028       4032       4036       4040       4044       4048       4052       4056       4060       4064       4068       4072       4076       4080       4084       4088       4092       4096 </DataArray>
<DataArray type="UInt8"                                    Name="types"                                                      NumberOfComponents=" 1" format="ascii">
         9          9          9          9          9          9          9          9          9          9          9          9          9          9          9          9          9          9          9          9          9          9          9          9          9          9          9          9          9          9          9          9          9          9          9          9          9          9          9          9          9          9          9          9          9          9          9          9          9          9          9          9          9          9          9          9          9          9          9          9          9          9          9          9          9          9          9          9          9          9          9          9          9          9          9          9          9          9          9          9          9          9          9          9          9          9          9          9          9          9          9          9          9          9          9          9          9          9          9          9          9          9          9          9          9          9          9          9          9          9          9          9          9          9          9          9          9          9          9          9          9          9          9          9          9          9          9          9          9          9          9          9          9          9          9          9          9          9          9          9          9          9          9          9          9          9          9          9          9          9          9          9          9          9          9          9          9          9          9          9          9          9          9          9          9          9          9          9          9          9          9          9          9          9          9          9          9          9          9          9          9          9          9          9          9          9          9          9          9          9          9          9          9          9          9          9          9          9          9          9          9          9          9          9          9          9          9          9          9          9          9          9          9          9          9          9          9          9          9          9          9          9          9          9          9          9          9          9          9          9          9          9          9          9          9          9          9          9          9          9          9          9          9          9          9          9          9          9          9          9          9          9          9          9          9          9          9          9          9          9          9          9          9          9          9          9          9          9          9          9          9          9          9          9          9          9          9          9          9          9          9          9          9          9          9          9          9          9          9          9          9          9          9          9          9          9          9          9          9          9          9          9          9          9          9          9          9          9          9          9          9          9          9          9          9          9          9          9          9          9          9          9          9          9          9          9          9          9          9          9          9          9          9          9          9          9          9          9          9          9          9          9          9          9          9          9          9          9          9          9          9          9          9          9          9          9          9          9          9          9          9          9          9          9          9          9          9          9          9          9          9          9          9          9          9          9          9          9          9          9          9          9          9          9          9          9          9          9          9          9          9          9          9          9          9          9          9          9          9          9          9          9          9          9          9          9          9          9          9          9          9          9          9          9          9          9          9          9          9          9          9          9          9          9          9          9          9          9          9          9          9          9          9          9          9          9          9          9          9          9          9          9          9          9          9          9          9          9          9          9          9          9          9          9          9          9          9          9          9          9          9          9          9          9          9          9          9          9          9          9          9          9          9          9          9          9          9          9          9          9          9          9          9          9          9          9          9          9          9          9          9          9          9          9          9          9          9          9          9          9          9          9          9          9          9          9          9          9          9          9          9          9          9          9          9          9          9          9          9          9          9          9          9          9          9          9          9          9          9          9          9          9          9          9          9          9          9          9          9          9          9          9          9          9          9          9          9          9          9          9          9          9          9          9          9          9          9          9          9          9          9          9          9          9          9          9          9          9          9          9          9          9          9          9          9          9          9          9          9          9          9          9          9          9          9          9          9          9          9          9          9          9          9          9          9          9          9          9          9          9          9          9          9          9          9          9          9          9          9          9          9          9          9          9          9          9          9          9          9          9          9          9          9          9          9          9          9          9          9          9          9          9          9          9          9          9          9          9          9          9          9          9          9          9          9          9          9          9          9          9          9          9          9          9          9          9          9          9          9          9          9          9          9          9          9          9          9          9          9          9          9          9          9          9          9          9          9          9          9          9          9          9          9          9          9          9          9          9          9          9          9          9          9          9          9          9          9          9          9          9          9          9          9          9          9          9          9          9          9          9          9          9          9          9          9          9          9          9          9          9          9          9          9          9          9          9          9          9          9          9          9          9          9          9          9          9          9          9          9          9          9          9          9          9          9          9          9          9          9          9          9          9          9          9          9          9          9          9          9          9          9          9          9          9          9          9          9          9          9          9          9          9          9          9          9          9          9          9          9          9          9          9          9          9          9          9          9          9          9          9          9          9          9          9          9          9          9          9          9          9          9          9          9          9          9          9          9          9          9          9          9          9          9          9          9          9          9          9          9          9          9          9          9          9          9          9          9          9          9          9          9          9          9          9          9          9          9          9          9          9          9          9          9          9          9          9          9          9          9          9          9          9          9          9          9          9          9          9          9          9          9          9          9          9          9          9          9          9          9          9          9          9          9          9          9          9          9          9          9          9          9          9          9          9          9          9          9          9          9          9          9          9          9          9          9          9          9          9          9          9          9          9          9          9          9          9          9          9          9          9          9          9          9          9          9          9          9          9          9          9          9          9          9          9          9          9          9          9          9          9          9          9          9          9          9          9          9          9          9          9          9          9          9          9          9          9          9          9          9          9          9          9          9          9          9          9          9          9          9          9          9          9          9          9          9          9          9          9          9          9          9          9          9          9          9          9          9          9          9          9          9          9          9          9          9          9          9          9          9          9          9          9          9          9          9          9          9          9          9          9          9          9          9          9          9          9          9          9          9          9          9          9          9          9          9          9          9          9          9          9          9          9          9          9 </DataArray>
</Cells>
<CellData>
<DataArray type="Int32"                                    Name="material"                                                      NumberOfComponents=" 1" format="ascii">
         1          1          1          1          1          1          1          1          1          1          1          1          1          1          1          1          1          1          1          1          1          1          1          1          1          1          1          1          1          1          1          1          1          1          1          1          1          1          1          1          1          1          1          1          1          1          1          1          1          1          1          1          1          1          1          1          1          1          1          1          1          1          1          1          1          1          1          1          1          1          1          1          1          1          1          1          1          1          1          1          1          1          1          1          1          1          1          1          1          1          1          1          1          1          1          1          1          1          1          1          1          1          1          1          1          1          1          1          1          1          1          1          1          1          1          1          1          1          1          1          1          1          1          1          1          1          1          1          1          1          1          1          1          1          1          1          1          1          1          1          1          1          1          1          1          1          1          1          1          1          1          1          1          1          1          1          1          1          1          1          1          1          1          1          1          1          1          1          1          1          1          1          1          1          1          1          1          1          1          1          1          1          1          1          1          1          1          1          1          1          1          1          1          1          1          1          1          1          1          1          1          1          1          1          1          1          1          1          1          1          1          1          1          1          1          1          1          1          1          1          1          1          1          1          1          1          1          1          1          1          1          1          1          1          1          1          1          1          1          1          1          1          1          1          1          1          1          1          1          1          1          1          1          1          1          1          1          1          1          1          1          1          1          1          1          1          1          1          1          1          1          1          1          1          1          1          1          1          1          1          1          1          1          1          1          1          1          1          1          1          1          1          1          1          1          1          1          1          1          1          1          1          1          1          1          1          1          1          1          1          1          1          1          1          1          1          1          1          1          1          1          1          1          1          1          1          1          1          1          1          1          1          1          1          1          1          1          1          1          1          1          1          1          1          1          1          1          1          1          1          1          1          1          1          1          1          1          1          1          1          1          1          1          1          1          1          1          1          1          1          1          1          1          1          1          1          1          1          1          1          1          1          1          1          1          1          1          1          1          1          1          1          1          1          1          1          1          1          1          1          1          1          1          1          1          1          1          1          1          1          1          1          1          1          1          1          1          1          1          1          1          1          1          1          1          1          1          1          1          1          1          1          1          1          1          1          1          1          1          1          1          1          1          1          1          1          1          1          1          1          1          1          1          1          1          1          1          1          1          1          1          1          1          1          1          1          1          1          1          1          1          1          1          1          1          1          1          1          1          1          1          1          1          1          1          1          1          1          1          1          1          1          1          1          1          1          1          1          1          1          1          1          1          1          1          1          1          1          1          1          1          1          1          1          1          1          1          1          1          1          1          1          1          1          1          1          1          1          1          1          1          1          1          1          1          1          1          1          1          1          1          1          1          1          1          1          1          1          1          1          1          1          1          1          1          1          1          1          1          1          1          1          1          1          1          1          1          1          1          1          1          1          1          1          1          1          1          1          1          1          1          1          1          1          1          1          1          1          1          1          1          1          1          1          1          1          1          1          1          1          1          1          1          1          1          1          1          1          1          1          1          1          1          1          1          1          1          1          1          1          1          1          1          1          1          1          1          1          1          1          1          1          1          1          1          1          1          1          1          1          1          1          1          1          1          1          1          1          1          1          1          1          1          1          1          1          1          1          1          1          1          1          1          1          1          1          1          1          1          1          1          1          1          1          1          1          1          1          1          1          1          1          1          1          1          1          1          1          1          1          1          1          1          1          1          1          1          1          1          1          1          1          1          1          1          1          1          1          1          1          1          1          1          1          1          1          1          1          1          1          1          1          1          1          1          1          1          1          1          1          1          1          1          1          1          1          1          1          1          1          1          1          1          1          1          1          1          1          1          1          1          1          1          1          1          1          1          1          1          1          1          1          1          1          1          1          1          1          1          1          1          1          1          1          1          1          1          1          1          1          1          1          1          1          1          1          1          1          1          1          1          1          1          1          1          1          1          1          1          1          1          1          1          1          1          1          1          1          1          1          1          1          1          1          1          1          1          1          1          1          1          1          1          1          1          1          1          1          1          1          1          1          1          1          1          1          1          1          1          1          1          1          1          1          1          1          1          1          1          1          1          1          1          1          1          1          1          1          1          1          1          1          1          1          1          1          1          1          1          1          1          1          1          1          1          1          1          1          1          1          1          1          1          1          1          1          1          1          1          1          1          1          1          1          1          1          1          1          1          1          1          1          1          1          1          1          1          1          1          1          1          1          1          1          1          1          1          1          1          1          1          1          1          1          1          1          1          1          1          1          1          1          1          1          1          1          1          1          1          1          1          1          1          1          1          1          1          1          1          1          1          1          1          1          1          1          1          1          1          1          1          1          1          1          1          1          1          1          1          1          1          1          1          1          1          1          1          1          1          1          1          1          1          1          1          1          1          1          1          1          1          1          1          1          1          1          1          1          1          1          1          1          1          1          1          1          1          1          1          1          1          1          1          1          1          1          1          1          1          1          1          1          1          1 </DataArray>
</CellData>
<PointData>
<DataArray type="Float64"                                    Name="u"                                                      NumberOfComponents=" 3" format="ascii">
             -0.000592401               0.000000000               0.999999984              -0.000638792               0.000000000               0.999999984              -0.000659161               0.000000000               0.999999984              -0.000670583               0.000000000               0.999999984              -0.000679536               0.000000000               0.999999984              -0.000688574               0.000000000               0.999999984              -0.000698555               0.000000000               0.999999984              -0.000709617               0.000000000               0.999999984              -0.000721742               0.000000000               0.999999984              -0.000734879               0.000000000               0.999999984              -0.000748839              -0.000000000               0.999999984              -0.000763340              -0.000000000               0.999999984              -0.000778280               0.000000000               0.999999984              -0.000793168              -0.000000000               0.999999984              -0.000807577               0.000000000               0.999999984              -0.000821123              -0.000000000               0.999999984              -0.000833233               0.000000000               0.999999984              -0.000589096               0.000119457               0.999999984              -0.000632223               0.000098308               0.999999984              -0.000650600               0.000089570               0.999999984              -0.000660741               0.000087128               0.999999984              -0.000668822               0.000088103               0.999999984              -0.000677202               0.000090775               0.999999984              -0.000686626               0.000094099               0.999999984              -0.000697248               0.000097718               0.999999984              -0.000708980               0.000101375               0.999999984              -0.000721549               0.000104599               0.999999984              -0.000734751               0.000107151               0.999999984              -0.000748362               0.000108914               0.999999984              -0.000762101               0.000109637               0.999999984              -0.000775628               0.000108810               0.999999984              -0.000788608               0.000106007               0.999999984              -0.000800716               0.000100688               0.999999984              -0.000811487               0.000091762               0.999999984              -0.000579352               0.000237753               0.999999984              -0.000612874               0.000195981               0.999999984              -0.000625384               0.000179473               0.999999984              -0.000631979               0.000175421               0.999999984              -0.000637940               0.000177972               0.999999984              -0.000644897               0.000183733               0.999999984              -0.000653215               0.000190772               0.999999984              -0.000662694               0.000198055               0.999999984              -0.000672961               0.000205289               0.999999984              -0.000683683               0.000211679               0.999999984              -0.000694612               0.000216950               0.999999984              -0.000705482               0.000220745               0.999999984              -0.000715991               0.000222478               0.999999984              -0.000725899               0.000221639               0.999999984              -0.000734978               0.000217596               0.999999984              -0.000743128               0.000209559               0.999999984              -0.000750270               0.000196028               0.999999984              -0.000563300               0.000353754               0.999999984              -0.000581605               0.000292518               0.999999984              -0.000585698               0.000270008               0.999999984              -0.000587756               0.000265840               0.999999984              -0.000591162               0.000270863               0.999999984              -0.000596357               0.000280332               0.999999984              -0.000603118               0.000291422               0.999999984              -0.000610942               0.000302825               0.999999984              -0.000619224               0.000313751               0.999999984              -0.000627504               0.000323492               0.999999984              -0.000635545               0.000331556               0.999999984              -0.000642937               0.000337384               0.999999984              -0.000649487               0.000340467               0.999999984              -0.000655020               0.000340415               0.999999984              -0.000659469               0.000336864               0.999999984              -0.000662951               0.000329215               0.999999984              -0.000665464               0.000316331               0.999999984              -0.000541173               0.000466303               0.999999984              -0.000539991               0.000387674               0.999999984              -0.000534864               0.000361440               0.999999984              -0.000532622               0.000358660               0.999999984              -0.000533785               0.000367100               0.999999984              -0.000537696               0.000380805               0.999999984              -0.000543234               0.000396363               0.999999984              -0.000549476               0.000411976               0.999999984              -0.000555701               0.000426543               0.999999984              -0.000561388               0.000439448               0.999999984              -0.000566089               0.000450063               0.999999984              -0.000569615               0.000458049               0.999999984              -0.000571847               0.000462868               0.999999984              -0.000572861               0.000464327               0.999999984              -0.000572554               0.000462334               0.999999984              -0.000570810               0.000456463               0.999999984              -0.000567740               0.000446412               0.999999984              -0.000513390               0.000574309               0.999999984              -0.000490307               0.000481324               0.999999984              -0.000476696               0.000453715               0.999999984              -0.000471501               0.000453589               0.999999984              -0.000471847               0.000466015               0.999999984              -0.000475317               0.000484218               0.999999984              -0.000480008               0.000504205               0.999999984              -0.000484796               0.000523785               0.999999984              -0.000488819               0.000541711               0.999999984              -0.000491552               0.000557188               0.999999984              -0.000492648               0.000569973               0.999999984              -0.000492015               0.000579827               0.999999984              -0.000489617               0.000586538               0.999999984              -0.000485470               0.000589954               0.999999984              -0.000479403               0.000589861               0.999999984              -0.000471532               0.000586253               0.999999984              -0.000462178               0.000579543               0.999999984              -0.000480476               0.000676754               0.999999984              -0.000435121               0.000573410               0.999999984              -0.000415233               0.000546337               0.999999984              -0.000409141               0.000549710               0.999999984              -0.000409958               0.000566481               0.999999984              -0.000413703               0.000588964               0.999999984              -0.000418010               0.000612790               0.999999984              -0.000421473               0.000635561               0.999999984              -0.000423211               0.000656053               0.999999984              -0.000422693               0.000673585               0.999999984              -0.000419738               0.000688050               0.999999984              -0.000414286               0.000699576               0.999999984              -0.000406317               0.000708032               0.999999984              -0.000395925               0.000713271               0.999999984              -0.000383322               0.000715161               0.999999984              -0.000368871               0.000714242               0.999999984              -0.000353153               0.000711399               0.999999984              -0.000443196               0.000772517               0.999999984              -0.000377201               0.000663675               0.999999984              -0.000354019               0.000638619               0.999999984              -0.000349160               0.000645723               0.999999984              -0.000351526               0.000666455               0.999999984              -0.000356165               0.000692584               0.999999984              -0.000360144               0.000719524               0.999999984              -0.000361987               0.000744794               0.999999984              -0.000360886               0.000767221               0.999999984              -0.000356408               0.000786336               0.999999984              -0.000348488               0.000802185               0.999999984              -0.000337263               0.000815013               0.999999984              -0.000322965               0.000824741               0.999999984              -0.000305824               0.000831436               0.999999984              -0.000286323               0.000835410               0.999999984              -0.000265283               0.000837491               0.999999984              -0.000243343               0.000838439               0.999999984              -0.000402925               0.000859847               0.999999984              -0.000318599               0.000752030               0.999999984              -0.000296249               0.000729422               0.999999984              -0.000294145               0.000739758               0.999999984              -0.000298716               0.000763886               0.999999984              -0.000304228               0.000793148               0.999999984              -0.000307550               0.000822493               0.999999984              -0.000307134               0.000849664               0.999999984              -0.000302281               0.000873533               0.999999984              -0.000292855               0.000893821               0.999999984              -0.000279031               0.000910686               0.999999984              -0.000261262               0.000924425               0.999999984              -0.000239813               0.000935160               0.999999984              -0.000215289               0.000943304               0.999999984              -0.000189018               0.000949663               0.999999984              -0.000161965               0.000955021               0.999999984              -0.000134629               0.000959753               0.999999984              -0.000361628               0.000942005               0.999999984              -0.000270153               0.000849042               0.999999984              -0.000244811               0.000821758               0.999999984              -0.000241468               0.000826125               0.999999984              -0.000245585               0.000845422               0.999999984              -0.000251360               0.000871495               0.999999984              -0.000255577               0.000899724               0.999999984              -0.000256500               0.000927232               0.999999984              -0.000253341               0.000952610               0.999999984              -0.000245863               0.000975298               0.999999984              -0.000234061               0.000995104               0.999999984              -0.000218186               0.001012281               0.999999984              -0.000198441               0.001026849               0.999999984              -0.000174804               0.001039177               0.999999984              -0.000148352               0.001049670               0.999999984              -0.000120633               0.001059096               0.999999984              -0.000092568               0.001067801               0.999999984              -0.000316434               0.001016396               0.999999984              -0.000224674               0.000942383               0.999999984              -0.000196346               0.000915903               0.999999984              -0.000190982               0.000916282               0.999999984              -0.000193914               0.000931743               0.999999984              -0.000199208               0.000955065               0.999999984              -0.000203717               0.000982054               0.999999984              -0.000205504               0.001009836               0.999999984              -0.000203820               0.001036662               0.999999984              -0.000198106               0.001061692               0.999999984              -0.000188254               0.001084525               0.999999984              -0.000174198               0.001104985               0.999999984              -0.000156005               0.001123177               0.999999984              -0.000133532               0.001139250               0.999999984              -0.000107193               0.001153485               0.999999984              -0.000078065               0.001166542               0.999999984              -0.000047682               0.001178935               0.999999984              -0.000268289               0.001081448               0.999999984              -0.000182055               0.001029320               0.999999984              -0.000152253               0.001007602               0.999999984              -0.000144633               0.001007011               0.999999984              -0.000145858               0.001019955               0.999999984              -0.000150080               0.001041193               0.999999984              -0.000154200               0.001067235               0.999999984              -0.000156349               0.001095330               0.999999984              -0.000155662               0.001123750               0.999999984              -0.000151501               0.001151246               0.999999984              -0.000143592               0.001177290               0.999999984              -0.000131538               0.001201367               0.999999984              -0.000115011               0.001223462               0.999999984              -0.000093868               0.001243533               0.999999984              -0.000068035               0.001261789               0.999999984              -0.000037795               0.001278547               0.999999984              -0.000004183               0.001294448               0.999999984              -0.000217741               0.001136054               0.999999984              -0.000142200               0.001106356               0.999999984              -0.000113231               0.001092360               0.999999984              -0.000104061               0.001093407               0.999999984              -0.000103406               0.001105828               0.999999984              -0.000106179               0.001126031               0.999999984              -0.000109517               0.001151420               0.999999984              -0.000111512               0.001179870               0.999999984              -0.000111410               0.001209782               0.999999984              -0.000108534               0.001239858               0.999999984              -0.000102407               0.001269321               0.999999984              -0.000092468               0.001297507               0.999999984              -0.000078133               0.001324083               0.999999984              -0.000058877               0.001348799               0.999999984              -0.000034253               0.001371803               0.999999984              -0.000004127               0.001393091               0.999999984               0.000031791               0.001413098               0.999999984              -0.000165208               0.001179496               0.999999984              -0.000104636               0.001170223               0.999999984              -0.000079342               0.001165312               0.999999984              -0.000070076               0.001169774               0.999999984              -0.000068116               0.001183147               0.999999984              -0.000069413               0.001203658               0.999999984              -0.000071599               0.001229183               0.999999984              -0.000073171               0.001258173               0.999999984              -0.000073266               0.001289420               0.999999984              -0.000071314               0.001321811               0.999999984              -0.000066906               0.001354514               0.999999984              -0.000059230               0.001386747               0.999999984              -0.000047692               0.001418069               0.999999984              -0.000031477               0.001448008               0.999999984              -0.000009879               0.001476330               0.999999984               0.000017726               0.001502877               0.999999984               0.000052687               0.001527799               0.999999984              -0.000111078               0.001211162               0.999999984              -0.000068813               0.001218144               0.999999984              -0.000050011               0.001221614               0.999999984              -0.000042360               0.001230277               0.999999984              -0.000040093               0.001245493               0.999999984              -0.000040406               0.001266816               0.999999984              -0.000041605               0.001293047               0.999999984              -0.000042559               0.001322947               0.999999984              -0.000042521               0.001355477               0.999999984              -0.000041261               0.001389753               0.999999984              -0.000038331               0.001425124               0.999999984              -0.000033160               0.001460819               0.999999984              -0.000024952               0.001496241               0.999999984              -0.000013149               0.001530918               0.999999984               0.000002848               0.001564375               0.999999984               0.000024252               0.001596216               0.999999984               0.000052740               0.001626212               0.999999984              -0.000055835               0.001230372               0.999999984              -0.000034142               0.001247892               0.999999984              -0.000024088               0.001257289               0.999999984              -0.000019740               0.001269132               0.999999984              -0.000018289               0.001286124               0.999999984              -0.000018235               0.001308496               0.999999984              -0.000018706               0.001335423               0.999999984              -0.000019130               0.001366139               0.999999984              -0.000019056               0.001399689               0.999999984              -0.000018372               0.001435240               0.999999984              -0.000016891               0.001472256               0.999999984              -0.000014261               0.001510181               0.999999984              -0.000009976               0.001548408               0.999999984              -0.000003764               0.001586328               0.999999984               0.000004685               0.001623477               0.999999984               0.000016357               0.001659342               0.999999984               0.000032503               0.001693312               0.999999984               0.000000000               0.001236818               0.999999984               0.000000000               0.001257995               0.999999984               0.000000000               0.001269578               0.999999984              -0.000000000               0.001282642               0.999999984               0.000000000               0.001300240               0.999999984              -0.000000000               0.001323033               0.999999984              -0.000000000               0.001350366               0.999999984               0.000000000               0.001381378               0.999999984               0.000000000               0.001415263               0.999999984              -0.000000000               0.001451354               0.999999984              -0.000000000               0.001489007               0.999999984              -0.000000000               0.001527667               0.999999984               0.000000000               0.001566814               0.999999984              -0.000000000               0.001605895               0.999999984              -0.000000000               0.001644421               0.999999984               0.000000000               0.001681795               0.999999984              -0.000000000               0.001717289               0.999999984              -0.000592401               0.000000000               0.999999984              -0.000638792               0.000000000               0.999999984              -0.000659161               0.000000000               0.999999984              -0.000670583               0.000000000               0.999999984              -0.000679536               0.000000000               0.999999984              -0.000688574               0.000000000               0.999999984              -0.000698555               0.000000000               0.999999984              -0.000709617               0.000000000               0.999999984              -0.000721742               0.000000000               0.999999984              -0.000734879               0.000000000               0.999999984              -0.000748839              -0.000000000               0.999999984              -0.000763340              -0.000000000               0.999999984              -0.000778280               0.000000000               0.999999984              -0.000793168              -0.000000000               0.999999984              -0.000807577               0.000000000               0.999999984              -0.000821123              -0.000000000               0.999999984              -0.000833233               0.000000000               0.999999984              -0.000589096              -0.000119457               0.999999984              -0.000632223              -0.000098308               0.999999984              -0.000650600              -0.000089570               0.999999984              -0.000660741              -0.000087128               0.999999984              -0.000668822              -0.000088103               0.999999984              -0.000677202              -0.000090775               0.999999984              -0.000686626              -0.000094099               0.999999984              -0.000697248              -0.000097718               0.999999984              -0.000708980              -0.000101375               0.999999984              -0.000721549              -0.000104599               0.999999984              -0.000734751              -0.000107151               0.999999984              -0.000748362              -0.000108914               0.999999984              -0.000762101              -0.000109637               0.999999984              -0.000775628              -0.000108810               0.999999984              -0.000788608              -0.000106007               0.999999984              -0.000800716              -0.000100688               0.999999984              -0.000811487              -0.000091762               0.999999984              -0.000579352              -0.000237753               0.999999984              -0.000612874              -0.000195981               0.999999984              -0.000625384              -0.000179473               0.999999984              -0.000631979              -0.000175421               0.999999984              -0.000637940              -0.000177972               0.999999984              -0.000644897              -0.000183733               0.999999984              -0.000653215              -0.000190772               0.999999984              -0.000662694              -0.000198055               0.999999984              -0.000672961              -0.000205289               0.999999984              -0.000683683              -0.000211679               0.999999984              -0.000694612              -0.000216950               0.999999984              -0.000705482              -0.000220745               0.999999984              -0.000715991              -0.000222478               0.999999984              -0.000725899              -0.000221639               0.999999984              -0.000734978              -0.000217596               0.999999984              -0.000743128              -0.000209559               0.999999984              -0.000750270              -0.000196028               0.999999984              -0.000563300              -0.000353754               0.999999984              -0.000581605              -0.000292518               0.999999984              -0.000585698              -0.000270008               0.999999984              -0.000587756              -0.000265840               0.999999984              -0.000591162              -0.000270863               0.999999984              -0.000596357              -0.000280332               0.999999984              -0.000603118              -0.000291422               0.999999984              -0.000610942              -0.000302825               0.999999984              -0.000619224              -0.000313751               0.999999984              -0.000627504              -0.000323492               0.999999984              -0.000635545              -0.000331556               0.999999984              -0.000642937              -0.000337384               0.999999984              -0.000649487              -0.000340467               0.999999984              -0.000655020              -0.000340415               0.999999984              -0.000659469              -0.000336864               0.999999984              -0.000662951              -0.000329215               0.999999984              -0.000665464              -0.000316331               0.999999984              -0.000541173              -0.000466303               0.999999984              -0.000539991              -0.000387674               0.999999984              -0.000534864              -0.000361440               0.999999984              -0.000532622              -0.000358660               0.999999984              -0.000533785              -0.000367100               0.999999984              -0.000537696              -0.000380805               0.999999984              -0.000543234              -0.000396363               0.999999984              -0.000549476              -0.000411976               0.999999984              -0.000555701              -0.000426543               0.999999984              -0.000561388              -0.000439448               0.999999984              -0.000566089              -0.000450063               0.999999984              -0.000569615              -0.000458049               0.999999984              -0.000571847              -0.000462868               0.999999984              -0.000572861              -0.000464327               0.999999984              -0.000572554              -0.000462334               0.999999984              -0.000570810              -0.000456463               0.999999984              -0.000567740              -0.000446412               0.999999984              -0.000513390              -0.000574309               0.999999984              -0.000490307              -0.000481324               0.999999984              -0.000476696              -0.000453715               0.999999984              -0.000471501              -0.000453589               0.999999984              -0.000471847              -0.000466015               0.999999984              -0.000475317              -0.000484218               0.999999984              -0.000480008              -0.000504205               0.999999984              -0.000484796              -0.000523785               0.999999984              -0.000488819              -0.000541711               0.999999984              -0.000491552              -0.000557188               0.999999984              -0.000492648              -0.000569973               0.999999984              -0.000492015              -0.000579827               0.999999984              -0.000489617              -0.000586538               0.999999984              -0.000485470              -0.000589954               0.999999984              -0.000479403              -0.000589861               0.999999984              -0.000471532              -0.000586253               0.999999984              -0.000462178              -0.000579543               0.999999984              -0.000480476              -0.000676754               0.999999984              -0.000435121              -0.000573410               0.999999984              -0.000415233              -0.000546337               0.999999984              -0.000409141              -0.000549710               0.999999984              -0.000409958              -0.000566481               0.999999984              -0.000413703              -0.000588964               0.999999984              -0.000418010              -0.000612790               0.999999984              -0.000421473              -0.000635561               0.999999984              -0.000423211              -0.000656053               0.999999984              -0.000422693              -0.000673585               0.999999984              -0.000419738              -0.000688050               0.999999984              -0.000414286              -0.000699576               0.999999984              -0.000406317              -0.000708032               0.999999984              -0.000395925              -0.000713271               0.999999984              -0.000383322              -0.000715161               0.999999984              -0.000368871              -0.000714242               0.999999984              -0.000353153              -0.000711399               0.999999984              -0.000443196              -0.000772517               0.999999984              -0.000377201              -0.000663675               0.999999984              -0.000354019              -0.000638619               0.999999984              -0.000349160              -0.000645723               0.999999984              -0.000351526              -0.000666455               0.999999984              -0.000356165              -0.000692584               0.999999984              -0.000360144              -0.000719524               0.999999984              -0.000361987              -0.000744794               0.999999984              -0.000360886              -0.000767221               0.999999984              -0.000356408              -0.000786336               0.999999984              -0.000348488              -0.000802185               0.999999984              -0.000337263              -0.000815013               0.999999984              -0.000322965              -0.000824741               0.999999984              -0.000305824              -0.000831436               0.999999984              -0.000286323              -0.000835410               0.999999984              -0.000265283              -0.000837491               0.999999984              -0.000243343              -0.000838439               0.999999984              -0.000402925              -0.000859847               0.999999984              -0.000318599              -0.000752030               0.999999984              -0.000296249              -0.000729422               0.999999984              -0.000294145              -0.000739758               0.999999984              -0.000298716              -0.000763886               0.999999984              -0.000304228              -0.000793148               0.999999984              -0.000307550              -0.000822493               0.999999984              -0.000307134              -0.000849664               0.999999984              -0.000302281              -0.000873533               0.999999984              -0.000292855              -0.000893821               0.999999984              -0.000279031              -0.000910686               0.999999984              -0.000261262              -0.000924425               0.999999984              -0.000239813              -0.000935160               0.999999984              -0.000215289              -0.000943304               0.999999984              -0.000189018              -0.000949663               0.999999984              -0.000161965              -0.000955021               0.999999984              -0.000134629              -0.000959753               0.999999984              -0.000361628              -0.000942005               0.999999984              -0.000270153              -0.000849042               0.999999984              -0.000244811              -0.000821758               0.999999984              -0.000241468              -0.000826125               0.999999984              -0.000245585              -0.000845422               0.999999984              -0.000251360              -0.000871495               0.999999984              -0.000255577              -0.000899724               0.999999984              -0.000256500              -0.000927232               0.999999984              -0.000253341              -0.000952610               0.999999984              -0.000245863              -0.000975298               0.999999984              -0.000234061              -0.000995104               0.999999984              -0.000218186              -0.001012281               0.999999984              -0.000198441              -0.001026849               0.999999984              -0.000174804              -0.001039177               0.999999984              -0.000148352              -0.001049670               0.999999984              -0.000120633              -0.001059096               0.999999984              -0.000092568              -0.001067801               0.999999984              -0.000316434              -0.001016396               0.999999984              -0.000224674              -0.000942383               0.999999984              -0.000196346              -0.000915903               0.999999984              -0.000190982              -0.000916282               0.999999984              -0.000193914              -0.000931743               0.999999984              -0.000199208              -0.000955065               0.999999984              -0.000203717              -0.000982054               0.999999984              -0.000205504              -0.001009836               0.999999984              -0.000203820              -0.001036662               0.999999984              -0.000198106              -0.001061692               0.999999984              -0.000188254              -0.001084525               0.999999984              -0.000174198              -0.001104985               0.999999984              -0.000156005              -0.001123177               0.999999984              -0.000133532              -0.001139250               0.999999984              -0.000107193              -0.001153485               0.999999984              -0.000078065              -0.001166542               0.999999984              -0.000047682              -0.001178935               0.999999984              -0.000268289              -0.001081448               0.999999984              -0.000182055              -0.001029320               0.999999984              -0.000152253              -0.001007602               0.999999984              -0.000144633              -0.001007011               0.999999984              -0.000145858              -0.001019955               0.999999984              -0.000150080              -0.001041193               0.999999984              -0.000154200              -0.001067235               0.999999984              -0.000156349              -0.001095330               0.999999984              -0.000155662              -0.001123750               0.999999984              -0.000151501              -0.001151246               0.999999984              -0.000143592              -0.001177290               0.999999984              -0.000131538              -0.001201367               0.999999984              -0.000115011              -0.001223462               0.999999984              -0.000093868              -0.001243533               0.999999984              -0.000068035              -0.001261789               0.999999984              -0.000037795              -0.001278547               0.999999984              -0.000004183              -0.001294448               0.999999984              -0.000217741              -0.001136054               0.999999984              -0.000142200              -0.001106356               0.999999984              -0.000113231              -0.001092360               0.999999984              -0.000104061              -0.001093407               0.999999984              -0.000103406              -0.001105828               0.999999984              -0.000106179              -0.001126031               0.999999984              -0.000109517              -0.001151420               0.999999984              -0.000111512              -0.001179870               0.999999984              -0.000111410              -0.001209782               0.999999984              -0.000108534              -0.001239858               0.999999984              -0.000102407              -0.001269321               0.999999984              -0.000092468              -0.001297507               0.999999984              -0.000078133              -0.001324083               0.999999984              -0.000058877              -0.001348799               0.999999984              -0.000034253              -0.001371803               0.999999984              -0.000004127              -0.001393091               0.999999984               0.000031791              -0.001413098               0.999999984              -0.000165208              -0.001179496               0.999999984              -0.000104636              -0.001170223               0.999999984              -0.000079342              -0.001165312               0.999999984              -0.000070076              -0.001169774               0.999999984              -0.000068116              -0.001183147               0.999999984              -0.000069413              -0.001203658               0.999999984              -0.000071599              -0.001229183               0.999999984              -0.000073171              -0.001258173               0.999999984              -0.000073266              -0.001289420               0.999999984              -0.000071314              -0.001321811               0.999999984              -0.000066906              -0.001354514               0.999999984              -0.000059230              -0.001386747               0.999999984              -0.000047692              -0.001418069               0.999999984              -0.000031477              -0.001448008               0.999999984              -0.000009879              -0.001476330               0.999999984               0.000017726              -0.001502877               0.999999984               0.000052687              -0.001527799               0.999999984              -0.000111078              -0.001211162               0.999999984              -0.000068813              -0.001218144               0.999999984              -0.000050011              -0.001221614               0.999999984              -0.000042360              -0.001230277               0.999999984              -0.000040093              -0.001245493               0.999999984              -0.000040406              -0.001266816               0.999999984              -0.000041605              -0.001293047               0.999999984              -0.000042559              -0.001322947               0.999999984              -0.000042521              -0.001355477               0.999999984              -0.000041261              -0.001389753               0.999999984              -0.000038331              -0.001425124               0.999999984              -0.000033160              -0.001460819               0.999999984              -0.000024952              -0.001496241               0.999999984              -0.000013149              -0.001530918               0.999999984               0.000002848              -0.001564375               0.999999984               0.000024252              -0.001596216               0.999999984               0.000052740              -0.001626212               0.999999984              -0.000055835              -0.001230372               0.999999984              -0.000034142              -0.001247892               0.999999984              -0.000024088              -0.001257289               0.999999984              -0.000019740              -0.001269132               0.999999984              -0.000018289              -0.001286124               0.999999984              -0.000018235              -0.001308496               0.999999984              -0.000018706              -0.001335423               0.999999984              -0.000019130              -0.001366139               0.999999984              -0.000019056              -0.001399689               0.999999984              -0.000018372              -0.001435240               0.999999984              -0.000016891              -0.001472256               0.999999984              -0.000014261              -0.001510181               0.999999984              -0.000009976              -0.001548408               0.999999984              -0.000003764              -0.001586328               0.999999984               0.000004685              -0.001623477               0.999999984               0.000016357              -0.001659342               0.999999984               0.000032503              -0.001693312               0.999999984              -0.000000000              -0.001236818               0.999999984              -0.000000000              -0.001257995               0.999999984               0.000000000              -0.001269578               0.999999984               0.000000000              -0.001282642               0.999999984              -0.000000000              -0.001300240               0.999999984              -0.000000000              -0.001323033               0.999999984              -0.000000000              -0.001350366               0.999999984               0.000000000              -0.001381378               0.999999984              -0.000000000              -0.001415263               0.999999984              -0.000000000              -0.001451354               0.999999984               0.000000000              -0.001489007               0.999999984               0.000000000              -0.001527667               0.999999984               0.000000000              -0.001566814               0.999999984              -0.000000000              -0.001605895               0.999999984               0.000000000              -0.001644421               0.999999984              -0.000000000              -0.001681795               0.999999984              -0.000000000              -0.001717289               0.999999984               0.000592401               0.000000000               0.999999984               0.000638792              -0.000000000               0.999999984               0.000659161              -0.000000000               0.999999984               0.000670583               0.000000000               0.999999984               0.000679536               0.000000000               0.999999984               0.000688574               0.000000000               0.999999984               0.000698555              -0.000000000               0.999999984               0.000709617              -0.000000000               0.999999984               0.000721742               0.000000000               0.999999984               0.000734879              -0.000000000               0.999999984               0.000748839              -0.000000000               0.999999984               0.000763340               0.000000000               0.999999984               0.000778280               0.000000000               0.999999984               0.000793168               0.000000000               0.999999984               0.000807577               0.000000000               0.999999984               0.000821123               0.000000000               0.999999984               0.000833233               0.000000000               0.999999984               0.000589096              -0.000119457               0.999999984               0.000632223              -0.000098308               0.999999984               0.000650600              -0.000089570               0.999999984               0.000660741              -0.000087128               0.999999984               0.000668822              -0.000088103               0.999999984               0.000677202              -0.000090775               0.999999984               0.000686626              -0.000094099               0.999999984               0.000697248              -0.000097718               0.999999984               0.000708980              -0.000101375               0.999999984               0.000721549              -0.000104599               0.999999984               0.000734751              -0.000107151               0.999999984               0.000748362              -0.000108914               0.999999984               0.000762101              -0.000109637               0.999999984               0.000775628              -0.000108810               0.999999984               0.000788608              -0.000106007               0.999999984               0.000800716              -0.000100688               0.999999984               0.000811487              -0.000091762               0.999999984               0.000579352              -0.000237753               0.999999984               0.000612874              -0.000195981               0.999999984               0.000625384              -0.000179473               0.999999984               0.000631979              -0.000175421               0.999999984               0.000637940              -0.000177972               0.999999984               0.000644897              -0.000183733               0.999999984               0.000653215              -0.000190772               0.999999984               0.000662694              -0.000198055               0.999999984               0.000672961              -0.000205289               0.999999984               0.000683683              -0.000211679               0.999999984               0.000694612              -0.000216950               0.999999984               0.000705482              -0.000220745               0.999999984               0.000715991              -0.000222478               0.999999984               0.000725899              -0.000221639               0.999999984               0.000734978              -0.000217596               0.999999984               0.000743128              -0.000209559               0.999999984               0.000750270              -0.000196028               0.999999984               0.000563300              -0.000353754               0.999999984               0.000581605              -0.000292518               0.999999984               0.000585698              -0.000270008               0.999999984               0.000587756              -0.000265840               0.999999984               0.000591162              -0.000270863               0.999999984               0.000596357              -0.000280332               0.999999984               0.000603118              -0.000291422               0.999999984               0.000610942              -0.000302825               0.999999984               0.000619224              -0.000313751               0.999999984               0.000627504              -0.000323492               0.999999984               0.000635545              -0.000331556               0.999999984               0.000642937              -0.000337384               0.999999984               0.000649487              -0.000340467               0.999999984               0.000655020              -0.000340415               0.999999984               0.000659469              -0.000336864               0.999999984               0.000662951              -0.000329215               0.999999984               0.000665464              -0.000316331               0.999999984               0.000541173              -0.000466303               0.999999984               0.000539991              -0.000387674               0.999999984               0.000534864              -0.000361440               0.999999984               0.000532622              -0.000358660               0.999999984               0.000533785              -0.000367100               0.999999984               0.000537696              -0.000380805               0.999999984               0.000543234              -0.000396363               0.999999984               0.000549476              -0.000411976               0.999999984               0.000555701              -0.000426543               0.999999984               0.000561388              -0.000439448               0.999999984               0.000566089              -0.000450063               0.999999984               0.000569615              -0.000458049               0.999999984               0.000571847              -0.000462868               0.999999984               0.000572861              -0.000464327               0.999999984               0.000572554              -0.000462334               0.999999984               0.000570810              -0.000456463               0.999999984               0.000567740              -0.000446412               0.999999984               0.000513390              -0.000574309               0.999999984               0.000490307              -0.000481324               0.999999984               0.000476696              -0.000453715               0.999999984               0.000471501              -0.000453589               0.999999984               0.000471847              -0.000466015               0.999999984               0.000475317              -0.000484218               0.999999984               0.000480008              -0.000504205               0.999999984               0.000484796              -0.000523785               0.999999984               0.000488819              -0.000541711               0.999999984               0.000491552              -0.000557188               0.999999984               0.000492648              -0.000569973               0.999999984               0.000492015              -0.000579827               0.999999984               0.000489617              -0.000586538               0.999999984               0.000485470              -0.000589954               0.999999984               0.000479403              -0.000589861               0.999999984               0.000471532              -0.000586253               0.999999984               0.000462178              -0.000579543               0.999999984               0.000480476              -0.000676754               0.999999984               0.000435121              -0.000573410               0.999999984               0.000415233              -0.000546337               0.999999984               0.000409141              -0.000549710               0.999999984               0.000409958              -0.000566481               0.999999984               0.000413703              -0.000588964               0.999999984               0.000418010              -0.000612790               0.999999984               0.000421473              -0.000635561               0.999999984               0.000423211              -0.000656053               0.999999984               0.000422693              -0.000673585               0.999999984               0.000419738              -0.000688050               0.999999984               0.000414286              -0.000699576               0.999999984               0.000406317              -0.000708032               0.999999984               0.000395925              -0.000713271               0.999999984               0.000383322              -0.000715161               0.999999984               0.000368871              -0.000714242               0.999999984               0.000353153              -0.000711399               0.999999984               0.000443196              -0.000772517               0.999999984               0.000377201              -0.000663675               0.999999984               0.000354019              -0.000638619               0.999999984               0.000349160              -0.000645723               0.999999984               0.000351526              -0.000666455               0.999999984               0.000356165              -0.000692584               0.999999984               0.000360144              -0.000719524               0.999999984               0.000361987              -0.000744794               0.999999984               0.000360886              -0.000767221               0.999999984               0.000356408              -0.000786336               0.999999984               0.000348488              -0.000802185               0.999999984               0.000337263              -0.000815013               0.999999984               0.000322965              -0.000824741               0.999999984               0.000305824              -0.000831436               0.999999984               0.000286323              -0.000835410               0.999999984               0.000265283              -0.000837491               0.999999984               0.000243343              -0.000838439               0.999999984               0.000402925              -0.000859847               0.999999984               0.000318599              -0.000752030               0.999999984               0.000296249              -0.000729422               0.999999984               0.000294145              -0.000739758               0.999999984               0.000298716              -0.000763886               0.999999984               0.000304228              -0.000793148               0.999999984               0.000307550              -0.000822493               0.999999984               0.000307134              -0.000849664               0.999999984               0.000302281              -0.000873533               0.999999984               0.000292855              -0.000893821               0.999999984               0.000279031              -0.000910686               0.999999984               0.000261262              -0.000924425               0.999999984               0.000239813              -0.000935160               0.999999984               0.000215289              -0.000943304               0.999999984               0.000189018              -0.000949663               0.999999984               0.000161965              -0.000955021               0.999999984               0.000134629              -0.000959753               0.999999984               0.000361628              -0.000942005               0.999999984               0.000270153              -0.000849042               0.999999984               0.000244811              -0.000821758               0.999999984               0.000241468              -0.000826125               0.999999984               0.000245585              -0.000845422               0.999999984               0.000251360              -0.000871495               0.999999984               0.000255577              -0.000899724               0.999999984               0.000256500              -0.000927232               0.999999984               0.000253341              -0.000952610               0.999999984               0.000245863              -0.000975298               0.999999984               0.000234061              -0.000995104               0.999999984               0.000218186              -0.001012281               0.999999984               0.000198441              -0.001026849               0.999999984               0.000174804              -0.001039177               0.999999984               0.000148352              -0.001049670               0.999999984               0.000120633              -0.001059096               0.999999984               0.000092568              -0.001067801               0.999999984               0.000316434              -0.001016396               0.999999984               0.000224674              -0.000942383               0.999999984               0.000196346              -0.000915903               0.999999984               0.000190982              -0.000916282               0.999999984               0.000193914              -0.000931743               0.999999984               0.000199208              -0.000955065               0.999999984               0.000203717              -0.000982054               0.999999984               0.000205504              -0.001009836               0.999999984               0.000203820              -0.001036662               0.999999984               0.000198106              -0.001061692               0.999999984               0.000188254              -0.001084525               0.999999984               0.000174198              -0.001104985               0.999999984               0.000156005              -0.001123177               0.999999984               0.000133532              -0.001139250               0.999999984               0.000107193              -0.001153485               0.999999984               0.000078065              -0.001166542               0.999999984               0.000047682              -0.001178935               0.999999984               0.000268289              -0.001081448               0.999999984               0.000182055              -0.001029320               0.999999984               0.000152253              -0.001007602               0.999999984               0.000144633              -0.001007011               0.999999984               0.000145858              -0.001019955               0.999999984               0.000150080              -0.001041193               0.999999984               0.000154200              -0.001067235               0.999999984               0.000156349              -0.001095330               0.999999984               0.000155662              -0.001123750               0.999999984               0.000151501              -0.001151246               0.999999984               0.000143592              -0.001177290               0.999999984               0.000131538              -0.001201367               0.999999984               0.000115011              -0.001223462               0.999999984               0.000093868              -0.001243533               0.999999984               0.000068035              -0.001261789               0.999999984               0.000037795              -0.001278547               0.999999984               0.000004183              -0.001294448               0.999999984               0.000217741              -0.001136054               0.999999984               0.000142200              -0.001106356               0.999999984               0.000113231              -0.001092360               0.999999984               0.000104061              -0.001093407               0.999999984               0.000103406              -0.001105828               0.999999984               0.000106179              -0.001126031               0.999999984               0.000109517              -0.001151420               0.999999984               0.000111512              -0.001179870               0.999999984               0.000111410              -0.001209782               0.999999984               0.000108534              -0.001239858               0.999999984               0.000102407              -0.001269321               0.999999984               0.000092468              -0.001297507               0.999999984               0.000078133              -0.001324083               0.999999984               0.000058877              -0.001348799               0.999999984               0.000034253              -0.001371803               0.999999984               0.000004127              -0.001393091               0.999999984              -0.000031791              -0.001413098               0.999999984               0.000165208              -0.001179496               0.999999984               0.000104636              -0.001170223               0.999999984               0.000079342              -0.001165312               0.999999984               0.000070076              -0.001169774               0.999999984               0.000068116              -0.001183147               0.999999984               0.000069413              -0.001203658               0.999999984               0.000071599              -0.001229183               0.999999984               0.000073171              -0.001258173               0.999999984               0.000073266              -0.001289420               0.999999984               0.000071314              -0.001321811               0.999999984               0.000066906              -0.001354514               0.999999984               0.000059230              -0.001386747               0.999999984               0.000047692              -0.001418069               0.999999984               0.000031477              -0.001448008               0.999999984               0.000009879              -0.001476330               0.999999984              -0.000017726              -0.001502877               0.999999984              -0.000052687              -0.001527799               0.999999984               0.000111078              -0.001211162               0.999999984               0.000068813              -0.001218144               0.999999984               0.000050011              -0.001221614               0.999999984               0.000042360              -0.001230277               0.999999984               0.000040093              -0.001245493               0.999999984               0.000040406              -0.001266816               0.999999984               0.000041605              -0.001293047               0.999999984               0.000042559              -0.001322947               0.999999984               0.000042521              -0.001355477               0.999999984               0.000041261              -0.001389753               0.999999984               0.000038331              -0.001425124               0.999999984               0.000033160              -0.001460819               0.999999984               0.000024952              -0.001496241               0.999999984               0.000013149              -0.001530918               0.999999984              -0.000002848              -0.001564375               0.999999984              -0.000024252              -0.001596216               0.999999984              -0.000052740              -0.001626212               0.999999984               0.000055835              -0.001230372               0.999999984               0.000034142              -0.001247892               0.999999984               0.000024088              -0.001257289               0.999999984               0.000019740              -0.001269132               0.999999984               0.000018289              -0.001286124               0.999999984               0.000018235              -0.001308496               0.999999984               0.000018706              -0.001335423               0.999999984               0.000019130              -0.001366139               0.999999984               0.000019056              -0.001399689               0.999999984               0.000018372              -0.001435240               0.999999984               0.000016891              -0.001472256               0.999999984               0.000014261              -0.001510181               0.999999984               0.000009976              -0.001548408               0.999999984               0.000003764              -0.001586328               0.999999984              -0.000004685              -0.001623477               0.999999984              -0.000016357              -0.001659342               0.999999984              -0.000032503              -0.001693312               0.999999984              -0.000000000              -0.001236818               0.999999984              -0.000000000              -0.001257995               0.999999984               0.000000000              -0.001269578               0.999999984               0.000000000              -0.001282642               0.999999984              -0.000000000              -0.001300240               0.999999984              -0.000000000              -0.001323033               0.999999984              -0.000000000              -0.001350366               0.999999984               0.000000000              -0.001381378               0.999999984              -0.000000000              -0.001415263               0.999999984              -0.000000000              -0.001451354               0.999999984               0.000000000              -0.001489007               0.999999984               0.000000000              -0.001527667               0.999999984               0.000000000              -0.001566814               0.999999984              -0.000000000              -0.001605895               0.999999984               0.000000000              -0.001644421               0.999999984              -0.000000000              -0.001681795               0.999999984              -0.000000000              -0.001717289               0.999999984               0.000592401               0.000000000               0.999999984               0.000638792              -0.000000000               0.999999984               0.000659161              -0.000000000               0.999999984               0.000670583               0.000000000               0.999999984               0.000679536               0.000000000               0.999999984               0.000688574               0.000000000               0.999999984               0.000698555              -0.000000000               0.999999984               0.000709617              -0.000000000               0.999999984               0.000721742               0.000000000               0.999999984               0.000734879              -0.000000000               0.999999984               0.000748839              -0.000000000               0.999999984               0.000763340               0.000000000               0.999999984               0.000778280               0.000000000               0.999999984               0.000793168               0.000000000               0.999999984               0.000807577               0.000000000               0.999999984               0.000821123               0.000000000               0.999999984               0.000833233               0.000000000               0.999999984               0.000589096               0.000119457               0.999999984               0.000632223               0.000098308               0.999999984               0.000650600               0.000089570               0.999999984               0.000660741               0.000087128               0.999999984               0.000668822               0.000088103               0.999999984               0.000677202               0.000090775               0.999999984               0.000686626               0.000094099               0.999999984               0.000697248               0.000097718               0.999999984               0.000708980               0.000101375               0.999999984               0.000721549               0.000104599               0.999999984               0.000734751               0.000107151               0.999999984               0.000748362               0.000108914               0.999999984               0.000762101               0.000109637               0.999999984               0.000775628               0.000108810               0.999999984               0.000788608               0.000106007               0.999999984               0.000800716               0.000100688               0.999999984               0.000811487               0.000091762               0.999999984               0.000579352               0.000237753               0.999999984               0.000612874               0.000195981               0.999999984               0.000625384               0.000179473               0.999999984               0.000631979               0.000175421               0.999999984               0.000637940               0.000177972               0.999999984               0.000644897               0.000183733               0.999999984               0.000653215               0.000190772               0.999999984               0.000662694               0.000198055               0.999999984               0.000672961               0.000205289               0.999999984               0.000683683               0.000211679               0.999999984               0.000694612               0.000216950               0.999999984               0.000705482               0.000220745               0.999999984               0.000715991               0.000222478               0.999999984               0.000725899               0.000221639               0.999999984               0.000734978               0.000217596               0.999999984               0.000743128               0.000209559               0.999999984               0.000750270               0.000196028               0.999999984               0.000563300               0.000353754               0.999999984               0.000581605               0.000292518               0.999999984               0.000585698               0.000270008               0.999999984               0.000587756               0.000265840               0.999999984               0.000591162               0.000270863               0.999999984               0.000596357               0.000280332               0.999999984               0.000603118               0.000291422               0.999999984               0.000610942               0.000302825               0.999999984               0.000619224               0.000313751               0.999999984               0.000627504               0.000323492               0.999999984               0.000635545               0.000331556               0.999999984               0.000642937               0.000337384               0.999999984               0.000649487               0.000340467               0.999999984               0.000655020               0.000340415               0.999999984               0.000659469               0.000336864               0.999999984               0.000662951               0.000329215               0.999999984               0.000665464               0.000316331               0.999999984               0.000541173               0.000466303               0.999999984               0.000539991               0.000387674               0.999999984               0.000534864               0.000361440               0.999999984               0.000532622               0.000358660               0.999999984               0.000533785               0.000367100               0.999999984               0.000537696               0.000380805               0.999999984               0.000543234               0.000396363               0.999999984               0.000549476               0.000411976               0.999999984               0.000555701               0.000426543               0.999999984               0.000561388               0.000439448               0.999999984               0.000566089               0.000450063               0.999999984               0.000569615               0.000458049               0.999999984               0.000571847               0.000462868               0.999999984               0.000572861               0.000464327               0.999999984               0.000572554               0.000462334               0.999999984               0.000570810               0.000456463               0.999999984               0.000567740               0.000446412               0.999999984               0.000513390               0.000574309               0.999999984               0.000490307               0.000481324               0.999999984               0.000476696               0.000453715               0.999999984               0.000471501               0.000453589               0.999999984               0.000471847               0.000466015               0.999999984               0.000475317               0.000484218               0.999999984               0.000480008               0.000504205               0.999999984               0.000484796               0.000523785               0.999999984               0.000488819               0.000541711               0.999999984               0.000491552               0.000557188               0.999999984               0.000492648               0.000569973               0.999999984               0.000492015               0.000579827               0.999999984               0.000489617               0.000586538               0.999999984               0.000485470               0.000589954               0.999999984               0.000479403               0.000589861               0.999999984               0.000471532               0.000586253               0.999999984               0.000462178               0.000579543               0.999999984               0.000480476               0.000676754               0.999999984               0.000435121               0.000573410               0.999999984               0.000415233               0.000546337               0.999999984               0.000409141               0.000549710               0.999999984               0.000409958               0.000566481               0.999999984               0.000413703               0.000588964               0.999999984               0.000418010               0.000612790               0.999999984               0.000421473               0.000635561               0.999999984               0.000423211               0.000656053               0.999999984               0.000422693               0.000673585               0.999999984               0.000419738               0.000688050               0.999999984               0.000414286               0.000699576               0.999999984               0.000406317               0.000708032               0.999999984               0.000395925               0.000713271               0.999999984               0.000383322               0.000715161               0.999999984               0.000368871               0.000714242               0.999999984               0.000353153               0.000711399               0.999999984               0.000443196               0.000772517               0.999999984               0.000377201               0.000663675               0.999999984               0.000354019               0.000638619               0.999999984               0.000349160               0.000645723               0.999999984               0.000351526               0.000666455               0.999999984               0.000356165               0.000692584               0.999999984               0.000360144               0.000719524               0.999999984               0.000361987               0.000744794               0.999999984               0.000360886               0.000767221               0.999999984               0.000356408               0.000786336               0.999999984               0.000348488               0.000802185               0.999999984               0.000337263               0.000815013               0.999999984               0.000322965               0.000824741               0.999999984               0.000305824               0.000831436               0.999999984               0.000286323               0.000835410               0.999999984               0.000265283               0.000837491               0.999999984               0.000243343               0.000838439               0.999999984               0.000402925               0.000859847               0.999999984               0.000318599               0.000752030               0.999999984               0.000296249               0.000729422               0.999999984               0.000294145               0.000739758               0.999999984               0.000298716               0.000763886               0.999999984               0.000304228               0.000793148               0.999999984               0.000307550               0.000822493               0.999999984               0.000307134               0.000849664               0.999999984               0.000302281               0.000873533               0.999999984               0.000292855               0.000893821               0.999999984               0.000279031               0.000910686               0.999999984               0.000261262               0.000924425               0.999999984               0.000239813               0.000935160               0.999999984               0.000215289               0.000943304               0.999999984               0.000189018               0.000949663               0.999999984               0.000161965               0.000955021               0.999999984               0.000134629               0.000959753               0.999999984               0.000361628               0.000942005               0.999999984               0.000270153               0.000849042               0.999999984               0.000244811               0.000821758               0.999999984               0.000241468               0.000826125               0.999999984               0.000245585               0.000845422               0.999999984               0.000251360               0.000871495               0.999999984               0.000255577               0.000899724               0.999999984               0.000256500               0.000927232               0.999999984               0.000253341               0.000952610               0.999999984               0.000245863               0.000975298               0.999999984               0.000234061               0.000995104               0.999999984               0.000218186               0.001012281               0.999999984               0.000198441               0.001026849               0.999999984               0.000174804               0.001039177               0.999999984               0.000148352               0.001049670               0.999999984               0.000120633               0.001059096               0.999999984               0.000092568               0.001067801               0.999999984               0.000316434               0.001016396               0.999999984               0.000224674               0.000942383               0.999999984               0.000196346               0.000915903               0.999999984               0.000190982               0.000916282               0.999999984               0.000193914               0.000931743               0.999999984               0.000199208               0.000955065               0.999999984               0.000203717               0.000982054               0.999999984               0.000205504               0.001009836               0.999999984               0.000203820               0.001036662               0.999999984               0.000198106               0.001061692               0.999999984               0.000188254               0.001084525               0.999999984               0.000174198               0.001104985               0.999999984               0.000156005               0.001123177               0.999999984               0.000133532               0.001139250               0.999999984               0.000107193               0.001153485               0.999999984               0.000078065               0.001166542               0.999999984               0.000047682               0.001178935               0.999999984               0.000268289               0.001081448               0.999999984               0.000182055               0.001029320               0.999999984               0.000152253               0.001007602               0.999999984               0.000144633               0.001007011               0.999999984               0.000145858               0.001019955               0.999999984               0.000150080               0.001041193               0.999999984               0.000154200               0.001067235               0.999999984               0.000156349               0.001095330               0.999999984               0.000155662               0.001123750               0.999999984               0.000151501               0.001151246               0.999999984               0.000143592               0.001177290               0.999999984               0.000131538               0.001201367               0.999999984               0.000115011               0.001223462               0.999999984               0.000093868               0.001243533               0.999999984               0.000068035               0.001261789               0.999999984               0.000037795               0.001278547               0.999999984               0.000004183               0.001294448               0.999999984               0.000217741               0.001136054               0.999999984               0.000142200               0.001106356               0.999999984               0.000113231               0.001092360               0.999999984               0.000104061               0.001093407               0.999999984               0.000103406               0.001105828               0.999999984               0.000106179               0.001126031               0.999999984               0.000109517               0.001151420               0.999999984               0.000111512               0.001179870               0.999999984               0.000111410               0.001209782               0.999999984               0.000108534               0.001239858               0.999999984               0.000102407               0.001269321               0.999999984               0.000092468               0.001297507               0.999999984               0.000078133               0.001324083               0.999999984               0.000058877               0.001348799               0.999999984               0.000034253               0.001371803               0.999999984               0.000004127               0.001393091               0.999999984              -0.000031791               0.001413098               0.999999984               0.000165208               0.001179496               0.999999984               0.000104636               0.001170223               0.999999984               0.000079342               0.001165312               0.999999984               0.000070076               0.001169774               0.999999984               0.000068116               0.001183147               0.999999984               0.000069413               0.001203658               0.999999984               0.000071599               0.001229183               0.999999984               0.000073171               0.001258173               0.999999984               0.000073266               0.001289420               0.999999984               0.000071314               0.001321811               0.999999984               0.000066906               0.001354514               0.999999984               0.000059230               0.001386747               0.999999984               0.000047692               0.001418069               0.999999984               0.000031477               0.001448008               0.999999984               0.000009879               0.001476330               0.999999984              -0.000017726               0.001502877               0.999999984              -0.000052687               0.001527799               0.999999984               0.000111078               0.001211162               0.999999984               0.000068813               0.001218144               0.999999984               0.000050011               0.001221614               0.999999984               0.000042360               0.001230277               0.999999984               0.000040093               0.001245493               0.999999984               0.000040406               0.001266816               0.999999984               0.000041605               0.001293047               0.999999984               0.000042559               0.001322947               0.999999984               0.000042521               0.001355477               0.999999984               0.000041261               0.001389753               0.999999984               0.000038331               0.001425124               0.999999984               0.000033160               0.001460819               0.999999984               0.000024952               0.001496241               0.999999984               0.000013149               0.001530918               0.999999984              -0.000002848               0.001564375               0.999999984              -0.000024252               0.001596216               0.999999984              -0.000052740               0.001626212               0.999999984               0.000055835               0.001230372               0.999999984               0.000034142               0.001247892               0.999999984               0.000024088               0.001257289               0.999999984               0.000019740               0.001269132               0.999999984               0.000018289               0.001286124               0.999999984               0.000018235               0.001308496               0.999999984               0.000018706               0.001335423               0.999999984               0.000019130               0.001366139               0.999999984               0.000019056               0.001399689               0.999999984               0.000018372               0.001435240               0.999999984               0.000016891               0.001472256               0.999999984               0.000014261               0.001510181               0.999999984               0.000009976               0.001548408               0.999999984               0.000003764               0.001586328               0.999999984              -0.000004685               0.001623477               0.999999984              -0.000016357               0.001659342               0.999999984              -0.000032503               0.001693312               0.999999984               0.000000000               0.001236818               0.999999984               0.000000000               0.001257995               0.999999984               0.000000000               0.001269578               0.999999984              -0.000000000               0.001282642               0.999999984               0.000000000               0.001300240               0.999999984              -0.000000000               0.001323033               0.999999984              -0.000000000               0.001350366               0.999999984               0.000000000               0.001381378               0.999999984               0.000000000               0.001415263               0.999999984              -0.000000000               0.001451354               0.999999984              -0.000000000               0.001489007               0.999999984              -0.000000000               0.001527667               0.999999984               0.000000000               0.001566814               0.999999984              -0.000000000               0.001605895               0.999999984              -0.000000000               0.001644421               0.999999984               0.000000000               0.001681795               0.999999984              -0.000000000               0.001717289               0.999999984 </DataArray>
<DataArray type="Float64"                                    Name="defo"                                                      NumberOfComponents=" 3" format="ascii">
             -0.000592401               0.000000000               0.999999984              -0.000638792               0.000000000               0.999999984              -0.000659161               0.000000000               0.999999984              -0.000670583               0.000000000               0.999999984              -0.000679536               0.000000000               0.999999984              -0.000688574               0.000000000               0.999999984              -0.000698555               0.000000000               0.999999984              -0.000709617               0.000000000               0.999999984              -0.000721742               0.000000000               0.999999984              -0.000734879               0.000000000               0.999999984              -0.000748839              -0.000000000               0.999999984              -0.000763340              -0.000000000               0.999999984              -0.000778280               0.000000000               0.999999984              -0.000793168              -0.000000000               0.999999984              -0.000807577               0.000000000               0.999999984              -0.000821123              -0.000000000               0.999999984              -0.000833233               0.000000000               0.999999984              -0.000589096               0.000119457               0.999999984              -0.000632223               0.000098308               0.999999984              -0.000650600               0.000089570               0.999999984              -0.000660741               0.000087128               0.999999984              -0.000668822               0.000088103               0.999999984              -0.000677202               0.000090775               0.999999984              -0.000686626               0.000094099               0.999999984              -0.000697248               0.000097718               0.999999984              -0.000708980               0.000101375               0.999999984              -0.000721549               0.000104599               0.999999984              -0.000734751               0.000107151               0.999999984              -0.000748362               0.000108914               0.999999984              -0.000762101               0.000109637               0.999999984              -0.000775628               0.000108810               0.999999984              -0.000788608               0.000106007               0.999999984              -0.000800716               0.000100688               0.999999984              -0.000811487               0.000091762               0.999999984              -0.000579352               0.000237753               0.999999984              -0.000612874               0.000195981               0.999999984              -0.000625384               0.000179473               0.999999984              -0.000631979               0.000175421               0.999999984              -0.000637940               0.000177972               0.999999984              -0.000644897               0.000183733               0.999999984              -0.000653215               0.000190772               0.999999984              -0.000662694               0.000198055               0.999999984              -0.000672961               0.000205289               0.999999984              -0.000683683               0.000211679               0.999999984              -0.000694612               0.000216950               0.999999984              -0.000705482               0.000220745               0.999999984              -0.000715991               0.000222478               0.999999984              -0.000725899               0.000221639               0.999999984              -0.000734978               0.000217596               0.999999984              -0.000743128               0.000209559               0.999999984              -0.000750270               0.000196028               0.999999984              -0.000563300               0.000353754               0.999999984              -0.000581605               0.000292518               0.999999984              -0.000585698               0.000270008               0.999999984              -0.000587756               0.000265840               0.999999984              -0.000591162               0.000270863               0.999999984              -0.000596357               0.000280332               0.999999984              -0.000603118               0.000291422               0.999999984              -0.000610942               0.000302825               0.999999984              -0.000619224               0.000313751               0.999999984              -0.000627504               0.000323492               0.999999984              -0.000635545               0.000331556               0.999999984              -0.000642937               0.000337384               0.999999984              -0.000649487               0.000340467               0.999999984              -0.000655020               0.000340415               0.999999984              -0.000659469               0.000336864               0.999999984              -0.000662951               0.000329215               0.999999984              -0.000665464               0.000316331               0.999999984              -0.000541173               0.000466303               0.999999984              -0.000539991               0.000387674               0.999999984              -0.000534864               0.000361440               0.999999984              -0.000532622               0.000358660               0.999999984              -0.000533785               0.000367100               0.999999984              -0.000537696               0.000380805               0.999999984              -0.000543234               0.000396363               0.999999984              -0.000549476               0.000411976               0.999999984              -0.000555701               0.000426543               0.999999984              -0.000561388               0.000439448               0.999999984              -0.000566089               0.000450063               0.999999984              -0.000569615               0.000458049               0.999999984              -0.000571847               0.000462868               0.999999984              -0.000572861               0.000464327               0.999999984              -0.000572554               0.000462334               0.999999984              -0.000570810               0.000456463               0.999999984              -0.000567740               0.000446412               0.999999984              -0.000513390               0.000574309               0.999999984              -0.000490307               0.000481324               0.999999984              -0.000476696               0.000453715               0.999999984              -0.000471501               0.000453589               0.999999984              -0.000471847               0.000466015               0.999999984              -0.000475317               0.000484218               0.999999984              -0.000480008               0.000504205               0.999999984              -0.000484796               0.000523785               0.999999984              -0.000488819               0.000541711               0.999999984              -0.000491552               0.000557188               0.999999984              -0.000492648               0.000569973               0.999999984              -0.000492015               0.000579827               0.999999984              -0.000489617               0.000586538               0.999999984              -0.000485470               0.000589954               0.999999984              -0.000479403               0.000589861               0.999999984              -0.000471532               0.000586253               0.999999984              -0.000462178               0.000579543               0.999999984              -0.000480476               0.000676754               0.999999984              -0.000435121               0.000573410               0.999999984              -0.000415233               0.000546337               0.999999984              -0.000409141               0.000549710               0.999999984              -0.000409958               0.000566481               0.999999984              -0.000413703               0.000588964               0.999999984              -0.000418010               0.000612790               0.999999984              -0.000421473               0.000635561               0.999999984              -0.000423211               0.000656053               0.999999984              -0.000422693               0.000673585               0.999999984              -0.000419738               0.000688050               0.999999984              -0.000414286               0.000699576               0.999999984              -0.000406317               0.000708032               0.999999984              -0.000395925               0.000713271               0.999999984              -0.000383322               0.000715161               0.999999984              -0.000368871               0.000714242               0.999999984              -0.000353153               0.000711399               0.999999984              -0.000443196               0.000772517               0.999999984              -0.000377201               0.000663675               0.999999984              -0.000354019               0.000638619               0.999999984              -0.000349160               0.000645723               0.999999984              -0.000351526               0.000666455               0.999999984              -0.000356165               0.000692584               0.999999984              -0.000360144               0.000719524               0.999999984              -0.000361987               0.000744794               0.999999984              -0.000360886               0.000767221               0.999999984              -0.000356408               0.000786336               0.999999984              -0.000348488               0.000802185               0.999999984              -0.000337263               0.000815013               0.999999984              -0.000322965               0.000824741               0.999999984              -0.000305824               0.000831436               0.999999984              -0.000286323               0.000835410               0.999999984              -0.000265283               0.000837491               0.999999984              -0.000243343               0.000838439               0.999999984              -0.000402925               0.000859847               0.999999984              -0.000318599               0.000752030               0.999999984              -0.000296249               0.000729422               0.999999984              -0.000294145               0.000739758               0.999999984              -0.000298716               0.000763886               0.999999984              -0.000304228               0.000793148               0.999999984              -0.000307550               0.000822493               0.999999984              -0.000307134               0.000849664               0.999999984              -0.000302281               0.000873533               0.999999984              -0.000292855               0.000893821               0.999999984              -0.000279031               0.000910686               0.999999984              -0.000261262               0.000924425               0.999999984              -0.000239813               0.000935160               0.999999984              -0.000215289               0.000943304               0.999999984              -0.000189018               0.000949663               0.999999984              -0.000161965               0.000955021               0.999999984              -0.000134629               0.000959753               0.999999984              -0.000361628               0.000942005               0.999999984              -0.000270153               0.000849042               0.999999984              -0.000244811               0.000821758               0.999999984              -0.000241468               0.000826125               0.999999984              -0.000245585               0.000845422               0.999999984              -0.000251360               0.000871495               0.999999984              -0.000255577               0.000899724               0.999999984              -0.000256500               0.000927232               0.999999984              -0.000253341               0.000952610               0.999999984              -0.000245863               0.000975298               0.999999984              -0.000234061               0.000995104               0.999999984              -0.000218186               0.001012281               0.999999984              -0.000198441               0.001026849               0.999999984              -0.000174804               0.001039177               0.999999984              -0.000148352               0.001049670               0.999999984              -0.000120633               0.001059096               0.999999984              -0.000092568               0.001067801               0.999999984              -0.000316434               0.001016396               0.999999984              -0.000224674               0.000942383               0.999999984              -0.000196346               0.000915903               0.999999984              -0.000190982               0.000916282               0.999999984              -0.000193914               0.000931743               0.999999984              -0.000199208               0.000955065               0.999999984              -0.000203717               0.000982054               0.999999984              -0.000205504               0.001009836               0.999999984              -0.000203820               0.001036662               0.999999984              -0.000198106               0.001061692               0.999999984              -0.000188254               0.001084525               0.999999984              -0.000174198               0.001104985               0.999999984              -0.000156005               0.001123177               0.999999984              -0.000133532               0.001139250               0.999999984              -0.000107193               0.001153485               0.999999984              -0.000078065               0.001166542               0.999999984              -0.000047682               0.001178935               0.999999984              -0.000268289               0.001081448               0.999999984              -0.000182055               0.001029320               0.999999984              -0.000152253               0.001007602               0.999999984              -0.000144633               0.001007011               0.999999984              -0.000145858               0.001019955               0.999999984              -0.000150080               0.001041193               0.999999984              -0.000154200               0.001067235               0.999999984              -0.000156349               0.001095330               0.999999984              -0.000155662               0.001123750               0.999999984              -0.000151501               0.001151246               0.999999984              -0.000143592               0.001177290               0.999999984              -0.000131538               0.001201367               0.999999984              -0.000115011               0.001223462               0.999999984              -0.000093868               0.001243533               0.999999984              -0.000068035               0.001261789               0.999999984              -0.000037795               0.001278547               0.999999984              -0.000004183               0.001294448               0.999999984              -0.000217741               0.001136054               0.999999984              -0.000142200               0.001106356               0.999999984              -0.000113231               0.001092360               0.999999984              -0.000104061               0.001093407               0.999999984              -0.000103406               0.001105828               0.999999984              -0.000106179               0.001126031               0.999999984              -0.000109517               0.001151420               0.999999984              -0.000111512               0.001179870               0.999999984              -0.000111410               0.001209782               0.999999984              -0.000108534               0.001239858               0.999999984              -0.000102407               0.001269321               0.999999984              -0.000092468               0.001297507               0.999999984              -0.000078133               0.001324083               0.999999984              -0.000058877               0.001348799               0.999999984              -0.000034253               0.001371803               0.999999984              -0.000004127               0.001393091               0.999999984               0.000031791               0.001413098               0.999999984              -0.000165208               0.001179496               0.999999984              -0.000104636               0.001170223               0.999999984              -0.000079342               0.001165312               0.999999984              -0.000070076               0.001169774               0.999999984              -0.000068116               0.001183147               0.999999984              -0.000069413               0.001203658               0.999999984              -0.000071599               0.001229183               0.999999984              -0.000073171               0.001258173               0.999999984              -0.000073266               0.001289420               0.999999984              -0.000071314               0.001321811               0.999999984              -0.000066906               0.001354514               0.999999984              -0.000059230               0.001386747               0.999999984              -0.000047692               0.001418069               0.999999984              -0.000031477               0.001448008               0.999999984              -0.000009879               0.001476330               0.999999984               0.000017726               0.001502877               0.999999984               0.000052687               0.001527799               0.999999984              -0.000111078               0.001211162               0.999999984              -0.000068813               0.001218144               0.999999984              -0.000050011               0.001221614               0.999999984              -0.000042360               0.001230277               0.999999984              -0.000040093               0.001245493               0.999999984              -0.000040406               0.001266816               0.999999984              -0.000041605               0.001293047               0.999999984              -0.000042559               0.001322947               0.999999984              -0.000042521               0.001355477               0.999999984              -0.000041261               0.001389753               0.999999984              -0.000038331               0.001425124               0.999999984              -0.000033160               0.001460819               0.999999984              -0.000024952               0.001496241               0.999999984              -0.000013149               0.001530918               0.999999984               0.000002848               0.001564375               0.999999984               0.000024252               0.001596216               0.999999984               0.000052740               0.001626212               0.999999984              -0.000055835               0.001230372               0.999999984              -0.000034142               0.001247892               0.999999984              -0.000024088               0.001257289               0.999999984              -0.000019740               0.001269132               0.999999984              -0.000018289               0.001286124               0.999999984              -0.000018235               0.001308496               0.999999984              -0.000018706               0.001335423               0.999999984              -0.000019130               0.001366139               0.999999984              -0.000019056               0.001399689               0.999999984              -0.000018372               0.001435240               0.999999984              -0.000016891               0.001472256               0.999999984              -0.000014261               0.001510181               0.999999984              -0.000009976               0.001548408               0.999999984              -0.000003764               0.001586328               0.999999984               0.000004685               0.001623477               0.999999984               0.000016357               0.001659342               0.999999984               0.000032503               0.001693312               0.999999984               0.000000000               0.001236818               0.999999984               0.000000000               0.001257995               0.999999984               0.000000000               0.001269578               0.999999984              -0.000000000               0.001282642               0.999999984               0.000000000               0.001300240               0.999999984              -0.000000000               0.001323033               0.999999984              -0.000000000               0.001350366               0.999999984               0.000000000               0.001381378               0.999999984               0.000000000               0.001415263               0.999999984              -0.000000000               0.001451354               0.999999984              -0.000000000               0.001489007               0.999999984              -0.000000000               0.001527667               0.999999984               0.000000000               0.001566814               0.999999984              -0.000000000               0.001605895               0.999999984              -0.000000000               0.001644421               0.999999984               0.000000000               0.001681795               0.999999984              -0.000000000               0.001717289               0.999999984              -0.000592401               0.000000000               0.999999984              -0.000638792               0.000000000               0.999999984              -0.000659161               0.000000000               0.999999984              -0.000670583               0.000000000               0.999999984              -0.000679536               0.000000000               0.999999984              -0.000688574               0.000000000               0.999999984              -0.000698555               0.000000000               0.999999984              -0.000709617               0.000000000               0.999999984              -0.000721742               0.000000000               0.999999984              -0.000734879               0.000000000               0.999999984              -0.000748839              -0.000000000               0.999999984              -0.000763340              -0.000000000               0.999999984              -0.000778280               0.000000000               0.999999984              -0.000793168              -0.000000000               0.999999984              -0.000807577               0.000000000               0.999999984              -0.000821123              -0.000000000               0.999999984              -0.000833233               0.000000000               0.999999984              -0.000589096              -0.000119457               0.999999984              -0.000632223              -0.000098308               0.999999984              -0.000650600              -0.000089570               0.999999984              -0.000660741              -0.000087128               0.999999984              -0.000668822              -0.000088103               0.999999984              -0.000677202              -0.000090775               0.999999984              -0.000686626              -0.000094099               0.999999984              -0.000697248              -0.000097718               0.999999984              -0.000708980              -0.000101375               0.999999984              -0.000721549              -0.000104599               0.999999984              -0.000734751              -0.000107151               0.999999984              -0.000748362              -0.000108914               0.999999984              -0.000762101              -0.000109637               0.999999984              -0.000775628              -0.000108810               0.999999984              -0.000788608              -0.000106007               0.999999984              -0.000800716              -0.000100688               0.999999984              -0.000811487              -0.000091762               0.999999984              -0.000579352              -0.000237753               0.999999984              -0.000612874              -0.000195981               0.999999984              -0.000625384              -0.000179473               0.999999984              -0.000631979              -0.000175421               0.999999984              -0.000637940              -0.000177972               0.999999984              -0.000644897              -0.000183733               0.999999984              -0.000653215              -0.000190772               0.999999984              -0.000662694              -0.000198055               0.999999984              -0.000672961              -0.000205289               0.999999984              -0.000683683              -0.000211679               0.999999984              -0.000694612              -0.000216950               0.999999984              -0.000705482              -0.000220745               0.999999984              -0.000715991              -0.000222478               0.999999984              -0.000725899              -0.000221639               0.999999984              -0.000734978              -0.000217596               0.999999984              -0.000743128              -0.000209559               0.999999984              -0.000750270              -0.000196028               0.999999984              -0.000563300              -0.000353754               0.999999984              -0.000581605              -0.000292518               0.999999984              -0.000585698              -0.000270008               0.999999984              -0.000587756              -0.000265840               0.999999984              -0.000591162              -0.000270863               0.999999984              -0.000596357              -0.000280332               0.999999984              -0.000603118              -0.000291422               0.999999984              -0.000610942              -0.000302825               0.999999984              -0.000619224              -0.000313751               0.999999984              -0.000627504              -0.000323492               0.999999984              -0.000635545              -0.000331556               0.999999984              -0.000642937              -0.000337384               0.999999984              -0.000649487              -0.000340467               0.999999984              -0.000655020              -0.000340415               0.999999984              -0.000659469              -0.000336864               0.999999984              -0.000662951              -0.000329215               0.999999984              -0.000665464              -0.000316331               0.999999984              -0.000541173              -0.000466303               0.999999984              -0.000539991              -0.000387674               0.999999984              -0.000534864              -0.000361440               0.999999984              -0.000532622              -0.000358660               0.999999984              -0.000533785              -0.000367100               0.999999984              -0.000537696              -0.000380805               0.999999984              -0.000543234              -0.000396363               0.999999984              -0.000549476              -0.000411976               0.999999984              -0.000555701              -0.000426543               0.999999984              -0.000561388              -0.000439448               0.999999984              -0.000566089              -0.000450063               0.999999984              -0.000569615              -0.000458049               0.999999984              -0.000571847              -0.000462868               0.999999984              -0.000572861              -0.000464327               0.999999984              -0.000572554              -0.000462334               0.999999984              -0.000570810              -0.000456463               0.999999984              -0.000567740              -0.000446412               0.999999984              -0.000513390              -0.000574309               0.999999984              -0.000490307              -0.000481324               0.999999984              -0.000476696              -0.000453715               0.999999984              -0.000471501              -0.000453589               0.999999984              -0.000471847              -0.000466015               0.999999984              -0.000475317              -0.000484218               0.999999984              -0.000480008              -0.000504205               0.999999984              -0.000484796              -0.000523785               0.999999984              -0.000488819              -0.000541711               0.999999984              -0.000491552              -0.000557188               0.999999984              -0.000492648              -0.000569973               0.999999984              -0.000492015              -0.000579827               0.999999984              -0.000489617              -0.000586538               0.999999984              -0.000485470              -0.000589954               0.999999984              -0.000479403              -0.000589861               0.999999984              -0.000471532              -0.000586253               0.999999984              -0.000462178              -0.000579543               0.999999984              -0.000480476              -0.000676754               0.999999984              -0.000435121              -0.000573410               0.999999984              -0.000415233              -0.000546337               0.999999984              -0.000409141              -0.000549710               0.999999984              -0.000409958              -0.000566481               0.999999984              -0.000413703              -0.000588964               0.999999984              -0.000418010              -0.000612790               0.999999984              -0.000421473              -0.000635561               0.999999984              -0.000423211              -0.000656053               0.999999984              -0.000422693              -0.000673585               0.999999984              -0.000419738              -0.000688050               0.999999984              -0.000414286              -0.000699576               0.999999984              -0.000406317              -0.000708032               0.999999984              -0.000395925              -0.000713271               0.999999984              -0.000383322              -0.000715161               0.999999984              -0.000368871              -0.000714242               0.999999984              -0.000353153              -0.000711399               0.999999984              -0.000443196              -0.000772517               0.999999984              -0.000377201              -0.000663675               0.999999984              -0.000354019              -0.000638619               0.999999984              -0.000349160              -0.000645723               0.999999984              -0.000351526              -0.000666455               0.999999984              -0.000356165              -0.000692584               0.999999984              -0.000360144              -0.000719524               0.999999984              -0.000361987              -0.000744794               0.999999984              -0.000360886              -0.000767221               0.999999984              -0.000356408              -0.000786336               0.999999984              -0.000348488              -0.000802185               0.999999984              -0.000337263              -0.000815013               0.999999984              -0.000322965              -0.000824741               0.999999984              -0.000305824              -0.000831436               0.999999984              -0.000286323              -0.000835410               0.999999984              -0.000265283              -0.000837491               0.999999984              -0.000243343              -0.000838439               0.999999984              -0.000402925              -0.000859847               0.999999984              -0.000318599              -0.000752030               0.999999984              -0.000296249              -0.000729422               0.999999984              -0.000294145              -0.000739758               0.999999984              -0.000298716              -0.000763886               0.999999984              -0.000304228              -0.000793148               0.999999984              -0.000307550              -0.000822493               0.999999984              -0.000307134              -0.000849664               0.999999984              -0.000302281              -0.000873533               0.999999984              -0.000292855              -0.000893821               0.999999984              -0.000279031              -0.000910686               0.999999984              -0.000261262              -0.000924425               0.999999984              -0.000239813              -0.000935160               0.999999984              -0.000215289              -0.000943304               0.999999984              -0.000189018              -0.000949663               0.999999984              -0.000161965              -0.000955021               0.999999984              -0.000134629              -0.000959753               0.999999984              -0.000361628              -0.000942005               0.999999984              -0.000270153              -0.000849042               0.999999984              -0.000244811              -0.000821758               0.999999984              -0.000241468              -0.000826125               0.999999984              -0.000245585              -0.000845422               0.999999984              -0.000251360              -0.000871495               0.999999984              -0.000255577              -0.000899724               0.999999984              -0.000256500              -0.000927232               0.999999984              -0.000253341              -0.000952610               0.999999984              -0.000245863              -0.000975298               0.999999984              -0.000234061              -0.000995104               0.999999984              -0.000218186              -0.001012281               0.999999984              -0.000198441              -0.001026849               0.999999984              -0.000174804              -0.001039177               0.999999984              -0.000148352              -0.001049670               0.999999984              -0.000120633              -0.001059096               0.999999984              -0.000092568              -0.001067801               0.999999984              -0.000316434              -0.001016396               0.999999984              -0.000224674              -0.000942383               0.999999984              -0.000196346              -0.000915903               0.999999984              -0.000190982              -0.000916282               0.999999984              -0.000193914              -0.000931743               0.999999984              -0.000199208              -0.000955065               0.999999984              -0.000203717              -0.000982054               0.999999984              -0.000205504              -0.001009836               0.999999984              -0.000203820              -0.001036662               0.999999984              -0.000198106              -0.001061692               0.999999984              -0.000188254              -0.001084525               0.999999984              -0.000174198              -0.001104985               0.999999984              -0.000156005              -0.001123177               0.999999984              -0.000133532              -0.001139250               0.999999984              -0.000107193              -0.001153485               0.999999984              -0.000078065              -0.001166542               0.999999984              -0.000047682              -0.001178935               0.999999984              -0.000268289              -0.001081448               0.999999984              -0.000182055              -0.001029320               0.999999984              -0.000152253              -0.001007602               0.999999984              -0.000144633              -0.001007011               0.999999984              -0.000145858              -0.001019955               0.999999984              -0.000150080              -0.001041193               0.999999984              -0.000154200              -0.001067235               0.999999984              -0.000156349              -0.001095330               0.999999984              -0.000155662              -0.001123750               0.999999984              -0.000151501              -0.001151246               0.999999984              -0.000143592              -0.001177290               0.999999984              -0.000131538              -0.001201367               0.999999984              -0.000115011              -0.001223462               0.999999984              -0.000093868              -0.001243533               0.999999984              -0.000068035              -0.001261789               0.999999984              -0.000037795              -0.001278547               0.999999984              -0.000004183              -0.001294448               0.999999984              -0.000217741              -0.001136054               0.999999984              -0.000142200              -0.001106356               0.999999984              -0.000113231              -0.001092360               0.999999984              -0.000104061              -0.001093407               0.999999984              -0.000103406              -0.001105828               0.999999984              -0.000106179              -0.001126031               0.999999984              -0.000109517              -0.001151420               0.999999984              -0.000111512              -0.001179870               0.999999984              -0.000111410              -0.001209782               0.999999984              -0.000108534              -0.001239858               0.999999984              -0.000102407              -0.001269321               0.999999984              -0.000092468              -0.001297507               0.999999984              -0.000078133              -0.001324083               0.999999984              -0.000058877              -0.001348799               0.999999984              -0.000034253              -0.001371803               0.999999984              -0.000004127              -0.001393091               0.999999984               0.000031791              -0.001413098               0.999999984              -0.000165208              -0.001179496               0.999999984              -0.000104636              -0.001170223               0.999999984              -0.000079342              -0.001165312               0.999999984              -0.000070076              -0.001169774               0.999999984              -0.000068116              -0.001183147               0.999999984              -0.000069413              -0.001203658               0.999999984              -0.000071599              -0.001229183               0.999999984              -0.000073171              -0.001258173               0.999999984              -0.000073266              -0.001289420               0.999999984              -0.000071314              -0.001321811               0.999999984              -0.000066906              -0.001354514               0.999999984              -0.000059230              -0.001386747               0.999999984              -0.000047692              -0.001418069               0.999999984              -0.000031477              -0.001448008               0.999999984              -0.000009879              -0.001476330               0.999999984               0.000017726              -0.001502877               0.999999984               0.000052687              -0.001527799               0.999999984              -0.000111078              -0.001211162               0.999999984              -0.000068813              -0.001218144               0.999999984              -0.000050011              -0.001221614               0.999999984              -0.000042360              -0.001230277               0.999999984              -0.000040093              -0.001245493               0.999999984              -0.000040406              -0.001266816               0.999999984              -0.000041605              -0.001293047               0.999999984              -0.000042559              -0.001322947               0.999999984              -0.000042521              -0.001355477               0.999999984              -0.000041261              -0.001389753               0.999999984              -0.000038331              -0.001425124               0.999999984              -0.000033160              -0.001460819               0.999999984              -0.000024952              -0.001496241               0.999999984              -0.000013149              -0.001530918               0.999999984               0.000002848              -0.001564375               0.999999984               0.000024252              -0.001596216               0.999999984               0.000052740              -0.001626212               0.999999984              -0.000055835              -0.001230372               0.999999984              -0.000034142              -0.001247892               0.999999984              -0.000024088              -0.001257289               0.999999984              -0.000019740              -0.001269132               0.999999984              -0.000018289              -0.001286124               0.999999984              -0.000018235              -0.001308496               0.999999984              -0.000018706              -0.001335423               0.999999984              -0.000019130              -0.001366139               0.999999984              -0.000019056              -0.001399689               0.999999984              -0.000018372              -0.001435240               0.999999984              -0.000016891              -0.001472256               0.999999984              -0.000014261              -0.001510181               0.999999984              -0.000009976              -0.001548408               0.999999984              -0.000003764              -0.001586328               0.999999984               0.000004685              -0.001623477               0.999999984               0.000016357              -0.001659342               0.999999984               0.000032503              -0.001693312               0.999999984              -0.000000000              -0.001236818               0.999999984              -0.000000000              -0.001257995               0.999999984               0.000000000              -0.001269578               0.999999984               0.000000000              -0.001282642               0.999999984              -0.000000000              -0.001300240               0.999999984              -0.000000000              -0.001323033               0.999999984              -0.000000000              -0.001350366               0.999999984               0.000000000              -0.001381378               0.999999984              -0.000000000              -0.001415263               0.999999984              -0.000000000              -0.001451354               0.999999984               0.000000000              -0.001489007               0.999999984               0.000000000              -0.001527667               0.999999984               0.000000000              -0.001566814               0.999999984              -0.000000000              -0.001605895               0.999999984               0.000000000              -0.001644421               0.999999984              -0.000000000              -0.001681795               0.999999984              -0.000000000              -0.001717289               0.999999984               0.000592401               0.000000000               0.999999984               0.000638792              -0.000000000               0.999999984               0.000659161              -0.000000000               0.999999984               0.000670583               0.000000000               0.999999984               0.000679536               0.000000000               0.999999984               0.000688574               0.000000000               0.999999984               0.000698555              -0.000000000               0.999999984               0.000709617              -0.000000000               0.999999984               0.000721742               0.000000000               0.999999984               0.000734879              -0.000000000               0.999999984               0.000748839              -0.000000000               0.999999984               0.000763340               0.000000000               0.999999984               0.000778280               0.000000000               0.999999984               0.000793168               0.000000000               0.999999984               0.000807577               0.000000000               0.999999984               0.000821123               0.000000000               0.999999984               0.000833233               0.000000000               0.999999984               0.000589096              -0.000119457               0.999999984               0.000632223              -0.000098308               0.999999984               0.000650600              -0.000089570               0.999999984               0.000660741              -0.000087128               0.999999984               0.000668822              -0.000088103               0.999999984               0.000677202              -0.000090775               0.999999984               0.000686626              -0.000094099               0.999999984               0.000697248              -0.000097718               0.999999984               0.000708980              -0.000101375               0.999999984               0.000721549              -0.000104599               0.999999984               0.000734751              -0.000107151               0.999999984               0.000748362              -0.000108914               0.999999984               0.000762101              -0.000109637               0.999999984               0.000775628              -0.000108810               0.999999984               0.000788608              -0.000106007               0.999999984               0.000800716              -0.000100688               0.999999984               0.000811487              -0.000091762               0.999999984               0.000579352              -0.000237753               0.999999984               0.000612874              -0.000195981               0.999999984               0.000625384              -0.000179473               0.999999984               0.000631979              -0.000175421               0.999999984               0.000637940              -0.000177972               0.999999984               0.000644897              -0.000183733               0.999999984               0.000653215              -0.000190772               0.999999984               0.000662694              -0.000198055               0.999999984               0.000672961              -0.000205289               0.999999984               0.000683683              -0.000211679               0.999999984               0.000694612              -0.000216950               0.999999984               0.000705482              -0.000220745               0.999999984               0.000715991              -0.000222478               0.999999984               0.000725899              -0.000221639               0.999999984               0.000734978              -0.000217596               0.999999984               0.000743128              -0.000209559               0.999999984               0.000750270              -0.000196028               0.999999984               0.000563300              -0.000353754               0.999999984               0.000581605              -0.000292518               0.999999984               0.000585698              -0.000270008               0.999999984               0.000587756              -0.000265840               0.999999984               0.000591162              -0.000270863               0.999999984               0.000596357              -0.000280332               0.999999984               0.000603118              -0.000291422               0.999999984               0.000610942              -0.000302825               0.999999984               0.000619224              -0.000313751               0.999999984               0.000627504              -0.000323492               0.999999984               0.000635545              -0.000331556               0.999999984               0.000642937              -0.000337384               0.999999984               0.000649487              -0.000340467               0.999999984               0.000655020              -0.000340415               0.999999984               0.000659469              -0.000336864               0.999999984               0.000662951              -0.000329215               0.999999984               0.000665464              -0.000316331               0.999999984               0.000541173              -0.000466303               0.999999984               0.000539991              -0.000387674               0.999999984               0.000534864              -0.000361440               0.999999984               0.000532622              -0.000358660               0.999999984               0.000533785              -0.000367100               0.999999984               0.000537696              -0.000380805               0.999999984               0.000543234              -0.000396363               0.999999984               0.000549476              -0.000411976               0.999999984               0.000555701              -0.000426543               0.999999984               0.000561388              -0.000439448               0.999999984               0.000566089              -0.000450063               0.999999984               0.000569615              -0.000458049               0.999999984               0.000571847              -0.000462868               0.999999984               0.000572861              -0.000464327               0.999999984               0.000572554              -0.000462334               0.999999984               0.000570810              -0.000456463               0.999999984               0.000567740              -0.000446412               0.999999984               0.000513390              -0.000574309               0.999999984               0.000490307              -0.000481324               0.999999984               0.000476696              -0.000453715               0.999999984               0.000471501              -0.000453589               0.999999984               0.000471847              -0.000466015               0.999999984               0.000475317              -0.000484218               0.999999984               0.000480008              -0.000504205               0.999999984               0.000484796              -0.000523785               0.999999984               0.000488819              -0.000541711               0.999999984               0.000491552              -0.000557188               0.999999984               0.000492648              -0.000569973               0.999999984               0.000492015              -0.000579827               0.999999984               0.000489617              -0.000586538               0.999999984               0.000485470              -0.000589954               0.999999984               0.000479403              -0.000589861               0.999999984               0.000471532              -0.000586253               0.999999984               0.000462178              -0.000579543               0.999999984               0.000480476              -0.000676754               0.999999984               0.000435121              -0.000573410               0.999999984               0.000415233              -0.000546337               0.999999984               0.000409141              -0.000549710               0.999999984               0.000409958              -0.000566481               0.999999984               0.000413703              -0.000588964               0.999999984               0.000418010              -0.000612790               0.999999984               0.000421473              -0.000635561               0.999999984               0.000423211              -0.000656053               0.999999984               0.000422693              -0.000673585               0.999999984               0.000419738              -0.000688050               0.999999984               0.000414286              -0.000699576               0.999999984               0.000406317              -0.000708032               0.999999984               0.000395925              -0.000713271               0.999999984               0.000383322              -0.000715161               0.999999984               0.000368871              -0.000714242               0.999999984               0.000353153              -0.000711399               0.999999984               0.000443196              -0.000772517               0.999999984               0.000377201              -0.000663675               0.999999984               0.000354019              -0.000638619               0.999999984               0.000349160              -0.000645723               0.999999984               0.000351526              -0.000666455               0.999999984               0.000356165              -0.000692584               0.999999984               0.000360144              -0.000719524               0.999999984               0.000361987              -0.000744794               0.999999984               0.000360886              -0.000767221               0.999999984               0.000356408              -0.000786336               0.999999984               0.000348488              -0.000802185               0.999999984               0.000337263              -0.000815013               0.999999984               0.000322965              -0.000824741               0.999999984               0.000305824              -0.000831436               0.999999984               0.000286323              -0.000835410               0.999999984               0.000265283              -0.000837491               0.999999984               0.000243343              -0.000838439               0.999999984               0.000402925              -0.000859847               0.999999984               0.000318599              -0.000752030               0.999999984               0.000296249              -0.000729422               0.999999984               0.000294145              -0.000739758               0.999999984               0.000298716              -0.000763886               0.999999984               0.000304228              -0.000793148               0.999999984               0.000307550              -0.000822493               0.999999984               0.000307134              -0.000849664               0.999999984               0.000302281              -0.000873533               0.999999984               0.000292855              -0.000893821               0.999999984               0.000279031              -0.000910686               0.999999984               0.000261262              -0.000924425               0.999999984               0.000239813              -0.000935160               0.999999984               0.000215289              -0.000943304               0.999999984               0.000189018              -0.000949663               0.999999984               0.000161965              -0.000955021               0.999999984               0.000134629              -0.000959753               0.999999984               0.000361628              -0.000942005               0.999999984               0.000270153              -0.000849042               0.999999984               0.000244811              -0.000821758               0.999999984               0.000241468              -0.000826125               0.999999984               0.000245585              -0.000845422               0.999999984               0.000251360              -0.000871495               0.999999984               0.000255577              -0.000899724               0.999999984               0.000256500              -0.000927232               0.999999984               0.000253341              -0.000952610               0.999999984               0.000245863              -0.000975298               0.999999984               0.000234061              -0.000995104               0.999999984               0.000218186              -0.001012281               0.999999984               0.000198441              -0.001026849               0.999999984               0.000174804              -0.001039177               0.999999984               0.000148352              -0.001049670               0.999999984               0.000120633              -0.001059096               0.999999984               0.000092568              -0.001067801               0.999999984               0.000316434              -0.001016396               0.999999984               0.000224674              -0.000942383               0.999999984               0.000196346              -0.000915903               0.999999984               0.000190982              -0.000916282               0.999999984               0.000193914              -0.000931743               0.999999984               0.000199208              -0.000955065               0.999999984               0.000203717              -0.000982054               0.999999984               0.000205504              -0.001009836               0.999999984               0.000203820              -0.001036662               0.999999984               0.000198106              -0.001061692               0.999999984               0.000188254              -0.001084525               0.999999984               0.000174198              -0.001104985               0.999999984               0.000156005              -0.001123177               0.999999984               0.000133532              -0.001139250               0.999999984               0.000107193              -0.001153485               0.999999984               0.000078065              -0.001166542               0.999999984               0.000047682              -0.001178935               0.999999984               0.000268289              -0.001081448               0.999999984               0.000182055              -0.001029320               0.999999984               0.000152253              -0.001007602               0.999999984               0.000144633              -0.001007011               0.999999984               0.000145858              -0.001019955               0.999999984               0.000150080              -0.001041193               0.999999984               0.000154200              -0.001067235               0.999999984               0.000156349              -0.001095330               0.999999984               0.000155662              -0.001123750               0.999999984               0.000151501              -0.001151246               0.999999984               0.000143592              -0.001177290               0.999999984               0.000131538              -0.001201367               0.999999984               0.000115011              -0.001223462               0.999999984               0.000093868              -0.001243533               0.999999984               0.000068035              -0.001261789               0.999999984               0.000037795              -0.001278547               0.999999984               0.000004183              -0.001294448               0.999999984               0.000217741              -0.001136054               0.999999984               0.000142200              -0.001106356               0.999999984               0.000113231              -0.001092360               0.999999984               0.000104061              -0.001093407               0.999999984               0.000103406              -0.001105828               0.999999984               0.000106179              -0.001126031               0.999999984               0.000109517              -0.001151420               0.999999984               0.000111512              -0.001179870               0.999999984               0.000111410              -0.001209782               0.999999984               0.000108534              -0.001239858               0.999999984               0.000102407              -0.001269321               0.999999984               0.000092468              -0.001297507               0.999999984               0.000078133              -0.001324083               0.999999984               0.000058877              -0.001348799               0.999999984               0.000034253              -0.001371803               0.999999984               0.000004127              -0.001393091               0.999999984              -0.000031791              -0.001413098               0.999999984               0.000165208              -0.001179496               0.999999984               0.000104636              -0.001170223               0.999999984               0.000079342              -0.001165312               0.999999984               0.000070076              -0.001169774               0.999999984               0.000068116              -0.001183147               0.999999984               0.000069413              -0.001203658               0.999999984               0.000071599              -0.001229183               0.999999984               0.000073171              -0.001258173               0.999999984               0.000073266              -0.001289420               0.999999984               0.000071314              -0.001321811               0.999999984               0.000066906              -0.001354514               0.999999984               0.000059230              -0.001386747               0.999999984               0.000047692              -0.001418069               0.999999984               0.000031477              -0.001448008               0.999999984               0.000009879              -0.001476330               0.999999984              -0.000017726              -0.001502877               0.999999984              -0.000052687              -0.001527799               0.999999984               0.000111078              -0.001211162               0.999999984               0.000068813              -0.001218144               0.999999984               0.000050011              -0.001221614               0.999999984               0.000042360              -0.001230277               0.999999984               0.000040093              -0.001245493               0.999999984               0.000040406              -0.001266816               0.999999984               0.000041605              -0.001293047               0.999999984               0.000042559              -0.001322947               0.999999984               0.000042521              -0.001355477               0.999999984               0.000041261              -0.001389753               0.999999984               0.000038331              -0.001425124               0.999999984               0.000033160              -0.001460819               0.999999984               0.000024952              -0.001496241               0.999999984               0.000013149              -0.001530918               0.999999984              -0.000002848              -0.001564375               0.999999984              -0.000024252              -0.001596216               0.999999984              -0.000052740              -0.001626212               0.999999984               0.000055835              -0.001230372               0.999999984               0.000034142              -0.001247892               0.999999984               0.000024088              -0.001257289               0.999999984               0.000019740              -0.001269132               0.999999984               0.000018289              -0.001286124               0.999999984               0.000018235              -0.001308496               0.999999984               0.000018706              -0.001335423               0.999999984               0.000019130              -0.001366139               0.999999984               0.000019056              -0.001399689               0.999999984               0.000018372              -0.001435240               0.999999984               0.000016891              -0.001472256               0.999999984               0.000014261              -0.001510181               0.999999984               0.000009976              -0.001548408               0.999999984               0.000003764              -0.001586328               0.999999984              -0.000004685              -0.001623477               0.999999984              -0.000016357              -0.001659342               0.999999984              -0.000032503              -0.001693312               0.999999984              -0.000000000              -0.001236818               0.999999984              -0.000000000              -0.001257995               0.999999984               0.000000000              -0.001269578               0.999999984               0.000000000              -0.001282642               0.999999984              -0.000000000              -0.001300240               0.999999984              -0.000000000              -0.001323033               0.999999984              -0.000000000              -0.001350366               0.999999984               0.000000000              -0.001381378               0.999999984              -0.000000000              -0.001415263               0.999999984              -0.000000000              -0.001451354               0.999999984               0.000000000              -0.001489007               0.999999984               0.000000000              -0.001527667               0.999999984               0.000000000              -0.001566814               0.999999984              -0.000000000              -0.001605895               0.999999984               0.000000000              -0.001644421               0.999999984              -0.000000000              -0.001681795               0.999999984              -0.000000000              -0.001717289               0.999999984               0.000592401               0.000000000               0.999999984               0.000638792              -0.000000000               0.999999984               0.000659161              -0.000000000               0.999999984               0.000670583               0.000000000               0.999999984               0.000679536               0.000000000               0.999999984               0.000688574               0.000000000               0.999999984               0.000698555              -0.000000000               0.999999984               0.000709617              -0.000000000               0.999999984               0.000721742               0.000000000               0.999999984               0.000734879              -0.000000000               0.999999984               0.000748839              -0.000000000               0.999999984               0.000763340               0.000000000               0.999999984               0.000778280               0.000000000               0.999999984               0.000793168               0.000000000               0.999999984               0.000807577               0.000000000               0.999999984               0.000821123               0.000000000               0.999999984               0.000833233               0.000000000               0.999999984               0.000589096               0.000119457               0.999999984               0.000632223               0.000098308               0.999999984               0.000650600               0.000089570               0.999999984               0.000660741               0.000087128               0.999999984               0.000668822               0.000088103               0.999999984               0.000677202               0.000090775               0.999999984               0.000686626               0.000094099               0.999999984               0.000697248               0.000097718               0.999999984               0.000708980               0.000101375               0.999999984               0.000721549               0.000104599               0.999999984               0.000734751               0.000107151               0.999999984               0.000748362               0.000108914               0.999999984               0.000762101               0.000109637               0.999999984               0.000775628               0.000108810               0.999999984               0.000788608               0.000106007               0.999999984               0.000800716               0.000100688               0.999999984               0.000811487               0.000091762               0.999999984               0.000579352               0.000237753               0.999999984               0.000612874               0.000195981               0.999999984               0.000625384               0.000179473               0.999999984               0.000631979               0.000175421               0.999999984               0.000637940               0.000177972               0.999999984               0.000644897               0.000183733               0.999999984               0.000653215               0.000190772               0.999999984               0.000662694               0.000198055               0.999999984               0.000672961               0.000205289               0.999999984               0.000683683               0.000211679               0.999999984               0.000694612               0.000216950               0.999999984               0.000705482               0.000220745               0.999999984               0.000715991               0.000222478               0.999999984               0.000725899               0.000221639               0.999999984               0.000734978               0.000217596               0.999999984               0.000743128               0.000209559               0.999999984               0.000750270               0.000196028               0.999999984               0.000563300               0.000353754               0.999999984               0.000581605               0.000292518               0.999999984               0.000585698               0.000270008               0.999999984               0.000587756               0.000265840               0.999999984               0.000591162               0.000270863               0.999999984               0.000596357               0.000280332               0.999999984               0.000603118               0.000291422               0.999999984               0.000610942               0.000302825               0.999999984               0.000619224               0.000313751               0.999999984               0.000627504               0.000323492               0.999999984               0.000635545               0.000331556               0.999999984               0.000642937               0.000337384               0.999999984               0.000649487               0.000340467               0.999999984               0.000655020               0.000340415               0.999999984               0.000659469               0.000336864               0.999999984               0.000662951               0.000329215               0.999999984               0.000665464               0.000316331               0.999999984               0.000541173               0.000466303               0.999999984               0.000539991               0.000387674               0.999999984               0.000534864               0.000361440               0.999999984               0.000532622               0.000358660               0.999999984               0.000533785               0.000367100               0.999999984               0.000537696               0.000380805               0.999999984               0.000543234               0.000396363               0.999999984               0.000549476               0.000411976               0.999999984               0.000555701               0.000426543               0.999999984               0.000561388               0.000439448               0.999999984               0.000566089               0.000450063               0.999999984               0.000569615               0.000458049               0.999999984               0.000571847               0.000462868               0.999999984               0.000572861               0.000464327               0.999999984               0.000572554               0.000462334               0.999999984               0.000570810               0.000456463               0.999999984               0.000567740               0.000446412               0.999999984               0.000513390               0.000574309               0.999999984               0.000490307               0.000481324               0.999999984               0.000476696               0.000453715               0.999999984               0.000471501               0.000453589               0.999999984               0.000471847               0.000466015               0.999999984               0.000475317               0.000484218               0.999999984               0.000480008               0.000504205               0.999999984               0.000484796               0.000523785               0.999999984               0.000488819               0.000541711               0.999999984               0.000491552               0.000557188               0.999999984               0.000492648               0.000569973               0.999999984               0.000492015               0.000579827               0.999999984               0.000489617               0.000586538               0.999999984               0.000485470               0.000589954               0.999999984               0.000479403               0.000589861               0.999999984               0.000471532               0.000586253               0.999999984               0.000462178               0.000579543               0.999999984               0.000480476               0.000676754               0.999999984               0.000435121               0.000573410               0.999999984               0.000415233               0.000546337               0.999999984               0.000409141               0.000549710               0.999999984               0.000409958               0.000566481               0.999999984               0.000413703               0.000588964               0.999999984               0.000418010               0.000612790               0.999999984               0.000421473               0.000635561               0.999999984               0.000423211               0.000656053               0.999999984               0.000422693               0.000673585               0.999999984               0.000419738               0.000688050               0.999999984               0.000414286               0.000699576               0.999999984               0.000406317               0.000708032               0.999999984               0.000395925               0.000713271               0.999999984               0.000383322               0.000715161               0.999999984               0.000368871               0.000714242               0.999999984               0.000353153               0.000711399               0.999999984               0.000443196               0.000772517               0.999999984               0.000377201               0.000663675               0.999999984               0.000354019               0.000638619               0.999999984               0.000349160               0.000645723               0.999999984               0.000351526               0.000666455               0.999999984               0.000356165               0.000692584               0.999999984               0.000360144               0.000719524               0.999999984               0.000361987               0.000744794               0.999999984               0.000360886               0.000767221               0.999999984               0.000356408               0.000786336               0.999999984               0.000348488               0.000802185               0.999999984               0.000337263               0.000815013               0.999999984               0.000322965               0.000824741               0.999999984               0.000305824               0.000831436               0.999999984               0.000286323               0.000835410               0.999999984               0.000265283               0.000837491               0.999999984               0.000243343               0.000838439               0.999999984               0.000402925               0.000859847               0.999999984               0.000318599               0.000752030               0.999999984               0.000296249               0.000729422               0.999999984               0.000294145               0.000739758               0.999999984               0.000298716               0.000763886               0.999999984               0.000304228               0.000793148               0.999999984               0.000307550               0.000822493               0.999999984               0.000307134               0.000849664               0.999999984               0.000302281               0.000873533               0.999999984               0.000292855               0.000893821               0.999999984               0.000279031               0.000910686               0.999999984               0.000261262               0.000924425               0.999999984               0.000239813               0.000935160               0.999999984               0.000215289               0.000943304               0.999999984               0.000189018               0.000949663               0.999999984               0.000161965               0.000955021               0.999999984               0.000134629               0.000959753               0.999999984               0.000361628               0.000942005               0.999999984               0.000270153               0.000849042               0.999999984               0.000244811               0.000821758               0.999999984               0.000241468               0.000826125               0.999999984               0.000245585               0.000845422               0.999999984               0.000251360               0.000871495               0.999999984               0.000255577               0.000899724               0.999999984               0.000256500               0.000927232               0.999999984               0.000253341               0.000952610               0.999999984               0.000245863               0.000975298               0.999999984               0.000234061               0.000995104               0.999999984               0.000218186               0.001012281               0.999999984               0.000198441               0.001026849               0.999999984               0.000174804               0.001039177               0.999999984               0.000148352               0.001049670               0.999999984               0.000120633               0.001059096               0.999999984               0.000092568               0.001067801               0.999999984               0.000316434               0.001016396               0.999999984               0.000224674               0.000942383               0.999999984               0.000196346               0.000915903               0.999999984               0.000190982               0.000916282               0.999999984               0.000193914               0.000931743               0.999999984               0.000199208               0.000955065               0.999999984               0.000203717               0.000982054               0.999999984               0.000205504               0.001009836               0.999999984               0.000203820               0.001036662               0.999999984               0.000198106               0.001061692               0.999999984               0.000188254               0.001084525               0.999999984               0.000174198               0.001104985               0.999999984               0.000156005               0.001123177               0.999999984               0.000133532               0.001139250               0.999999984               0.000107193               0.001153485               0.999999984               0.000078065               0.001166542               0.999999984               0.000047682               0.001178935               0.999999984               0.000268289               0.001081448               0.999999984               0.000182055               0.001029320               0.999999984               0.000152253               0.001007602               0.999999984               0.000144633               0.001007011               0.999999984               0.000145858               0.001019955               0.999999984               0.000150080               0.001041193               0.999999984               0.000154200               0.001067235               0.999999984               0.000156349               0.001095330               0.999999984               0.000155662               0.001123750               0.999999984               0.000151501               0.001151246               0.999999984               0.000143592               0.001177290               0.999999984               0.000131538               0.001201367               0.999999984               0.000115011               0.001223462               0.999999984               0.000093868               0.001243533               0.999999984               0.000068035               0.001261789               0.999999984               0.000037795               0.001278547               0.999999984               0.000004183               0.001294448               0.999999984               0.000217741               0.001136054               0.999999984               0.000142200               0.001106356               0.999999984               0.000113231               0.001092360               0.999999984               0.000104061               0.001093407               0.999999984               0.000103406               0.001105828               0.999999984               0.000106179               0.001126031               0.999999984               0.000109517               0.001151420               0.999999984               0.000111512               0.001179870               0.999999984               0.000111410               0.001209782               0.999999984               0.000108534               0.001239858               0.999999984               0.000102407               0.001269321               0.999999984               0.000092468               0.001297507               0.999999984               0.000078133               0.001324083               0.999999984               0.000058877               0.001348799               0.999999984               0.000034253               0.001371803               0.999999984               0.000004127               0.001393091               0.999999984              -0.000031791               0.001413098               0.999999984               0.000165208               0.001179496               0.999999984               0.000104636               0.001170223               0.999999984               0.000079342               0.001165312               0.999999984               0.000070076               0.001169774               0.999999984               0.000068116               0.001183147               0.999999984               0.000069413               0.001203658               0.999999984               0.000071599               0.001229183               0.999999984               0.000073171               0.001258173               0.999999984               0.000073266               0.001289420               0.999999984               0.000071314               0.001321811               0.999999984               0.000066906               0.001354514               0.999999984               0.000059230               0.001386747               0.999999984               0.000047692               0.001418069               0.999999984               0.000031477               0.001448008               0.999999984               0.000009879               0.001476330               0.999999984              -0.000017726               0.001502877               0.999999984              -0.000052687               0.001527799               0.999999984               0.000111078               0.001211162               0.999999984               0.000068813               0.001218144               0.999999984               0.000050011               0.001221614               0.999999984               0.000042360               0.001230277               0.999999984               0.000040093               0.001245493               0.999999984               0.000040406               0.001266816               0.999999984               0.000041605               0.001293047               0.999999984               0.000042559               0.001322947               0.999999984               0.000042521               0.001355477               0.999999984               0.000041261               0.001389753               0.999999984               0.000038331               0.001425124               0.999999984               0.000033160               0.001460819               0.999999984               0.000024952               0.001496241               0.999999984               0.000013149               0.001530918               0.999999984              -0.000002848               0.001564375               0.999999984              -0.000024252               0.001596216               0.999999984              -0.000052740               0.001626212               0.999999984               0.000055835               0.001230372               0.999999984               0.000034142               0.001247892               0.999999984               0.000024088               0.001257289               0.999999984               0.000019740               0.001269132               0.999999984               0.000018289               0.001286124               0.999999984               0.000018235               0.001308496               0.999999984               0.000018706               0.001335423               0.999999984               0.000019130               0.001366139               0.999999984               0.000019056               0.001399689               0.999999984               0.000018372               0.001435240               0.999999984               0.000016891               0.001472256               0.999999984               0.000014261               0.001510181               0.999999984               0.000009976               0.001548408               0.999999984               0.000003764               0.001586328               0.999999984              -0.000004685               0.001623477               0.999999984              -0.000016357               0.001659342               0.999999984              -0.000032503               0.001693312               0.999999984               0.000000000               0.001236818               0.999999984               0.000000000               0.001257995               0.999999984               0.000000000               0.001269578               0.999999984              -0.000000000               0.001282642               0.999999984               0.000000000               0.001300240               0.999999984              -0.000000000               0.001323033               0.999999984              -0.000000000               0.001350366               0.999999984               0.000000000               0.001381378               0.999999984               0.000000000               0.001415263               0.999999984              -0.000000000               0.001451354               0.999999984              -0.000000000               0.001489007               0.999999984              -0.000000000               0.001527667               0.999999984               0.000000000               0.001566814               0.999999984              -0.000000000               0.001605895               0.999999984              -0.000000000               0.001644421               0.999999984               0.000000000               0.001681795               0.999999984              -0.000000000               0.001717289               0.999999984 </DataArray>
<DataArray type="Float64"                                    Name="stress"                                                      NumberOfComponents="10" format="ascii">
              0.002009524               0.021900316               0.000000000              -0.001983963               0.007961353               0.005977390               0.000000000               0.000000000               0.000000000               0.000000000               0.002017439               0.017220150              -0.000000000              -0.001395976               0.006205318               0.004809342               0.000000000               0.000000000               0.000000000               0.000000000               0.002674059               0.013442091              -0.000000000              -0.000677488               0.004706481               0.004028994               0.000000000               0.000000000               0.000000000               0.000000000               0.002591083               0.011334067               0.000000000              -0.000445101               0.003926352               0.003481250               0.000000000               0.000000000               0.000000000               0.000000000               0.002278501               0.010031560               0.000000000              -0.000399506               0.003476989               0.003077482               0.000000000               0.000000000               0.000000000               0.000000000               0.001916414               0.009140385               0.000000000              -0.000423892               0.003188062               0.002764170               0.000000000               0.000000000               0.000000000               0.000000000               0.001573777               0.008470546               0.000000000              -0.000468651               0.002979704               0.002511053               0.000000000               0.000000000               0.000000000               0.000000000               0.001270748               0.007936697              -0.000000000              -0.000515555               0.002817391               0.002301836               0.000000000               0.000000000               0.000000000               0.000000000               0.001004828               0.007486048              -0.000000000              -0.000558944               0.002681639               0.002122695               0.000000000               0.000000000               0.000000000               0.000000000               0.000769871               0.007074597              -0.000000000              -0.000595622               0.002556716               0.001961094               0.000000000               0.000000000               0.000000000               0.000000000               0.000566798               0.006681094              -0.000000000              -0.000622586               0.002434538               0.001811952               0.000000000               0.000000000               0.000000000               0.000000000               0.000389407               0.006292977               0.000000000              -0.000640593               0.002311169               0.001670576               0.000000000               0.000000000               0.000000000               0.000000000               0.000244646               0.005898694               0.000000000              -0.000645593               0.002181409               0.001535816               0.000000000               0.000000000               0.000000000               0.000000000               0.000140347               0.005481160               0.000000000              -0.000632513               0.002037873               0.001405360               0.000000000               0.000000000               0.000000000               0.000000000               0.000065886               0.005021162              -0.000000000              -0.000602937               0.001874683               0.001271746               0.000000000               0.000000000               0.000000000               0.000000000               0.000023690               0.004500212               0.000000000              -0.000553641               0.001684603               0.001130962               0.000000000               0.000000000               0.000000000               0.000000000              -0.000030136               0.004099751               0.000000000              -0.000523769               0.001541160               0.001017391               0.000000000               0.000000000               0.000000000               0.000000000               0.002084575               0.021458734              -0.001506981              -0.001900622               0.007786380               0.005885759               0.000000000               0.000000000               0.000000000               0.000000000               0.001982284               0.016931198              -0.000768644              -0.001373040               0.006101356               0.004728316               0.000000000               0.000000000               0.000000000               0.000000000               0.002523260               0.013314931              -0.000031547              -0.000718142               0.004677647               0.003959505               0.000000000               0.000000000               0.000000000               0.000000000               0.002397078               0.011291945               0.000283572              -0.000512588               0.003934807               0.003422219               0.000000000               0.000000000               0.000000000               0.000000000               0.002075214               0.010033334               0.000411753              -0.000475960               0.003503065               0.003027104               0.000000000               0.000000000               0.000000000               0.000000000               0.001720622               0.009165582               0.000450219              -0.000500463               0.003221985               0.002721521               0.000000000               0.000000000               0.000000000               0.000000000               0.001390805               0.008508849               0.000450326              -0.000542053               0.003016939               0.002474886               0.000000000               0.000000000               0.000000000               0.000000000               0.001100797               0.007975312               0.000438925              -0.000584114               0.002853115               0.002269001               0.000000000               0.000000000               0.000000000               0.000000000               0.000854607               0.007522093               0.000419825              -0.000619783               0.002713933               0.002094151               0.000000000               0.000000000               0.000000000               0.000000000               0.000644418               0.007111621               0.000396137              -0.000647294               0.002586281               0.001938987               0.000000000               0.000000000               0.000000000               0.000000000               0.000464172               0.006724536               0.000373827              -0.000666501               0.002463656               0.001797156               0.000000000               0.000000000               0.000000000               0.000000000               0.000312510               0.006347003               0.000350621              -0.000676182               0.002341041               0.001664858               0.000000000               0.000000000               0.000000000               0.000000000               0.000191735               0.005965601               0.000320397              -0.000673798               0.002213113               0.001539315               0.000000000               0.000000000               0.000000000               0.000000000               0.000103849               0.005570038               0.000278008              -0.000657310               0.002075764               0.001418454               0.000000000               0.000000000               0.000000000               0.000000000               0.000042646               0.005147471               0.000219648              -0.000627440               0.001924953               0.001297513               0.000000000               0.000000000               0.000000000               0.000000000               0.000010082               0.004684559               0.000130167              -0.000581788               0.001755433               0.001173646               0.000000000               0.000000000               0.000000000               0.000000000              -0.000033805               0.004338244               0.000081153              -0.000554956               0.001631052               0.001076096               0.000000000               0.000000000               0.000000000               0.000000000               0.002275375               0.020195745              -0.002807260              -0.001671199               0.007288914               0.005617714               0.000000000               0.000000000               0.000000000               0.000000000               0.001872806               0.016112693              -0.001429455              -0.001311782               0.005808104               0.004496323               0.000000000               0.000000000               0.000000000               0.000000000               0.002095013               0.012959475              -0.000066615              -0.000834303               0.004597883               0.003763580               0.000000000               0.000000000               0.000000000               0.000000000               0.001851153               0.011172408               0.000493519              -0.000702367               0.003958221               0.003255854               0.000000000               0.000000000               0.000000000               0.000000000               0.001506606               0.010029112               0.000712056              -0.000688660               0.003572557               0.002883897               0.000000000               0.000000000               0.000000000               0.000000000               0.001176218               0.009220322               0.000773961              -0.000711457               0.003310562               0.002599105               0.000000000               0.000000000               0.000000000               0.000000000               0.000891913               0.008596119               0.000768267              -0.000740046               0.003112026               0.002371981               0.000000000               0.000000000               0.000000000               0.000000000               0.000662940               0.008082353               0.000743439              -0.000761690               0.002947987               0.002186297               0.000000000               0.000000000               0.000000000               0.000000000               0.000482498               0.007636692               0.000709956              -0.000773648               0.002803421               0.002029773               0.000000000               0.000000000               0.000000000               0.000000000               0.000336554               0.007234339               0.000669408              -0.000778083               0.002670783               0.001892700               0.000000000               0.000000000               0.000000000               0.000000000               0.000218658               0.006859093               0.000628057              -0.000775388               0.002544804               0.001769416               0.000000000               0.000000000               0.000000000               0.000000000               0.000127771               0.006496634               0.000580790              -0.000764163               0.002420244               0.001656081               0.000000000               0.000000000               0.000000000               0.000000000               0.000061709               0.006139972               0.000522091              -0.000744354               0.002294755               0.001550401               0.000000000               0.000000000               0.000000000               0.000000000               0.000020054               0.005791094               0.000447358              -0.000716365               0.002169133               0.001452769               0.000000000               0.000000000               0.000000000               0.000000000              -0.000002933               0.005449847               0.000347679              -0.000682329               0.002044041               0.001361711               0.000000000               0.000000000               0.000000000               0.000000000              -0.000009769               0.005114858               0.000201093              -0.000643019               0.001919275               0.001276256               0.000000000               0.000000000               0.000000000               0.000000000              -0.000030520               0.004888285               0.000120357              -0.000622479               0.001836905               0.001214426               0.000000000               0.000000000               0.000000000               0.000000000               0.002478739               0.018272952              -0.003737816              -0.001354591               0.006542453               0.005187862               0.000000000               0.000000000               0.000000000               0.000000000               0.001653679               0.014887066              -0.001910643              -0.001240751               0.005375889               0.004135138               0.000000000               0.000000000               0.000000000               0.000000000               0.001429364               0.012432805              -0.000130151              -0.001018087               0.004483589               0.003465502               0.000000000               0.000000000               0.000000000               0.000000000               0.001052081               0.010979472               0.000563228              -0.000977901               0.003985754               0.003007853               0.000000000               0.000000000               0.000000000               0.000000000               0.000709613               0.009996593               0.000823045              -0.000983467               0.003659987               0.002676520               0.000000000               0.000000000               0.000000000               0.000000000               0.000442532               0.009269743               0.000891112              -0.000992766               0.003420805               0.002428039               0.000000000               0.000000000               0.000000000               0.000000000               0.000243163               0.008691384               0.000878761              -0.000995235               0.003228844               0.002233609               0.000000000               0.000000000               0.000000000               0.000000000               0.000105274               0.008205217               0.000841072              -0.000986172               0.003063769               0.002077597               0.000000000               0.000000000               0.000000000               0.000000000               0.000014075               0.007771298               0.000793845              -0.000966132               0.002912451               0.001946319               0.000000000               0.000000000               0.000000000               0.000000000              -0.000048596               0.007375246               0.000740343              -0.000940127               0.002771766               0.001831639               0.000000000               0.000000000               0.000000000               0.000000000              -0.000088507               0.007004714               0.000683195              -0.000908777               0.002637807               0.001729030               0.000000000               0.000000000               0.000000000               0.000000000              -0.000106424               0.006655754               0.000617253              -0.000871876               0.002509188               0.001637312               0.000000000               0.000000000               0.000000000               0.000000000              -0.000109217               0.006326736               0.000540007              -0.000831797               0.002386156               0.001554360               0.000000000               0.000000000               0.000000000               0.000000000              -0.000095669               0.006024071               0.000449663              -0.000788883               0.002270965               0.001482082               0.000000000               0.000000000               0.000000000               0.000000000              -0.000072229               0.005753885               0.000337845              -0.000746320               0.002166716               0.001420396               0.000000000               0.000000000               0.000000000               0.000000000              -0.000041556               0.005523269               0.000187413              -0.000705990               0.002076401               0.001370411               0.000000000               0.000000000               0.000000000               0.000000000              -0.000035731               0.005391099               0.000107196              -0.000687285               0.002026110               0.001338825               0.000000000               0.000000000               0.000000000               0.000000000               0.002561945               0.015915524              -0.004223638              -0.001028712               0.005648025               0.004619313               0.000000000               0.000000000               0.000000000               0.000000000               0.001294700               0.013414052              -0.002194482              -0.001191242               0.004868387               0.003677144               0.000000000               0.000000000               0.000000000               0.000000000               0.000602459               0.011799224              -0.000246242              -0.001248978               0.004349361               0.003100383               0.000000000               0.000000000               0.000000000               0.000000000               0.000141939               0.010714910               0.000468255              -0.001286133               0.004000312               0.002714179               0.000000000               0.000000000               0.000000000               0.000000000              -0.000145467               0.009904486               0.000722887              -0.001292608               0.003732331               0.002439724               0.000000000               0.000000000               0.000000000               0.000000000              -0.000310781               0.009263767               0.000785596              -0.001274511               0.003512728               0.002238218               0.000000000               0.000000000               0.000000000               0.000000000              -0.000393486               0.008730162               0.000769203              -0.001238825               0.003322966               0.002084142               0.000000000               0.000000000               0.000000000               0.000000000              -0.000424677               0.008259557               0.000726066              -0.001191696               0.003150390               0.001958694               0.000000000               0.000000000               0.000000000               0.000000000              -0.000423001               0.007827146               0.000675787              -0.001137016               0.002988028               0.001851012               0.000000000               0.000000000               0.000000000               0.000000000              -0.000399450               0.007424273               0.000623271              -0.001077825               0.002834008               0.001756183               0.000000000               0.000000000               0.000000000               0.000000000              -0.000362137               0.007052082               0.000568160              -0.001017309               0.002689773               0.001672464               0.000000000               0.000000000               0.000000000               0.000000000              -0.000315989               0.006713721               0.000503807              -0.000957709               0.002557121               0.001599412               0.000000000               0.000000000               0.000000000               0.000000000              -0.000267324               0.006410284               0.000427897              -0.000901530               0.002437250               0.001535720               0.000000000               0.000000000               0.000000000               0.000000000              -0.000211488               0.006144448               0.000344028              -0.000847362               0.002330583               0.001483221               0.000000000               0.000000000               0.000000000               0.000000000              -0.000143246               0.005918236               0.000247832              -0.000793495               0.002237224               0.001443729               0.000000000               0.000000000               0.000000000               0.000000000              -0.000071314               0.005739022               0.000132537              -0.000744118               0.002161028               0.001416909               0.000000000               0.000000000               0.000000000               0.000000000              -0.000047072               0.005644242               0.000076954              -0.000723180               0.002122455               0.001399275               0.000000000               0.000000000               0.000000000               0.000000000               0.002408713               0.013367150              -0.004275187              -0.000767628               0.004711547               0.003943919               0.000000000               0.000000000               0.000000000               0.000000000               0.000795138               0.011851016              -0.002305956              -0.001183199               0.004344698               0.003161499               0.000000000               0.000000000               0.000000000               0.000000000              -0.000280193               0.011108304              -0.000434700              -0.001493607               0.004200600               0.002706993               0.000000000               0.000000000               0.000000000               0.000000000              -0.000744165               0.010380515               0.000213508              -0.001576623               0.003985678               0.002409055               0.000000000               0.000000000               0.000000000               0.000000000              -0.000917325               0.009735192               0.000441014              -0.001560892               0.003765329               0.002204437               0.000000000               0.000000000               0.000000000               0.000000000              -0.000945121               0.009167261               0.000505150              -0.001500324               0.003555831               0.002055507               0.000000000               0.000000000               0.000000000               0.000000000              -0.000901025               0.008654459               0.000499042              -0.001419688               0.003358020               0.001938332               0.000000000               0.000000000               0.000000000               0.000000000              -0.000824750               0.008180308               0.000467820              -0.001331816               0.003170681               0.001838864               0.000000000               0.000000000               0.000000000               0.000000000              -0.000732123               0.007738616               0.000429220              -0.001241870               0.002993470               0.001751600               0.000000000               0.000000000               0.000000000               0.000000000              -0.000634204               0.007327131               0.000392234              -0.001153715               0.002826924               0.001673209               0.000000000               0.000000000               0.000000000               0.000000000              -0.000536038               0.006954053               0.000356827              -0.001070268               0.002674751               0.001604482               0.000000000               0.000000000               0.000000000               0.000000000              -0.000441496               0.006624714               0.000316049              -0.000993648               0.002539432               0.001545784               0.000000000               0.000000000               0.000000000               0.000000000              -0.000351414               0.006340989               0.000266591              -0.000924402               0.002421776               0.001497374               0.000000000               0.000000000               0.000000000               0.000000000              -0.000259061               0.006100253               0.000208532              -0.000859677               0.002319956               0.001460279               0.000000000               0.000000000               0.000000000               0.000000000              -0.000162611               0.005900410               0.000142168              -0.000798528               0.002232960               0.001434432               0.000000000               0.000000000               0.000000000               0.000000000              -0.000074759               0.005750431               0.000071295              -0.000746837               0.002165737               0.001418900               0.000000000               0.000000000               0.000000000               0.000000000              -0.000045321               0.005674165               0.000042031              -0.000726264               0.002133458               0.001407193               0.000000000               0.000000000               0.000000000               0.000000000               0.001960518               0.010837749              -0.003964737              -0.000619527               0.003819055               0.003199528               0.000000000               0.000000000               0.000000000               0.000000000               0.000180871               0.010321122              -0.002294322              -0.001222312               0.003847776               0.002625464               0.000000000               0.000000000               0.000000000               0.000000000              -0.001116412               0.010397022              -0.000701792              -0.001718278               0.004038399               0.002320121               0.000000000               0.000000000               0.000000000               0.000000000              -0.001486201               0.009979814              -0.000158245              -0.001804798               0.003928171               0.002123373               0.000000000               0.000000000               0.000000000               0.000000000              -0.001508899               0.009464897               0.000050325              -0.001748945               0.003737916               0.001988971               0.000000000               0.000000000               0.000000000               0.000000000              -0.001396081               0.008942160               0.000128749              -0.001641296               0.003527789               0.001886493               0.000000000               0.000000000               0.000000000               0.000000000              -0.001234595               0.008434565               0.000148184              -0.001517290               0.003317257               0.001799967               0.000000000               0.000000000               0.000000000               0.000000000              -0.001062938               0.007952301               0.000146033              -0.001392636               0.003114952               0.001722316               0.000000000               0.000000000               0.000000000               0.000000000              -0.000891786               0.007504437               0.000137459              -0.001272471               0.002925611               0.001653140               0.000000000               0.000000000               0.000000000               0.000000000              -0.000731248               0.007097180               0.000130606              -0.001161363               0.002752824               0.001591461               0.000000000               0.000000000               0.000000000               0.000000000              -0.000586807               0.006733764               0.000129777              -0.001061770               0.002598489               0.001536719               0.000000000               0.000000000               0.000000000               0.000000000              -0.000454880               0.006417357               0.000127046              -0.000972747               0.002463347               0.001490600               0.000000000               0.000000000               0.000000000               0.000000000              -0.000333455               0.006145030               0.000114555              -0.000893172               0.002346047               0.001452875               0.000000000               0.000000000               0.000000000               0.000000000              -0.000223838               0.005915503               0.000089548              -0.000823375               0.002246273               0.001422898               0.000000000               0.000000000               0.000000000               0.000000000              -0.000128489               0.005733915               0.000057053              -0.000764921               0.002166260               0.001401339               0.000000000               0.000000000               0.000000000               0.000000000              -0.000054624               0.005605735               0.000027409              -0.000721199               0.002108959               0.001387760               0.000000000               0.000000000               0.000000000               0.000000000              -0.000033779               0.005541303               0.000019845              -0.000705328               0.002082192               0.001376864               0.000000000               0.000000000               0.000000000               0.000000000               0.001248344               0.008484054              -0.003384953              -0.000592380               0.003025448               0.002433069               0.000000000               0.000000000               0.000000000               0.000000000              -0.000503703               0.008917092              -0.002204674              -0.001303523               0.003406842               0.002103318               0.000000000               0.000000000               0.000000000               0.000000000              -0.001818022               0.009681071              -0.001035770              -0.001891888               0.003857620               0.001965733               0.000000000               0.000000000               0.000000000               0.000000000              -0.002015875               0.009498580              -0.000590576              -0.001943271               0.003813919               0.001870648               0.000000000               0.000000000               0.000000000               0.000000000              -0.001881929               0.009076125              -0.000378895              -0.001840234               0.003638756               0.001798522               0.000000000               0.000000000               0.000000000               0.000000000              -0.001643857               0.008590417              -0.000268660              -0.001690244               0.003426858               0.001736614               0.000000000               0.000000000               0.000000000               0.000000000              -0.001382106               0.008094038              -0.000206982              -0.001530041               0.003207999               0.001677958               0.000000000               0.000000000               0.000000000               0.000000000              -0.001134262               0.007617879              -0.000165635              -0.001377580               0.002998461               0.001620881               0.000000000               0.000000000               0.000000000               0.000000000              -0.000907766               0.007177877              -0.000130572              -0.001237644               0.002805150               0.001567506               0.000000000               0.000000000               0.000000000               0.000000000              -0.000705545               0.006783512              -0.000095382              -0.001112515               0.002631987               0.001519471               0.000000000               0.000000000               0.000000000               0.000000000              -0.000532930               0.006434388              -0.000056716              -0.001004145               0.002479489               0.001475345               0.000000000               0.000000000               0.000000000               0.000000000              -0.000385443               0.006127212              -0.000022724              -0.000910441               0.002345864               0.001435423               0.000000000               0.000000000               0.000000000               0.000000000              -0.000257707               0.005862372              -0.000000486              -0.000829435               0.002230583               0.001401148               0.000000000               0.000000000               0.000000000               0.000000000              -0.000154810               0.005645169               0.000009276              -0.000763698               0.002136270               0.001372572               0.000000000               0.000000000               0.000000000               0.000000000              -0.000082510               0.005483165               0.000009654              -0.000716335               0.002066482               0.001350147               0.000000000               0.000000000               0.000000000               0.000000000              -0.000036980               0.005372295               0.000007584              -0.000685403               0.002019215               0.001333812               0.000000000               0.000000000               0.000000000               0.000000000              -0.000025420               0.005315346               0.000010813              -0.000673949               0.001996414               0.001322465               0.000000000               0.000000000               0.000000000               0.000000000               0.000384080               0.006483936              -0.002643968              -0.000666463               0.002383444               0.001716981               0.000000000               0.000000000               0.000000000               0.000000000              -0.001159643               0.007666342              -0.002085448              -0.001393157               0.003019807               0.001626650               0.000000000               0.000000000               0.000000000               0.000000000              -0.002342543               0.008967815              -0.001426636              -0.001999426               0.003655717               0.001656291               0.000000000               0.000000000               0.000000000               0.000000000              -0.002359899               0.009011097              -0.001045610              -0.002011344               0.003674117               0.001662773               0.000000000               0.000000000               0.000000000               0.000000000              -0.002099055               0.008704334              -0.000809932              -0.001875183               0.003526477               0.001651294               0.000000000               0.000000000               0.000000000               0.000000000              -0.001770344               0.008279662              -0.000655064              -0.001698832               0.003326137               0.001627305               0.000000000               0.000000000               0.000000000               0.000000000              -0.001437160               0.007822261              -0.000545436              -0.001516714               0.003112966               0.001596252               0.000000000               0.000000000               0.000000000               0.000000000              -0.001132270               0.007372715              -0.000456223              -0.001346187               0.002906276               0.001560089               0.000000000               0.000000000               0.000000000               0.000000000              -0.000864767               0.006951781              -0.000376773              -0.001193257               0.002714989               0.001521732               0.000000000               0.000000000               0.000000000               0.000000000              -0.000633994               0.006572829              -0.000302140              -0.001059349               0.002544037               0.001484689               0.000000000               0.000000000               0.000000000               0.000000000              -0.000442961               0.006235833              -0.000230279              -0.000945587               0.002393786               0.001448199               0.000000000               0.000000000               0.000000000               0.000000000              -0.000288643               0.005934236              -0.000163462              -0.000850019               0.002261398               0.001411380               0.000000000               0.000000000               0.000000000               0.000000000              -0.000170261               0.005668516              -0.000101956              -0.000772410               0.002146957               0.001374546               0.000000000               0.000000000               0.000000000               0.000000000              -0.000103385               0.005449472              -0.000051085              -0.000719951               0.002056456               0.001336505               0.000000000               0.000000000               0.000000000               0.000000000              -0.000081684               0.005286837              -0.000017829              -0.000691484               0.001992756               0.001301272               0.000000000               0.000000000               0.000000000               0.000000000              -0.000077726               0.005174786              -0.000000938              -0.000675994               0.001950243               0.001274249               0.000000000               0.000000000               0.000000000               0.000000000              -0.000077103               0.005120886               0.000005837              -0.000669023               0.001929953               0.001260930               0.000000000               0.000000000               0.000000000               0.000000000              -0.000642934               0.004618886              -0.001847607              -0.000818460               0.001812433               0.000993972               0.000000000               0.000000000               0.000000000               0.000000000              -0.001691269               0.006211912              -0.001948091              -0.001410712               0.002540853               0.001130141               0.000000000               0.000000000               0.000000000               0.000000000              -0.002625526               0.007885860              -0.001842617              -0.001970300               0.003285360               0.001315060               0.000000000               0.000000000               0.000000000               0.000000000              -0.002550416               0.008260353              -0.001532945              -0.001988946               0.003416405               0.001427460               0.000000000               0.000000000               0.000000000               0.000000000              -0.002240627               0.008181926              -0.001270327              -0.001862972               0.003348272               0.001485300               0.000000000               0.000000000               0.000000000               0.000000000              -0.001885121               0.007924781              -0.001065446              -0.001697514               0.003207405               0.001509891               0.000000000               0.000000000               0.000000000               0.000000000              -0.001534563               0.007592501              -0.000903426              -0.001524520               0.003038981               0.001514462               0.000000000               0.000000000               0.000000000               0.000000000              -0.001216744               0.007226936              -0.000768694              -0.001359643               0.002862169               0.001502526               0.000000000               0.000000000               0.000000000               0.000000000              -0.000933564               0.006865849              -0.000652122              -0.001208315               0.002691365               0.001483050               0.000000000               0.000000000               0.000000000               0.000000000              -0.000688368               0.006526095              -0.000545895              -0.001073897               0.002533309               0.001459412               0.000000000               0.000000000               0.000000000               0.000000000              -0.000482436               0.006216093              -0.000445637              -0.000957923               0.002391318               0.001433395               0.000000000               0.000000000               0.000000000               0.000000000              -0.000321871               0.005927436              -0.000346314              -0.000861629               0.002263002               0.001401373               0.000000000               0.000000000               0.000000000               0.000000000              -0.000205231               0.005662136              -0.000241837              -0.000784727               0.002148935               0.001364209               0.000000000               0.000000000               0.000000000               0.000000000              -0.000138370               0.005431106              -0.000142192              -0.000730775               0.002053943               0.001323167               0.000000000               0.000000000               0.000000000               0.000000000              -0.000124748               0.005246265              -0.000067352              -0.000702562               0.001982925               0.001280363               0.000000000               0.000000000               0.000000000               0.000000000              -0.000149487               0.005106620              -0.000020654              -0.000694383               0.001933651               0.001239267               0.000000000               0.000000000               0.000000000               0.000000000              -0.000173014               0.005037867              -0.000000748              -0.000694612               0.001910810               0.001216198               0.000000000               0.000000000               0.000000000               0.000000000              -0.001981808               0.002932710              -0.001051062              -0.001109764               0.001347481               0.000237717               0.000000000               0.000000000               0.000000000               0.000000000              -0.002291661               0.004747861              -0.001738413              -0.001452853               0.002066888               0.000614035               0.000000000               0.000000000               0.000000000               0.000000000              -0.002819285               0.006617706              -0.002166187              -0.001884441               0.002834026               0.000949585               0.000000000               0.000000000               0.000000000               0.000000000              -0.002663779               0.007308901              -0.001993158              -0.001912526               0.003073784               0.001161258               0.000000000               0.000000000               0.000000000               0.000000000              -0.002331168               0.007495767              -0.001732422              -0.001811155               0.003102282               0.001291127               0.000000000               0.000000000               0.000000000               0.000000000              -0.001970337               0.007448333              -0.001493526              -0.001669914               0.003039390               0.001369476               0.000000000               0.000000000               0.000000000               0.000000000              -0.001618184               0.007281037              -0.001288300              -0.001516945               0.002932636               0.001415691               0.000000000               0.000000000               0.000000000               0.000000000              -0.001293804               0.007042241              -0.001116878              -0.001365454               0.002802541               0.001437088               0.000000000               0.000000000               0.000000000               0.000000000              -0.000998259               0.006776644              -0.000971869              -0.001221425               0.002666000               0.001444575               0.000000000               0.000000000               0.000000000               0.000000000              -0.000734928               0.006507440              -0.000841158              -0.001089025               0.002532133               0.001443108               0.000000000               0.000000000               0.000000000               0.000000000              -0.000508197               0.006242821              -0.000718027              -0.000970924               0.002404561               0.001433637               0.000000000               0.000000000               0.000000000               0.000000000              -0.000327719               0.005982292              -0.000591925              -0.000870679               0.002284304               0.001413625               0.000000000               0.000000000               0.000000000               0.000000000              -0.000195494               0.005733212              -0.000456021              -0.000789960               0.002174372               0.001384412               0.000000000               0.000000000               0.000000000               0.000000000              -0.000111488               0.005499364              -0.000314715              -0.000729227               0.002076179               0.001346952               0.000000000               0.000000000               0.000000000               0.000000000              -0.000086161               0.005297060              -0.000184049              -0.000694441               0.001997150               0.001302708               0.000000000               0.000000000               0.000000000               0.000000000              -0.000129455               0.005130239              -0.000077320              -0.000689824               0.001940004               0.001250180               0.000000000               0.000000000               0.000000000               0.000000000              -0.000186412               0.005041569              -0.000024636              -0.000700099               0.001913872               0.001213773               0.000000000               0.000000000               0.000000000               0.000000000              -0.003540885               0.001545866              -0.000320823              -0.001521063               0.001022303              -0.000498760               0.000000000               0.000000000               0.000000000               0.000000000              -0.003016261               0.003363253              -0.001436252              -0.001551501               0.001638239               0.000086738               0.000000000               0.000000000               0.000000000               0.000000000              -0.002958202               0.005193167              -0.002291248              -0.001758468               0.002317193               0.000558725               0.000000000               0.000000000               0.000000000               0.000000000              -0.002654110               0.006102387              -0.002295280              -0.001758086               0.002620136               0.000862050               0.000000000               0.000000000               0.000000000               0.000000000              -0.002290833               0.006531612              -0.002085806              -0.001675511               0.002735685               0.001060175               0.000000000               0.000000000               0.000000000               0.000000000              -0.001926630               0.006705567              -0.001844761              -0.001560679               0.002755393               0.001194714               0.000000000               0.000000000               0.000000000               0.000000000              -0.001579478               0.006725454              -0.001617956              -0.001432983               0.002719456               0.001286473               0.000000000               0.000000000               0.000000000               0.000000000              -0.001258626               0.006643864              -0.001422183              -0.001302465               0.002648754               0.001346289               0.000000000               0.000000000               0.000000000               0.000000000              -0.000962560               0.006502828              -0.001257372              -0.001173811               0.002558858               0.001385047               0.000000000               0.000000000               0.000000000               0.000000000              -0.000689124               0.006331732              -0.001112627              -0.001049886               0.002460518               0.001410632               0.000000000               0.000000000               0.000000000               0.000000000              -0.000444667               0.006141513              -0.000976228              -0.000934437               0.002358629               0.001424192               0.000000000               0.000000000               0.000000000               0.000000000              -0.000237574               0.005938722              -0.000834299              -0.000831429               0.002256697               0.001425268               0.000000000               0.000000000               0.000000000               0.000000000              -0.000075785               0.005731300              -0.000679879              -0.000744830               0.002158691               0.001413861               0.000000000               0.000000000               0.000000000               0.000000000               0.000035905               0.005523668              -0.000511793              -0.000676993               0.002066868               0.001389876               0.000000000               0.000000000               0.000000000               0.000000000               0.000088837               0.005327817              -0.000335511              -0.000632662               0.001986809               0.001354147               0.000000000               0.000000000               0.000000000               0.000000000               0.000067107               0.005152588              -0.000162343              -0.000618907               0.001923814               0.001304908               0.000000000               0.000000000               0.000000000               0.000000000               0.000010367               0.005057637              -0.000070377              -0.000628315               0.001895301               0.001266985               0.000000000               0.000000000               0.000000000               0.000000000              -0.005201896               0.000526936               0.000245623              -0.002016576               0.000847831              -0.001168744               0.000000000               0.000000000               0.000000000               0.000000000              -0.003820342               0.002136971              -0.001083100              -0.001699747               0.001278897              -0.000420850               0.000000000               0.000000000               0.000000000               0.000000000              -0.003071473               0.003733788              -0.002194600              -0.001618523               0.001784090               0.000165567               0.000000000               0.000000000               0.000000000               0.000000000              -0.002542204               0.004744758              -0.002358643              -0.001546419               0.002097042               0.000550623               0.000000000               0.000000000               0.000000000               0.000000000              -0.002117612               0.005366355              -0.002231342              -0.001464896               0.002277065               0.000812169               0.000000000               0.000000000               0.000000000               0.000000000              -0.001750209               0.005737979              -0.002027763              -0.001373573               0.002370498               0.000996924               0.000000000               0.000000000               0.000000000               0.000000000              -0.001415698               0.005941888              -0.001809870              -0.001273620               0.002405149               0.001131529               0.000000000               0.000000000               0.000000000               0.000000000              -0.001104593               0.006030945              -0.001609916              -0.001168088               0.002399657               0.001231569               0.000000000               0.000000000               0.000000000               0.000000000              -0.000815409               0.006036675              -0.001438485              -0.001060361               0.002365658               0.001305297               0.000000000               0.000000000               0.000000000               0.000000000              -0.000541901               0.005988056              -0.001289250              -0.000951718               0.002313238               0.001361520               0.000000000               0.000000000               0.000000000               0.000000000              -0.000285874               0.005899056              -0.001149333              -0.000844583               0.002247860               0.001403277               0.000000000               0.000000000               0.000000000               0.000000000              -0.000054040               0.005778812              -0.001004565              -0.000742615               0.002173790               0.001431175               0.000000000               0.000000000               0.000000000               0.000000000               0.000148240               0.005636170              -0.000846224              -0.000648930               0.002095014               0.001446084               0.000000000               0.000000000               0.000000000               0.000000000               0.000312040               0.005481336              -0.000667718              -0.000568151               0.002016477               0.001448326               0.000000000               0.000000000               0.000000000               0.000000000               0.000427173               0.005319066              -0.000469337              -0.000504692               0.001941235               0.001436543               0.000000000               0.000000000               0.000000000               0.000000000               0.000477842               0.005157182              -0.000247038              -0.000465456               0.001874195               0.001408740               0.000000000               0.000000000               0.000000000               0.000000000               0.000473486               0.005073558              -0.000125451              -0.000456636               0.001843381               0.001386745               0.000000000               0.000000000               0.000000000               0.000000000              -0.006809440              -0.000139308               0.000559479              -0.002536125               0.000798933              -0.001737191               0.000000000               0.000000000               0.000000000               0.000000000              -0.004628857               0.001141062              -0.000735683              -0.001878452               0.001006498              -0.000871954               0.000000000               0.000000000               0.000000000               0.000000000              -0.003175954               0.002382883              -0.001877973              -0.001488841               0.001290565              -0.000198276               0.000000000               0.000000000               0.000000000               0.000000000              -0.002379230               0.003388051              -0.002140056              -0.001315715               0.001567910               0.000252194               0.000000000               0.000000000               0.000000000               0.000000000              -0.001856941               0.004137431              -0.002091989              -0.001213530               0.001783639               0.000570109               0.000000000               0.000000000               0.000000000               0.000000000              -0.001468441               0.004668151              -0.001944511              -0.001134182               0.001934095               0.000799913               0.000000000               0.000000000               0.000000000               0.000000000              -0.001145974               0.005028681              -0.001767923              -0.001058324               0.002028984               0.000970661               0.000000000               0.000000000               0.000000000               0.000000000              -0.000852014               0.005273002              -0.001593675              -0.000978629               0.002083859               0.001105230               0.000000000               0.000000000               0.000000000               0.000000000              -0.000579203               0.005424623              -0.001436263              -0.000895278               0.002106615               0.001211338               0.000000000               0.000000000               0.000000000               0.000000000              -0.000314415               0.005506836              -0.001298524              -0.000806259               0.002104346               0.001298088               0.000000000               0.000000000               0.000000000               0.000000000              -0.000054466               0.005531913              -0.001168631              -0.000711913               0.002081257               0.001369344               0.000000000               0.000000000               0.000000000               0.000000000               0.000199984               0.005511341              -0.001034161              -0.000613923               0.002041736               0.001427813               0.000000000               0.000000000               0.000000000               0.000000000               0.000445266               0.005454533              -0.000887152              -0.000514841               0.001989773               0.001474932               0.000000000               0.000000000               0.000000000               0.000000000               0.000680131               0.005368498              -0.000720764              -0.000416012               0.001928152               0.001512140               0.000000000               0.000000000               0.000000000               0.000000000               0.000898837               0.005259153              -0.000529052              -0.000320330               0.001859810               0.001539480               0.000000000               0.000000000               0.000000000               0.000000000               0.001082973               0.005135428              -0.000291406              -0.000235813               0.001790397               0.001554584               0.000000000               0.000000000               0.000000000               0.000000000               0.001189736               0.005082218              -0.000162213              -0.000189126               0.001757097               0.001567972               0.000000000               0.000000000               0.000000000               0.000000000              -0.008169887              -0.000525192               0.000588252              -0.002998057               0.000824282              -0.002173774               0.000000000               0.000000000               0.000000000               0.000000000              -0.005332293               0.000412910              -0.000437273              -0.002051222               0.000821372              -0.001229850               0.000000000               0.000000000               0.000000000               0.000000000              -0.003266008               0.001290669              -0.001369535              -0.001386085               0.000892244              -0.000493840               0.000000000               0.000000000               0.000000000               0.000000000              -0.002208955               0.002226222              -0.001631321              -0.001106634               0.001110944               0.000004309               0.000000000               0.000000000               0.000000000               0.000000000              -0.001580147               0.003029320              -0.001637766              -0.000971218               0.001333502               0.000362284               0.000000000               0.000000000               0.000000000               0.000000000              -0.001155534               0.003668317              -0.001549231              -0.000891864               0.001520047               0.000628184               0.000000000               0.000000000               0.000000000               0.000000000              -0.000831471               0.004154218              -0.001428018              -0.000831077               0.001661751               0.000830673               0.000000000               0.000000000               0.000000000               0.000000000              -0.000552790               0.004519908              -0.001300666              -0.000772284               0.001764048               0.000991765               0.000000000               0.000000000               0.000000000               0.000000000              -0.000296307               0.004786798              -0.001182280              -0.000709464               0.001832071               0.001122607               0.000000000               0.000000000               0.000000000               0.000000000              -0.000043678               0.004980896              -0.001076589              -0.000638990               0.001873279               0.001234288               0.000000000               0.000000000               0.000000000               0.000000000               0.000213390               0.005112703              -0.000974871              -0.000559066               0.001890572               0.001331507               0.000000000               0.000000000               0.000000000               0.000000000               0.000481577               0.005187465              -0.000867807              -0.000467841               0.001885084               0.001417244               0.000000000               0.000000000               0.000000000               0.000000000               0.000764391               0.005216410              -0.000750976              -0.000365404               0.001860587               0.001495183               0.000000000               0.000000000               0.000000000               0.000000000               0.001069501               0.005207079              -0.000623677              -0.000249822               0.001818949               0.001569128               0.000000000               0.000000000               0.000000000               0.000000000               0.001399237               0.005164041              -0.000470401              -0.000120791               0.001761593               0.001640802               0.000000000               0.000000000               0.000000000               0.000000000               0.001745741               0.005093082              -0.000264201               0.000018017               0.001691671               0.001709688               0.000000000               0.000000000               0.000000000               0.000000000               0.001996741               0.005079354              -0.000154611               0.000113857               0.001655149               0.001769006               0.000000000               0.000000000               0.000000000               0.000000000              -0.009086092              -0.000707375               0.000367916              -0.003318860               0.000870489              -0.002448371               0.000000000               0.000000000               0.000000000               0.000000000              -0.005816185              -0.000025519              -0.000199093              -0.002177878               0.000717448              -0.001460430               0.000000000               0.000000000               0.000000000               0.000000000              -0.003329452               0.000575592              -0.000723057              -0.001320492               0.000632024              -0.000688469               0.000000000               0.000000000               0.000000000               0.000000000              -0.002076659               0.001435632              -0.000884212              -0.000958200               0.000797938              -0.000160262               0.000000000               0.000000000               0.000000000               0.000000000              -0.001363041               0.002256656              -0.000901882              -0.000793221               0.001016618               0.000223397               0.000000000               0.000000000               0.000000000               0.000000000              -0.000908646               0.002952270              -0.000863464              -0.000709775               0.001220671               0.000510897               0.000000000               0.000000000               0.000000000               0.000000000              -0.000581046               0.003511956              -0.000803489              -0.000656885               0.001389602               0.000732717               0.000000000               0.000000000               0.000000000               0.000000000              -0.000308766               0.003955291              -0.000736242              -0.000610198               0.001521816               0.000911619               0.000000000               0.000000000               0.000000000               0.000000000              -0.000058661               0.004295877              -0.000672493              -0.000558981               0.001618272               0.001059290               0.000000000               0.000000000               0.000000000               0.000000000               0.000186497               0.004560319              -0.000615976              -0.000500103               0.001686792               0.001186689               0.000000000               0.000000000               0.000000000               0.000000000               0.000441001               0.004765036              -0.000560339              -0.000430253               0.001731747               0.001301494               0.000000000               0.000000000               0.000000000               0.000000000               0.000716658               0.004912861              -0.000499586              -0.000345360               0.001752724               0.001407364               0.000000000               0.000000000               0.000000000               0.000000000               0.001026389               0.005008207              -0.000434295              -0.000241129               0.001749762               0.001508633               0.000000000               0.000000000               0.000000000               0.000000000               0.001379098               0.005060095              -0.000366103              -0.000115350               0.001725132               0.001609781               0.000000000               0.000000000               0.000000000               0.000000000               0.001783795               0.005074789              -0.000280637               0.000034574               0.001680055               0.001714629               0.000000000               0.000000000               0.000000000               0.000000000               0.002256373               0.005050749              -0.000158361               0.000214794               0.001611968               0.001826762               0.000000000               0.000000000               0.000000000               0.000000000               0.002628709               0.005070334              -0.000094316               0.000351971               0.001572771               0.001924741               0.000000000               0.000000000               0.000000000               0.000000000              -0.009410691              -0.000757470               0.000000000              -0.003434323               0.000892278              -0.002542045               0.000000000               0.000000000               0.000000000               0.000000000              -0.005989738              -0.000170204              -0.000000000              -0.002224875               0.000684886              -0.001539989               0.000000000               0.000000000               0.000000000               0.000000000              -0.003352114               0.000327791              -0.000000000              -0.001298015               0.000541932              -0.000756084               0.000000000               0.000000000               0.000000000               0.000000000              -0.002027607               0.001152854               0.000000000              -0.000904458               0.000685766              -0.000218692               0.000000000               0.000000000               0.000000000               0.000000000              -0.001283634               0.001975518               0.000000000              -0.000728301               0.000901266               0.000172965               0.000000000               0.000000000               0.000000000               0.000000000              -0.000816133               0.002692609              -0.000000000              -0.000642625               0.001111735               0.000469111               0.000000000               0.000000000               0.000000000               0.000000000              -0.000486055               0.003275666               0.000000000              -0.000591727               0.001289120               0.000697393               0.000000000               0.000000000               0.000000000               0.000000000              -0.000216938               0.003741505               0.000000000              -0.000549038               0.001430169               0.000881130               0.000000000               0.000000000               0.000000000               0.000000000               0.000032491               0.004110501              -0.000000000              -0.000501627               0.001537362               0.001035735               0.000000000               0.000000000               0.000000000               0.000000000               0.000277673               0.004402166              -0.000000000              -0.000446142               0.001616088               0.001169946               0.000000000               0.000000000               0.000000000               0.000000000               0.000530678               0.004629679              -0.000000000              -0.000379705               0.001669779               0.001290074               0.000000000               0.000000000               0.000000000               0.000000000               0.000808621               0.004802009               0.000000000              -0.000297017               0.001699660               0.001402642               0.000000000               0.000000000               0.000000000               0.000000000               0.001128428               0.004923794               0.000000000              -0.000192313               0.001705353               0.001513039               0.000000000               0.000000000               0.000000000               0.000000000               0.001497998               0.005001736              -0.000000000              -0.000063468               0.001688384               0.001624917               0.000000000               0.000000000               0.000000000               0.000000000               0.001927493               0.005039091               0.000000000               0.000092922               0.001648706               0.001741629               0.000000000               0.000000000               0.000000000               0.000000000               0.002445707               0.005033063               0.000000000               0.000288004               0.001581670               0.001869674               0.000000000               0.000000000               0.000000000               0.000000000               0.002865328               0.005065878              -0.000000000               0.000441259               0.001541523               0.001982782               0.000000000               0.000000000               0.000000000               0.000000000               0.000000000               0.000000000               0.000000000               0.000000000               0.000000000               0.000000000               0.000000000               0.000000000               0.000000000               0.000000000               0.000000000               0.000000000               0.000000000               0.000000000               0.000000000               0.000000000               0.000000000               0.000000000               0.000000000               0.000000000               0.000000000               0.000000000               0.000000000               0.000000000               0.000000000               0.000000000               0.000000000               0.000000000               0.000000000               0.000000000               0.000000000               0.000000000               0.000000000               0.000000000               0.000000000               0.000000000               0.000000000               0.000000000               0.000000000               0.000000000               0.000000000               0.000000000               0.000000000               0.000000000               0.000000000               0.000000000               0.000000000               0.000000000               0.000000000               0.000000000               0.000000000               0.000000000               0.000000000               0.000000000               0.000000000               0.000000000               0.000000000               0.000000000               0.000000000               0.000000000               0.000000000               0.000000000               0.000000000               0.000000000               0.000000000               0.000000000               0.000000000               0.000000000               0.000000000               0.000000000               0.000000000               0.000000000               0.000000000               0.000000000               0.000000000               0.000000000               0.000000000               0.000000000               0.000000000               0.000000000               0.000000000               0.000000000               0.000000000               0.000000000               0.000000000               0.000000000               0.000000000               0.000000000               0.000000000               0.000000000               0.000000000               0.000000000               0.000000000               0.000000000               0.000000000               0.000000000               0.000000000               0.000000000               0.000000000               0.000000000               0.000000000               0.000000000               0.000000000               0.000000000               0.000000000               0.000000000               0.000000000               0.000000000               0.000000000               0.000000000               0.000000000               0.000000000               0.000000000               0.000000000               0.000000000               0.000000000               0.000000000               0.000000000               0.000000000               0.000000000               0.000000000               0.000000000               0.000000000               0.000000000               0.000000000               0.000000000               0.000000000               0.000000000               0.000000000               0.000000000               0.000000000               0.000000000               0.000000000               0.000000000               0.000000000               0.000000000               0.000000000               0.000000000               0.000000000               0.000000000               0.000000000               0.000000000               0.000000000               0.000000000               0.000000000               0.000000000               0.000000000               0.000000000               0.000000000               0.000000000               0.000000000               0.000000000               0.000000000               0.000000000               0.000000000               0.000000000               0.000000000               0.000000000               0.000000000               0.000000000               0.000000000               0.000000000               0.000000000               0.000000000               0.000000000               0.000000000               0.000000000               0.000000000               0.000000000               0.000000000               0.002084575               0.021458734               0.001506981              -0.001900622               0.007786380               0.005885759               0.000000000               0.000000000               0.000000000               0.000000000               0.001982284               0.016931198               0.000768644              -0.001373040               0.006101356               0.004728316               0.000000000               0.000000000               0.000000000               0.000000000               0.002523260               0.013314931               0.000031547              -0.000718142               0.004677647               0.003959505               0.000000000               0.000000000               0.000000000               0.000000000               0.002397078               0.011291945              -0.000283572              -0.000512588               0.003934807               0.003422219               0.000000000               0.000000000               0.000000000               0.000000000               0.002075214               0.010033334              -0.000411753              -0.000475960               0.003503065               0.003027104               0.000000000               0.000000000               0.000000000               0.000000000               0.001720622               0.009165582              -0.000450219              -0.000500463               0.003221985               0.002721521               0.000000000               0.000000000               0.000000000               0.000000000               0.001390805               0.008508849              -0.000450326              -0.000542053               0.003016939               0.002474886               0.000000000               0.000000000               0.000000000               0.000000000               0.001100797               0.007975312              -0.000438925              -0.000584114               0.002853115               0.002269001               0.000000000               0.000000000               0.000000000               0.000000000               0.000854607               0.007522093              -0.000419825              -0.000619783               0.002713933               0.002094151               0.000000000               0.000000000               0.000000000               0.000000000               0.000644418               0.007111621              -0.000396137              -0.000647294               0.002586281               0.001938987               0.000000000               0.000000000               0.000000000               0.000000000               0.000464172               0.006724536              -0.000373827              -0.000666501               0.002463656               0.001797156               0.000000000               0.000000000               0.000000000               0.000000000               0.000312510               0.006347003              -0.000350621              -0.000676182               0.002341041               0.001664858               0.000000000               0.000000000               0.000000000               0.000000000               0.000191735               0.005965601              -0.000320397              -0.000673798               0.002213113               0.001539315               0.000000000               0.000000000               0.000000000               0.000000000               0.000103849               0.005570038              -0.000278008              -0.000657310               0.002075764               0.001418454               0.000000000               0.000000000               0.000000000               0.000000000               0.000042646               0.005147471              -0.000219648              -0.000627440               0.001924953               0.001297513               0.000000000               0.000000000               0.000000000               0.000000000               0.000010082               0.004684559              -0.000130167              -0.000581788               0.001755433               0.001173646               0.000000000               0.000000000               0.000000000               0.000000000              -0.000033805               0.004338244              -0.000081153              -0.000554956               0.001631052               0.001076096               0.000000000               0.000000000               0.000000000               0.000000000               0.002275375               0.020195745               0.002807260              -0.001671199               0.007288914               0.005617714               0.000000000               0.000000000               0.000000000               0.000000000               0.001872806               0.016112693               0.001429455              -0.001311782               0.005808104               0.004496323               0.000000000               0.000000000               0.000000000               0.000000000               0.002095013               0.012959475               0.000066615              -0.000834303               0.004597883               0.003763580               0.000000000               0.000000000               0.000000000               0.000000000               0.001851153               0.011172408              -0.000493519              -0.000702367               0.003958221               0.003255854               0.000000000               0.000000000               0.000000000               0.000000000               0.001506606               0.010029112              -0.000712056              -0.000688660               0.003572557               0.002883897               0.000000000               0.000000000               0.000000000               0.000000000               0.001176218               0.009220322              -0.000773961              -0.000711457               0.003310562               0.002599105               0.000000000               0.000000000               0.000000000               0.000000000               0.000891913               0.008596119              -0.000768267              -0.000740046               0.003112026               0.002371981               0.000000000               0.000000000               0.000000000               0.000000000               0.000662940               0.008082353              -0.000743439              -0.000761690               0.002947987               0.002186297               0.000000000               0.000000000               0.000000000               0.000000000               0.000482498               0.007636692              -0.000709956              -0.000773648               0.002803421               0.002029773               0.000000000               0.000000000               0.000000000               0.000000000               0.000336554               0.007234339              -0.000669408              -0.000778083               0.002670783               0.001892700               0.000000000               0.000000000               0.000000000               0.000000000               0.000218658               0.006859093              -0.000628057              -0.000775388               0.002544804               0.001769416               0.000000000               0.000000000               0.000000000               0.000000000               0.000127771               0.006496634              -0.000580790              -0.000764163               0.002420244               0.001656081               0.000000000               0.000000000               0.000000000               0.000000000               0.000061709               0.006139972              -0.000522091              -0.000744354               0.002294755               0.001550401               0.000000000               0.000000000               0.000000000               0.000000000               0.000020054               0.005791094              -0.000447358              -0.000716365               0.002169133               0.001452769               0.000000000               0.000000000               0.000000000               0.000000000              -0.000002933               0.005449847              -0.000347679              -0.000682329               0.002044041               0.001361711               0.000000000               0.000000000               0.000000000               0.000000000              -0.000009769               0.005114858              -0.000201093              -0.000643019               0.001919275               0.001276256               0.000000000               0.000000000               0.000000000               0.000000000              -0.000030520               0.004888285              -0.000120357              -0.000622479               0.001836905               0.001214426               0.000000000               0.000000000               0.000000000               0.000000000               0.002478739               0.018272952               0.003737816              -0.001354591               0.006542453               0.005187862               0.000000000               0.000000000               0.000000000               0.000000000               0.001653679               0.014887066               0.001910643              -0.001240751               0.005375889               0.004135138               0.000000000               0.000000000               0.000000000               0.000000000               0.001429364               0.012432805               0.000130151              -0.001018087               0.004483589               0.003465502               0.000000000               0.000000000               0.000000000               0.000000000               0.001052081               0.010979472              -0.000563228              -0.000977901               0.003985754               0.003007853               0.000000000               0.000000000               0.000000000               0.000000000               0.000709613               0.009996593              -0.000823045              -0.000983467               0.003659987               0.002676520               0.000000000               0.000000000               0.000000000               0.000000000               0.000442532               0.009269743              -0.000891112              -0.000992766               0.003420805               0.002428039               0.000000000               0.000000000               0.000000000               0.000000000               0.000243163               0.008691384              -0.000878761              -0.000995235               0.003228844               0.002233609               0.000000000               0.000000000               0.000000000               0.000000000               0.000105274               0.008205217              -0.000841072              -0.000986172               0.003063769               0.002077597               0.000000000               0.000000000               0.000000000               0.000000000               0.000014075               0.007771298              -0.000793845              -0.000966132               0.002912451               0.001946319               0.000000000               0.000000000               0.000000000               0.000000000              -0.000048596               0.007375246              -0.000740343              -0.000940127               0.002771766               0.001831639               0.000000000               0.000000000               0.000000000               0.000000000              -0.000088507               0.007004714              -0.000683195              -0.000908777               0.002637807               0.001729030               0.000000000               0.000000000               0.000000000               0.000000000              -0.000106424               0.006655754              -0.000617253              -0.000871876               0.002509188               0.001637312               0.000000000               0.000000000               0.000000000               0.000000000              -0.000109217               0.006326736              -0.000540007              -0.000831797               0.002386156               0.001554360               0.000000000               0.000000000               0.000000000               0.000000000              -0.000095669               0.006024071              -0.000449663              -0.000788883               0.002270965               0.001482082               0.000000000               0.000000000               0.000000000               0.000000000              -0.000072229               0.005753885              -0.000337845              -0.000746320               0.002166716               0.001420396               0.000000000               0.000000000               0.000000000               0.000000000              -0.000041556               0.005523269              -0.000187413              -0.000705990               0.002076401               0.001370411               0.000000000               0.000000000               0.000000000               0.000000000              -0.000035731               0.005391099              -0.000107196              -0.000687285               0.002026110               0.001338825               0.000000000               0.000000000               0.000000000               0.000000000               0.002561945               0.015915524               0.004223638              -0.001028712               0.005648025               0.004619313               0.000000000               0.000000000               0.000000000               0.000000000               0.001294700               0.013414052               0.002194482              -0.001191242               0.004868387               0.003677144               0.000000000               0.000000000               0.000000000               0.000000000               0.000602459               0.011799224               0.000246242              -0.001248978               0.004349361               0.003100383               0.000000000               0.000000000               0.000000000               0.000000000               0.000141939               0.010714910              -0.000468255              -0.001286133               0.004000312               0.002714179               0.000000000               0.000000000               0.000000000               0.000000000              -0.000145467               0.009904486              -0.000722887              -0.001292608               0.003732331               0.002439724               0.000000000               0.000000000               0.000000000               0.000000000              -0.000310781               0.009263767              -0.000785596              -0.001274511               0.003512728               0.002238218               0.000000000               0.000000000               0.000000000               0.000000000              -0.000393486               0.008730162              -0.000769203              -0.001238825               0.003322966               0.002084142               0.000000000               0.000000000               0.000000000               0.000000000              -0.000424677               0.008259557              -0.000726066              -0.001191696               0.003150390               0.001958694               0.000000000               0.000000000               0.000000000               0.000000000              -0.000423001               0.007827146              -0.000675787              -0.001137016               0.002988028               0.001851012               0.000000000               0.000000000               0.000000000               0.000000000              -0.000399450               0.007424273              -0.000623271              -0.001077825               0.002834008               0.001756183               0.000000000               0.000000000               0.000000000               0.000000000              -0.000362137               0.007052082              -0.000568160              -0.001017309               0.002689773               0.001672464               0.000000000               0.000000000               0.000000000               0.000000000              -0.000315989               0.006713721              -0.000503807              -0.000957709               0.002557121               0.001599412               0.000000000               0.000000000               0.000000000               0.000000000              -0.000267324               0.006410284              -0.000427897              -0.000901530               0.002437250               0.001535720               0.000000000               0.000000000               0.000000000               0.000000000              -0.000211488               0.006144448              -0.000344028              -0.000847362               0.002330583               0.001483221               0.000000000               0.000000000               0.000000000               0.000000000              -0.000143246               0.005918236              -0.000247832              -0.000793495               0.002237224               0.001443729               0.000000000               0.000000000               0.000000000               0.000000000              -0.000071314               0.005739022              -0.000132537              -0.000744118               0.002161028               0.001416909               0.000000000               0.000000000               0.000000000               0.000000000              -0.000047072               0.005644242              -0.000076954              -0.000723180               0.002122455               0.001399275               0.000000000               0.000000000               0.000000000               0.000000000               0.002408713               0.013367150               0.004275187              -0.000767628               0.004711547               0.003943919               0.000000000               0.000000000               0.000000000               0.000000000               0.000795138               0.011851016               0.002305956              -0.001183199               0.004344698               0.003161499               0.000000000               0.000000000               0.000000000               0.000000000              -0.000280193               0.011108304               0.000434700              -0.001493607               0.004200600               0.002706993               0.000000000               0.000000000               0.000000000               0.000000000              -0.000744165               0.010380515              -0.000213508              -0.001576623               0.003985678               0.002409055               0.000000000               0.000000000               0.000000000               0.000000000              -0.000917325               0.009735192              -0.000441014              -0.001560892               0.003765329               0.002204437               0.000000000               0.000000000               0.000000000               0.000000000              -0.000945121               0.009167261              -0.000505150              -0.001500324               0.003555831               0.002055507               0.000000000               0.000000000               0.000000000               0.000000000              -0.000901025               0.008654459              -0.000499042              -0.001419688               0.003358020               0.001938332               0.000000000               0.000000000               0.000000000               0.000000000              -0.000824750               0.008180308              -0.000467820              -0.001331816               0.003170681               0.001838864               0.000000000               0.000000000               0.000000000               0.000000000              -0.000732123               0.007738616              -0.000429220              -0.001241870               0.002993470               0.001751600               0.000000000               0.000000000               0.000000000               0.000000000              -0.000634204               0.007327131              -0.000392234              -0.001153715               0.002826924               0.001673209               0.000000000               0.000000000               0.000000000               0.000000000              -0.000536038               0.006954053              -0.000356827              -0.001070268               0.002674751               0.001604482               0.000000000               0.000000000               0.000000000               0.000000000              -0.000441496               0.006624714              -0.000316049              -0.000993648               0.002539432               0.001545784               0.000000000               0.000000000               0.000000000               0.000000000              -0.000351414               0.006340989              -0.000266591              -0.000924402               0.002421776               0.001497374               0.000000000               0.000000000               0.000000000               0.000000000              -0.000259061               0.006100253              -0.000208532              -0.000859677               0.002319956               0.001460279               0.000000000               0.000000000               0.000000000               0.000000000              -0.000162611               0.005900410              -0.000142168              -0.000798528               0.002232960               0.001434432               0.000000000               0.000000000               0.000000000               0.000000000              -0.000074759               0.005750431              -0.000071295              -0.000746837               0.002165737               0.001418900               0.000000000               0.000000000               0.000000000               0.000000000              -0.000045321               0.005674165              -0.000042031              -0.000726264               0.002133458               0.001407193               0.000000000               0.000000000               0.000000000               0.000000000               0.001960518               0.010837749               0.003964737              -0.000619527               0.003819055               0.003199528               0.000000000               0.000000000               0.000000000               0.000000000               0.000180871               0.010321122               0.002294322              -0.001222312               0.003847776               0.002625464               0.000000000               0.000000000               0.000000000               0.000000000              -0.001116412               0.010397022               0.000701792              -0.001718278               0.004038399               0.002320121               0.000000000               0.000000000               0.000000000               0.000000000              -0.001486201               0.009979814               0.000158245              -0.001804798               0.003928171               0.002123373               0.000000000               0.000000000               0.000000000               0.000000000              -0.001508899               0.009464897              -0.000050325              -0.001748945               0.003737916               0.001988971               0.000000000               0.000000000               0.000000000               0.000000000              -0.001396081               0.008942160              -0.000128749              -0.001641296               0.003527789               0.001886493               0.000000000               0.000000000               0.000000000               0.000000000              -0.001234595               0.008434565              -0.000148184              -0.001517290               0.003317257               0.001799967               0.000000000               0.000000000               0.000000000               0.000000000              -0.001062938               0.007952301              -0.000146033              -0.001392636               0.003114952               0.001722316               0.000000000               0.000000000               0.000000000               0.000000000              -0.000891786               0.007504437              -0.000137459              -0.001272471               0.002925611               0.001653140               0.000000000               0.000000000               0.000000000               0.000000000              -0.000731248               0.007097180              -0.000130606              -0.001161363               0.002752824               0.001591461               0.000000000               0.000000000               0.000000000               0.000000000              -0.000586807               0.006733764              -0.000129777              -0.001061770               0.002598489               0.001536719               0.000000000               0.000000000               0.000000000               0.000000000              -0.000454880               0.006417357              -0.000127046              -0.000972747               0.002463347               0.001490600               0.000000000               0.000000000               0.000000000               0.000000000              -0.000333455               0.006145030              -0.000114555              -0.000893172               0.002346047               0.001452875               0.000000000               0.000000000               0.000000000               0.000000000              -0.000223838               0.005915503              -0.000089548              -0.000823375               0.002246273               0.001422898               0.000000000               0.000000000               0.000000000               0.000000000              -0.000128489               0.005733915              -0.000057053              -0.000764921               0.002166260               0.001401339               0.000000000               0.000000000               0.000000000               0.000000000              -0.000054624               0.005605735              -0.000027409              -0.000721199               0.002108959               0.001387760               0.000000000               0.000000000               0.000000000               0.000000000              -0.000033779               0.005541303              -0.000019845              -0.000705328               0.002082192               0.001376864               0.000000000               0.000000000               0.000000000               0.000000000               0.001248344               0.008484054               0.003384953              -0.000592380               0.003025448               0.002433069               0.000000000               0.000000000               0.000000000               0.000000000              -0.000503703               0.008917092               0.002204674              -0.001303523               0.003406842               0.002103318               0.000000000               0.000000000               0.000000000               0.000000000              -0.001818022               0.009681071               0.001035770              -0.001891888               0.003857620               0.001965733               0.000000000               0.000000000               0.000000000               0.000000000              -0.002015875               0.009498580               0.000590576              -0.001943271               0.003813919               0.001870648               0.000000000               0.000000000               0.000000000               0.000000000              -0.001881929               0.009076125               0.000378895              -0.001840234               0.003638756               0.001798522               0.000000000               0.000000000               0.000000000               0.000000000              -0.001643857               0.008590417               0.000268660              -0.001690244               0.003426858               0.001736614               0.000000000               0.000000000               0.000000000               0.000000000              -0.001382106               0.008094038               0.000206982              -0.001530041               0.003207999               0.001677958               0.000000000               0.000000000               0.000000000               0.000000000              -0.001134262               0.007617879               0.000165635              -0.001377580               0.002998461               0.001620881               0.000000000               0.000000000               0.000000000               0.000000000              -0.000907766               0.007177877               0.000130572              -0.001237644               0.002805150               0.001567506               0.000000000               0.000000000               0.000000000               0.000000000              -0.000705545               0.006783512               0.000095382              -0.001112515               0.002631987               0.001519471               0.000000000               0.000000000               0.000000000               0.000000000              -0.000532930               0.006434388               0.000056716              -0.001004145               0.002479489               0.001475345               0.000000000               0.000000000               0.000000000               0.000000000              -0.000385443               0.006127212               0.000022724              -0.000910441               0.002345864               0.001435423               0.000000000               0.000000000               0.000000000               0.000000000              -0.000257707               0.005862372               0.000000486              -0.000829435               0.002230583               0.001401148               0.000000000               0.000000000               0.000000000               0.000000000              -0.000154810               0.005645169              -0.000009276              -0.000763698               0.002136270               0.001372572               0.000000000               0.000000000               0.000000000               0.000000000              -0.000082510               0.005483165              -0.000009654              -0.000716335               0.002066482               0.001350147               0.000000000               0.000000000               0.000000000               0.000000000              -0.000036980               0.005372295              -0.000007584              -0.000685403               0.002019215               0.001333812               0.000000000               0.000000000               0.000000000               0.000000000              -0.000025420               0.005315346              -0.000010813              -0.000673949               0.001996414               0.001322465               0.000000000               0.000000000               0.000000000               0.000000000               0.000384080               0.006483936               0.002643968              -0.000666463               0.002383444               0.001716981               0.000000000               0.000000000               0.000000000               0.000000000              -0.001159643               0.007666342               0.002085448              -0.001393157               0.003019807               0.001626650               0.000000000               0.000000000               0.000000000               0.000000000              -0.002342543               0.008967815               0.001426636              -0.001999426               0.003655717               0.001656291               0.000000000               0.000000000               0.000000000               0.000000000              -0.002359899               0.009011097               0.001045610              -0.002011344               0.003674117               0.001662773               0.000000000               0.000000000               0.000000000               0.000000000              -0.002099055               0.008704334               0.000809932              -0.001875183               0.003526477               0.001651294               0.000000000               0.000000000               0.000000000               0.000000000              -0.001770344               0.008279662               0.000655064              -0.001698832               0.003326137               0.001627305               0.000000000               0.000000000               0.000000000               0.000000000              -0.001437160               0.007822261               0.000545436              -0.001516714               0.003112966               0.001596252               0.000000000               0.000000000               0.000000000               0.000000000              -0.001132270               0.007372715               0.000456223              -0.001346187               0.002906276               0.001560089               0.000000000               0.000000000               0.000000000               0.000000000              -0.000864767               0.006951781               0.000376773              -0.001193257               0.002714989               0.001521732               0.000000000               0.000000000               0.000000000               0.000000000              -0.000633994               0.006572829               0.000302140              -0.001059349               0.002544037               0.001484689               0.000000000               0.000000000               0.000000000               0.000000000              -0.000442961               0.006235833               0.000230279              -0.000945587               0.002393786               0.001448199               0.000000000               0.000000000               0.000000000               0.000000000              -0.000288643               0.005934236               0.000163462              -0.000850019               0.002261398               0.001411380               0.000000000               0.000000000               0.000000000               0.000000000              -0.000170261               0.005668516               0.000101956              -0.000772410               0.002146957               0.001374546               0.000000000               0.000000000               0.000000000               0.000000000              -0.000103385               0.005449472               0.000051085              -0.000719951               0.002056456               0.001336505               0.000000000               0.000000000               0.000000000               0.000000000              -0.000081684               0.005286837               0.000017829              -0.000691484               0.001992756               0.001301272               0.000000000               0.000000000               0.000000000               0.000000000              -0.000077726               0.005174786               0.000000938              -0.000675994               0.001950243               0.001274249               0.000000000               0.000000000               0.000000000               0.000000000              -0.000077103               0.005120886              -0.000005837              -0.000669023               0.001929953               0.001260930               0.000000000               0.000000000               0.000000000               0.000000000              -0.000642934               0.004618886               0.001847607              -0.000818460               0.001812433               0.000993972               0.000000000               0.000000000               0.000000000               0.000000000              -0.001691269               0.006211912               0.001948091              -0.001410712               0.002540853               0.001130141               0.000000000               0.000000000               0.000000000               0.000000000              -0.002625526               0.007885860               0.001842617              -0.001970300               0.003285360               0.001315060               0.000000000               0.000000000               0.000000000               0.000000000              -0.002550416               0.008260353               0.001532945              -0.001988946               0.003416405               0.001427460               0.000000000               0.000000000               0.000000000               0.000000000              -0.002240627               0.008181926               0.001270327              -0.001862972               0.003348272               0.001485300               0.000000000               0.000000000               0.000000000               0.000000000              -0.001885121               0.007924781               0.001065446              -0.001697514               0.003207405               0.001509891               0.000000000               0.000000000               0.000000000               0.000000000              -0.001534563               0.007592501               0.000903426              -0.001524520               0.003038981               0.001514462               0.000000000               0.000000000               0.000000000               0.000000000              -0.001216744               0.007226936               0.000768694              -0.001359643               0.002862169               0.001502526               0.000000000               0.000000000               0.000000000               0.000000000              -0.000933564               0.006865849               0.000652122              -0.001208315               0.002691365               0.001483050               0.000000000               0.000000000               0.000000000               0.000000000              -0.000688368               0.006526095               0.000545895              -0.001073897               0.002533309               0.001459412               0.000000000               0.000000000               0.000000000               0.000000000              -0.000482436               0.006216093               0.000445637              -0.000957923               0.002391318               0.001433395               0.000000000               0.000000000               0.000000000               0.000000000              -0.000321871               0.005927436               0.000346314              -0.000861629               0.002263002               0.001401373               0.000000000               0.000000000               0.000000000               0.000000000              -0.000205231               0.005662136               0.000241837              -0.000784727               0.002148935               0.001364209               0.000000000               0.000000000               0.000000000               0.000000000              -0.000138370               0.005431106               0.000142192              -0.000730775               0.002053943               0.001323167               0.000000000               0.000000000               0.000000000               0.000000000              -0.000124748               0.005246265               0.000067352              -0.000702562               0.001982925               0.001280363               0.000000000               0.000000000               0.000000000               0.000000000              -0.000149487               0.005106620               0.000020654              -0.000694383               0.001933651               0.001239267               0.000000000               0.000000000               0.000000000               0.000000000              -0.000173014               0.005037867               0.000000748              -0.000694612               0.001910810               0.001216198               0.000000000               0.000000000               0.000000000               0.000000000              -0.001981808               0.002932710               0.001051062              -0.001109764               0.001347481               0.000237717               0.000000000               0.000000000               0.000000000               0.000000000              -0.002291661               0.004747861               0.001738413              -0.001452853               0.002066888               0.000614035               0.000000000               0.000000000               0.000000000               0.000000000              -0.002819285               0.006617706               0.002166187              -0.001884441               0.002834026               0.000949585               0.000000000               0.000000000               0.000000000               0.000000000              -0.002663779               0.007308901               0.001993158              -0.001912526               0.003073784               0.001161258               0.000000000               0.000000000               0.000000000               0.000000000              -0.002331168               0.007495767               0.001732422              -0.001811155               0.003102282               0.001291127               0.000000000               0.000000000               0.000000000               0.000000000              -0.001970337               0.007448333               0.001493526              -0.001669914               0.003039390               0.001369476               0.000000000               0.000000000               0.000000000               0.000000000              -0.001618184               0.007281037               0.001288300              -0.001516945               0.002932636               0.001415691               0.000000000               0.000000000               0.000000000               0.000000000              -0.001293804               0.007042241               0.001116878              -0.001365454               0.002802541               0.001437088               0.000000000               0.000000000               0.000000000               0.000000000              -0.000998259               0.006776644               0.000971869              -0.001221425               0.002666000               0.001444575               0.000000000               0.000000000               0.000000000               0.000000000              -0.000734928               0.006507440               0.000841158              -0.001089025               0.002532133               0.001443108               0.000000000               0.000000000               0.000000000               0.000000000              -0.000508197               0.006242821               0.000718027              -0.000970924               0.002404561               0.001433637               0.000000000               0.000000000               0.000000000               0.000000000              -0.000327719               0.005982292               0.000591925              -0.000870679               0.002284304               0.001413625               0.000000000               0.000000000               0.000000000               0.000000000              -0.000195494               0.005733212               0.000456021              -0.000789960               0.002174372               0.001384412               0.000000000               0.000000000               0.000000000               0.000000000              -0.000111488               0.005499364               0.000314715              -0.000729227               0.002076179               0.001346952               0.000000000               0.000000000               0.000000000               0.000000000              -0.000086161               0.005297060               0.000184049              -0.000694441               0.001997150               0.001302708               0.000000000               0.000000000               0.000000000               0.000000000              -0.000129455               0.005130239               0.000077320              -0.000689824               0.001940004               0.001250180               0.000000000               0.000000000               0.000000000               0.000000000              -0.000186412               0.005041569               0.000024636              -0.000700099               0.001913872               0.001213773               0.000000000               0.000000000               0.000000000               0.000000000              -0.003540885               0.001545866               0.000320823              -0.001521063               0.001022303              -0.000498760               0.000000000               0.000000000               0.000000000               0.000000000              -0.003016261               0.003363253               0.001436252              -0.001551501               0.001638239               0.000086738               0.000000000               0.000000000               0.000000000               0.000000000              -0.002958202               0.005193167               0.002291248              -0.001758468               0.002317193               0.000558725               0.000000000               0.000000000               0.000000000               0.000000000              -0.002654110               0.006102387               0.002295280              -0.001758086               0.002620136               0.000862050               0.000000000               0.000000000               0.000000000               0.000000000              -0.002290833               0.006531612               0.002085806              -0.001675511               0.002735685               0.001060175               0.000000000               0.000000000               0.000000000               0.000000000              -0.001926630               0.006705567               0.001844761              -0.001560679               0.002755393               0.001194714               0.000000000               0.000000000               0.000000000               0.000000000              -0.001579478               0.006725454               0.001617956              -0.001432983               0.002719456               0.001286473               0.000000000               0.000000000               0.000000000               0.000000000              -0.001258626               0.006643864               0.001422183              -0.001302465               0.002648754               0.001346289               0.000000000               0.000000000               0.000000000               0.000000000              -0.000962560               0.006502828               0.001257372              -0.001173811               0.002558858               0.001385047               0.000000000               0.000000000               0.000000000               0.000000000              -0.000689124               0.006331732               0.001112627              -0.001049886               0.002460518               0.001410632               0.000000000               0.000000000               0.000000000               0.000000000              -0.000444667               0.006141513               0.000976228              -0.000934437               0.002358629               0.001424192               0.000000000               0.000000000               0.000000000               0.000000000              -0.000237574               0.005938722               0.000834299              -0.000831429               0.002256697               0.001425268               0.000000000               0.000000000               0.000000000               0.000000000              -0.000075785               0.005731300               0.000679879              -0.000744830               0.002158691               0.001413861               0.000000000               0.000000000               0.000000000               0.000000000               0.000035905               0.005523668               0.000511793              -0.000676993               0.002066868               0.001389876               0.000000000               0.000000000               0.000000000               0.000000000               0.000088837               0.005327817               0.000335511              -0.000632662               0.001986809               0.001354147               0.000000000               0.000000000               0.000000000               0.000000000               0.000067107               0.005152588               0.000162343              -0.000618907               0.001923814               0.001304908               0.000000000               0.000000000               0.000000000               0.000000000               0.000010367               0.005057637               0.000070377              -0.000628315               0.001895301               0.001266985               0.000000000               0.000000000               0.000000000               0.000000000              -0.005201896               0.000526936              -0.000245623              -0.002016576               0.000847831              -0.001168744               0.000000000               0.000000000               0.000000000               0.000000000              -0.003820342               0.002136971               0.001083100              -0.001699747               0.001278897              -0.000420850               0.000000000               0.000000000               0.000000000               0.000000000              -0.003071473               0.003733788               0.002194600              -0.001618523               0.001784090               0.000165567               0.000000000               0.000000000               0.000000000               0.000000000              -0.002542204               0.004744758               0.002358643              -0.001546419               0.002097042               0.000550623               0.000000000               0.000000000               0.000000000               0.000000000              -0.002117612               0.005366355               0.002231342              -0.001464896               0.002277065               0.000812169               0.000000000               0.000000000               0.000000000               0.000000000              -0.001750209               0.005737979               0.002027763              -0.001373573               0.002370498               0.000996924               0.000000000               0.000000000               0.000000000               0.000000000              -0.001415698               0.005941888               0.001809870              -0.001273620               0.002405149               0.001131529               0.000000000               0.000000000               0.000000000               0.000000000              -0.001104593               0.006030945               0.001609916              -0.001168088               0.002399657               0.001231569               0.000000000               0.000000000               0.000000000               0.000000000              -0.000815409               0.006036675               0.001438485              -0.001060361               0.002365658               0.001305297               0.000000000               0.000000000               0.000000000               0.000000000              -0.000541901               0.005988056               0.001289250              -0.000951718               0.002313238               0.001361520               0.000000000               0.000000000               0.000000000               0.000000000              -0.000285874               0.005899056               0.001149333              -0.000844583               0.002247860               0.001403277               0.000000000               0.000000000               0.000000000               0.000000000              -0.000054040               0.005778812               0.001004565              -0.000742615               0.002173790               0.001431175               0.000000000               0.000000000               0.000000000               0.000000000               0.000148240               0.005636170               0.000846224              -0.000648930               0.002095014               0.001446084               0.000000000               0.000000000               0.000000000               0.000000000               0.000312040               0.005481336               0.000667718              -0.000568151               0.002016477               0.001448326               0.000000000               0.000000000               0.000000000               0.000000000               0.000427173               0.005319066               0.000469337              -0.000504692               0.001941235               0.001436543               0.000000000               0.000000000               0.000000000               0.000000000               0.000477842               0.005157182               0.000247038              -0.000465456               0.001874195               0.001408740               0.000000000               0.000000000               0.000000000               0.000000000               0.000473486               0.005073558               0.000125451              -0.000456636               0.001843381               0.001386745               0.000000000               0.000000000               0.000000000               0.000000000              -0.006809440              -0.000139308              -0.000559479              -0.002536125               0.000798933              -0.001737191               0.000000000               0.000000000               0.000000000               0.000000000              -0.004628857               0.001141062               0.000735683              -0.001878452               0.001006498              -0.000871954               0.000000000               0.000000000               0.000000000               0.000000000              -0.003175954               0.002382883               0.001877973              -0.001488841               0.001290565              -0.000198276               0.000000000               0.000000000               0.000000000               0.000000000              -0.002379230               0.003388051               0.002140056              -0.001315715               0.001567910               0.000252194               0.000000000               0.000000000               0.000000000               0.000000000              -0.001856941               0.004137431               0.002091989              -0.001213530               0.001783639               0.000570109               0.000000000               0.000000000               0.000000000               0.000000000              -0.001468441               0.004668151               0.001944511              -0.001134182               0.001934095               0.000799913               0.000000000               0.000000000               0.000000000               0.000000000              -0.001145974               0.005028681               0.001767923              -0.001058324               0.002028984               0.000970661               0.000000000               0.000000000               0.000000000               0.000000000              -0.000852014               0.005273002               0.001593675              -0.000978629               0.002083859               0.001105230               0.000000000               0.000000000               0.000000000               0.000000000              -0.000579203               0.005424623               0.001436263              -0.000895278               0.002106615               0.001211338               0.000000000               0.000000000               0.000000000               0.000000000              -0.000314415               0.005506836               0.001298524              -0.000806259               0.002104346               0.001298088               0.000000000               0.000000000               0.000000000               0.000000000              -0.000054466               0.005531913               0.001168631              -0.000711913               0.002081257               0.001369344               0.000000000               0.000000000               0.000000000               0.000000000               0.000199984               0.005511341               0.001034161              -0.000613923               0.002041736               0.001427813               0.000000000               0.000000000               0.000000000               0.000000000               0.000445266               0.005454533               0.000887152              -0.000514841               0.001989773               0.001474932               0.000000000               0.000000000               0.000000000               0.000000000               0.000680131               0.005368498               0.000720764              -0.000416012               0.001928152               0.001512140               0.000000000               0.000000000               0.000000000               0.000000000               0.000898837               0.005259153               0.000529052              -0.000320330               0.001859810               0.001539480               0.000000000               0.000000000               0.000000000               0.000000000               0.001082973               0.005135428               0.000291406              -0.000235813               0.001790397               0.001554584               0.000000000               0.000000000               0.000000000               0.000000000               0.001189736               0.005082218               0.000162213              -0.000189126               0.001757097               0.001567972               0.000000000               0.000000000               0.000000000               0.000000000              -0.008169887              -0.000525192              -0.000588252              -0.002998057               0.000824282              -0.002173774               0.000000000               0.000000000               0.000000000               0.000000000              -0.005332293               0.000412910               0.000437273              -0.002051222               0.000821372              -0.001229850               0.000000000               0.000000000               0.000000000               0.000000000              -0.003266008               0.001290669               0.001369535              -0.001386085               0.000892244              -0.000493840               0.000000000               0.000000000               0.000000000               0.000000000              -0.002208955               0.002226222               0.001631321              -0.001106634               0.001110944               0.000004309               0.000000000               0.000000000               0.000000000               0.000000000              -0.001580147               0.003029320               0.001637766              -0.000971218               0.001333502               0.000362284               0.000000000               0.000000000               0.000000000               0.000000000              -0.001155534               0.003668317               0.001549231              -0.000891864               0.001520047               0.000628184               0.000000000               0.000000000               0.000000000               0.000000000              -0.000831471               0.004154218               0.001428018              -0.000831077               0.001661751               0.000830673               0.000000000               0.000000000               0.000000000               0.000000000              -0.000552790               0.004519908               0.001300666              -0.000772284               0.001764048               0.000991765               0.000000000               0.000000000               0.000000000               0.000000000              -0.000296307               0.004786798               0.001182280              -0.000709464               0.001832071               0.001122607               0.000000000               0.000000000               0.000000000               0.000000000              -0.000043678               0.004980896               0.001076589              -0.000638990               0.001873279               0.001234288               0.000000000               0.000000000               0.000000000               0.000000000               0.000213390               0.005112703               0.000974871              -0.000559066               0.001890572               0.001331507               0.000000000               0.000000000               0.000000000               0.000000000               0.000481577               0.005187465               0.000867807              -0.000467841               0.001885084               0.001417244               0.000000000               0.000000000               0.000000000               0.000000000               0.000764391               0.005216410               0.000750976              -0.000365404               0.001860587               0.001495183               0.000000000               0.000000000               0.000000000               0.000000000               0.001069501               0.005207079               0.000623677              -0.000249822               0.001818949               0.001569128               0.000000000               0.000000000               0.000000000               0.000000000               0.001399237               0.005164041               0.000470401              -0.000120791               0.001761593               0.001640802               0.000000000               0.000000000               0.000000000               0.000000000               0.001745741               0.005093082               0.000264201               0.000018017               0.001691671               0.001709688               0.000000000               0.000000000               0.000000000               0.000000000               0.001996741               0.005079354               0.000154611               0.000113857               0.001655149               0.001769006               0.000000000               0.000000000               0.000000000               0.000000000              -0.009086092              -0.000707375              -0.000367916              -0.003318860               0.000870489              -0.002448371               0.000000000               0.000000000               0.000000000               0.000000000              -0.005816185              -0.000025519               0.000199093              -0.002177878               0.000717448              -0.001460430               0.000000000               0.000000000               0.000000000               0.000000000              -0.003329452               0.000575592               0.000723057              -0.001320492               0.000632024              -0.000688469               0.000000000               0.000000000               0.000000000               0.000000000              -0.002076659               0.001435632               0.000884212              -0.000958200               0.000797938              -0.000160262               0.000000000               0.000000000               0.000000000               0.000000000              -0.001363041               0.002256656               0.000901882              -0.000793221               0.001016618               0.000223397               0.000000000               0.000000000               0.000000000               0.000000000              -0.000908646               0.002952270               0.000863464              -0.000709775               0.001220671               0.000510897               0.000000000               0.000000000               0.000000000               0.000000000              -0.000581046               0.003511956               0.000803489              -0.000656885               0.001389602               0.000732717               0.000000000               0.000000000               0.000000000               0.000000000              -0.000308766               0.003955291               0.000736242              -0.000610198               0.001521816               0.000911619               0.000000000               0.000000000               0.000000000               0.000000000              -0.000058661               0.004295877               0.000672493              -0.000558981               0.001618272               0.001059290               0.000000000               0.000000000               0.000000000               0.000000000               0.000186497               0.004560319               0.000615976              -0.000500103               0.001686792               0.001186689               0.000000000               0.000000000               0.000000000               0.000000000               0.000441001               0.004765036               0.000560339              -0.000430253               0.001731747               0.001301494               0.000000000               0.000000000               0.000000000               0.000000000               0.000716658               0.004912861               0.000499586              -0.000345360               0.001752724               0.001407364               0.000000000               0.000000000               0.000000000               0.000000000               0.001026389               0.005008207               0.000434295              -0.000241129               0.001749762               0.001508633               0.000000000               0.000000000               0.000000000               0.000000000               0.001379098               0.005060095               0.000366103              -0.000115350               0.001725132               0.001609781               0.000000000               0.000000000               0.000000000               0.000000000               0.001783795               0.005074789               0.000280637               0.000034574               0.001680055               0.001714629               0.000000000               0.000000000               0.000000000               0.000000000               0.002256373               0.005050749               0.000158361               0.000214794               0.001611968               0.001826762               0.000000000               0.000000000               0.000000000               0.000000000               0.002628709               0.005070334               0.000094316               0.000351971               0.001572771               0.001924741               0.000000000               0.000000000               0.000000000               0.000000000              -0.009410691              -0.000757470              -0.000000000              -0.003434323               0.000892278              -0.002542045               0.000000000               0.000000000               0.000000000               0.000000000              -0.005989738              -0.000170204              -0.000000000              -0.002224875               0.000684886              -0.001539989               0.000000000               0.000000000               0.000000000               0.000000000              -0.003352114               0.000327791              -0.000000000              -0.001298015               0.000541932              -0.000756084               0.000000000               0.000000000               0.000000000               0.000000000              -0.002027607               0.001152854              -0.000000000              -0.000904458               0.000685766              -0.000218692               0.000000000               0.000000000               0.000000000               0.000000000              -0.001283634               0.001975518              -0.000000000              -0.000728301               0.000901266               0.000172965               0.000000000               0.000000000               0.000000000               0.000000000              -0.000816133               0.002692609               0.000000000              -0.000642625               0.001111735               0.000469111               0.000000000               0.000000000               0.000000000               0.000000000              -0.000486055               0.003275666              -0.000000000              -0.000591727               0.001289120               0.000697393               0.000000000               0.000000000               0.000000000               0.000000000              -0.000216938               0.003741505              -0.000000000              -0.000549038               0.001430169               0.000881130               0.000000000               0.000000000               0.000000000               0.000000000               0.000032491               0.004110501               0.000000000              -0.000501627               0.001537362               0.001035735               0.000000000               0.000000000               0.000000000               0.000000000               0.000277673               0.004402166              -0.000000000              -0.000446142               0.001616088               0.001169946               0.000000000               0.000000000               0.000000000               0.000000000               0.000530678               0.004629679              -0.000000000              -0.000379705               0.001669779               0.001290074               0.000000000               0.000000000               0.000000000               0.000000000               0.000808621               0.004802009               0.000000000              -0.000297017               0.001699660               0.001402642               0.000000000               0.000000000               0.000000000               0.000000000               0.001128428               0.004923794               0.000000000              -0.000192313               0.001705353               0.001513039               0.000000000               0.000000000               0.000000000               0.000000000               0.001497998               0.005001736              -0.000000000              -0.000063468               0.001688384               0.001624917               0.000000000               0.000000000               0.000000000               0.000000000               0.001927493               0.005039091              -0.000000000               0.000092922               0.001648706               0.001741629               0.000000000               0.000000000               0.000000000               0.000000000               0.002445707               0.005033063              -0.000000000               0.000288004               0.001581670               0.001869674               0.000000000               0.000000000               0.000000000               0.000000000               0.002865328               0.005065878               0.000000000               0.000441259               0.001541523               0.001982782               0.000000000               0.000000000               0.000000000               0.000000000               0.002009524               0.021900316               0.000000000              -0.001983963               0.007961353               0.005977390               0.000000000               0.000000000               0.000000000               0.000000000               0.002017439               0.017220150               0.000000000              -0.001395976               0.006205318               0.004809342               0.000000000               0.000000000               0.000000000               0.000000000               0.002674059               0.013442091              -0.000000000              -0.000677488               0.004706481               0.004028994               0.000000000               0.000000000               0.000000000               0.000000000               0.002591083               0.011334067              -0.000000000              -0.000445101               0.003926352               0.003481250               0.000000000               0.000000000               0.000000000               0.000000000               0.002278501               0.010031560              -0.000000000              -0.000399506               0.003476989               0.003077482               0.000000000               0.000000000               0.000000000               0.000000000               0.001916414               0.009140385              -0.000000000              -0.000423892               0.003188062               0.002764170               0.000000000               0.000000000               0.000000000               0.000000000               0.001573777               0.008470546               0.000000000              -0.000468651               0.002979704               0.002511053               0.000000000               0.000000000               0.000000000               0.000000000               0.001270748               0.007936697              -0.000000000              -0.000515555               0.002817391               0.002301836               0.000000000               0.000000000               0.000000000               0.000000000               0.001004828               0.007486048              -0.000000000              -0.000558944               0.002681639               0.002122695               0.000000000               0.000000000               0.000000000               0.000000000               0.000769871               0.007074597              -0.000000000              -0.000595622               0.002556716               0.001961094               0.000000000               0.000000000               0.000000000               0.000000000               0.000566798               0.006681094              -0.000000000              -0.000622586               0.002434538               0.001811952               0.000000000               0.000000000               0.000000000               0.000000000               0.000389407               0.006292977              -0.000000000              -0.000640593               0.002311169               0.001670576               0.000000000               0.000000000               0.000000000               0.000000000               0.000244646               0.005898694               0.000000000              -0.000645593               0.002181409               0.001535816               0.000000000               0.000000000               0.000000000               0.000000000               0.000140347               0.005481160               0.000000000              -0.000632513               0.002037873               0.001405360               0.000000000               0.000000000               0.000000000               0.000000000               0.000065886               0.005021162              -0.000000000              -0.000602937               0.001874683               0.001271746               0.000000000               0.000000000               0.000000000               0.000000000               0.000023690               0.004500212               0.000000000              -0.000553641               0.001684603               0.001130962               0.000000000               0.000000000               0.000000000               0.000000000              -0.000030136               0.004099751               0.000000000              -0.000523769               0.001541160               0.001017391               0.000000000               0.000000000               0.000000000               0.000000000               0.002084575               0.021458734              -0.001506981              -0.001900622               0.007786380               0.005885759               0.000000000               0.000000000               0.000000000               0.000000000               0.001982284               0.016931198              -0.000768644              -0.001373040               0.006101356               0.004728316               0.000000000               0.000000000               0.000000000               0.000000000               0.002523260               0.013314931              -0.000031547              -0.000718142               0.004677647               0.003959505               0.000000000               0.000000000               0.000000000               0.000000000               0.002397078               0.011291945               0.000283572              -0.000512588               0.003934807               0.003422219               0.000000000               0.000000000               0.000000000               0.000000000               0.002075214               0.010033334               0.000411753              -0.000475960               0.003503065               0.003027104               0.000000000               0.000000000               0.000000000               0.000000000               0.001720622               0.009165582               0.000450219              -0.000500463               0.003221985               0.002721521               0.000000000               0.000000000               0.000000000               0.000000000               0.001390805               0.008508849               0.000450326              -0.000542053               0.003016939               0.002474886               0.000000000               0.000000000               0.000000000               0.000000000               0.001100797               0.007975312               0.000438925              -0.000584114               0.002853115               0.002269001               0.000000000               0.000000000               0.000000000               0.000000000               0.000854607               0.007522093               0.000419825              -0.000619783               0.002713933               0.002094151               0.000000000               0.000000000               0.000000000               0.000000000               0.000644418               0.007111621               0.000396137              -0.000647294               0.002586281               0.001938987               0.000000000               0.000000000               0.000000000               0.000000000               0.000464172               0.006724536               0.000373827              -0.000666501               0.002463656               0.001797156               0.000000000               0.000000000               0.000000000               0.000000000               0.000312510               0.006347003               0.000350621              -0.000676182               0.002341041               0.001664858               0.000000000               0.000000000               0.000000000               0.000000000               0.000191735               0.005965601               0.000320397              -0.000673798               0.002213113               0.001539315               0.000000000               0.000000000               0.000000000               0.000000000               0.000103849               0.005570038               0.000278008              -0.000657310               0.002075764               0.001418454               0.000000000               0.000000000               0.000000000               0.000000000               0.000042646               0.005147471               0.000219648              -0.000627440               0.001924953               0.001297513               0.000000000               0.000000000               0.000000000               0.000000000               0.000010082               0.004684559               0.000130167              -0.000581788               0.001755433               0.001173646               0.000000000               0.000000000               0.000000000               0.000000000              -0.000033805               0.004338244               0.000081153              -0.000554956               0.001631052               0.001076096               0.000000000               0.000000000               0.000000000               0.000000000               0.002275375               0.020195745              -0.002807260              -0.001671199               0.007288914               0.005617714               0.000000000               0.000000000               0.000000000               0.000000000               0.001872806               0.016112693              -0.001429455              -0.001311782               0.005808104               0.004496323               0.000000000               0.000000000               0.000000000               0.000000000               0.002095013               0.012959475              -0.000066615              -0.000834303               0.004597883               0.003763580               0.000000000               0.000000000               0.000000000               0.000000000               0.001851153               0.011172408               0.000493519              -0.000702367               0.003958221               0.003255854               0.000000000               0.000000000               0.000000000               0.000000000               0.001506606               0.010029112               0.000712056              -0.000688660               0.003572557               0.002883897               0.000000000               0.000000000               0.000000000               0.000000000               0.001176218               0.009220322               0.000773961              -0.000711457               0.003310562               0.002599105               0.000000000               0.000000000               0.000000000               0.000000000               0.000891913               0.008596119               0.000768267              -0.000740046               0.003112026               0.002371981               0.000000000               0.000000000               0.000000000               0.000000000               0.000662940               0.008082353               0.000743439              -0.000761690               0.002947987               0.002186297               0.000000000               0.000000000               0.000000000               0.000000000               0.000482498               0.007636692               0.000709956              -0.000773648               0.002803421               0.002029773               0.000000000               0.000000000               0.000000000               0.000000000               0.000336554               0.007234339               0.000669408              -0.000778083               0.002670783               0.001892700               0.000000000               0.000000000               0.000000000               0.000000000               0.000218658               0.006859093               0.000628057              -0.000775388               0.002544804               0.001769416               0.000000000               0.000000000               0.000000000               0.000000000               0.000127771               0.006496634               0.000580790              -0.000764163               0.002420244               0.001656081               0.000000000               0.000000000               0.000000000               0.000000000               0.000061709               0.006139972               0.000522091              -0.000744354               0.002294755               0.001550401               0.000000000               0.000000000               0.000000000               0.000000000               0.000020054               0.005791094               0.000447358              -0.000716365               0.002169133               0.001452769               0.000000000               0.000000000               0.000000000               0.000000000              -0.000002933               0.005449847               0.000347679              -0.000682329               0.002044041               0.001361711               0.000000000               0.000000000               0.000000000               0.000000000              -0.000009769               0.005114858               0.000201093              -0.000643019               0.001919275               0.001276256               0.000000000               0.000000000               0.000000000               0.000000000              -0.000030520               0.004888285               0.000120357              -0.000622479               0.001836905               0.001214426               0.000000000               0.000000000               0.000000000               0.000000000               0.002478739               0.018272952              -0.003737816              -0.001354591               0.006542453               0.005187862               0.000000000               0.000000000               0.000000000               0.000000000               0.001653679               0.014887066              -0.001910643              -0.001240751               0.005375889               0.004135138               0.000000000               0.000000000               0.000000000               0.000000000               0.001429364               0.012432805              -0.000130151              -0.001018087               0.004483589               0.003465502               0.000000000               0.000000000               0.000000000               0.000000000               0.001052081               0.010979472               0.000563228              -0.000977901               0.003985754               0.003007853               0.000000000               0.000000000               0.000000000               0.000000000               0.000709613               0.009996593               0.000823045              -0.000983467               0.003659987               0.002676520               0.000000000               0.000000000               0.000000000               0.000000000               0.000442532               0.009269743               0.000891112              -0.000992766               0.003420805               0.002428039               0.000000000               0.000000000               0.000000000               0.000000000               0.000243163               0.008691384               0.000878761              -0.000995235               0.003228844               0.002233609               0.000000000               0.000000000               0.000000000               0.000000000               0.000105274               0.008205217               0.000841072              -0.000986172               0.003063769               0.002077597               0.000000000               0.000000000               0.000000000               0.000000000               0.000014075               0.007771298               0.000793845              -0.000966132               0.002912451               0.001946319               0.000000000               0.000000000               0.000000000               0.000000000              -0.000048596               0.007375246               0.000740343              -0.000940127               0.002771766               0.001831639               0.000000000               0.000000000               0.000000000               0.000000000              -0.000088507               0.007004714               0.000683195              -0.000908777               0.002637807               0.001729030               0.000000000               0.000000000               0.000000000               0.000000000              -0.000106424               0.006655754               0.000617253              -0.000871876               0.002509188               0.001637312               0.000000000               0.000000000               0.000000000               0.000000000              -0.000109217               0.006326736               0.000540007              -0.000831797               0.002386156               0.001554360               0.000000000               0.000000000               0.000000000               0.000000000              -0.000095669               0.006024071               0.000449663              -0.000788883               0.002270965               0.001482082               0.000000000               0.000000000               0.000000000               0.000000000              -0.000072229               0.005753885               0.000337845              -0.000746320               0.002166716               0.001420396               0.000000000               0.000000000               0.000000000               0.000000000              -0.000041556               0.005523269               0.000187413              -0.000705990               0.002076401               0.001370411               0.000000000               0.000000000               0.000000000               0.000000000              -0.000035731               0.005391099               0.000107196              -0.000687285               0.002026110               0.001338825               0.000000000               0.000000000               0.000000000               0.000000000               0.002561945               0.015915524              -0.004223638              -0.001028712               0.005648025               0.004619313               0.000000000               0.000000000               0.000000000               0.000000000               0.001294700               0.013414052              -0.002194482              -0.001191242               0.004868387               0.003677144               0.000000000               0.000000000               0.000000000               0.000000000               0.000602459               0.011799224              -0.000246242              -0.001248978               0.004349361               0.003100383               0.000000000               0.000000000               0.000000000               0.000000000               0.000141939               0.010714910               0.000468255              -0.001286133               0.004000312               0.002714179               0.000000000               0.000000000               0.000000000               0.000000000              -0.000145467               0.009904486               0.000722887              -0.001292608               0.003732331               0.002439724               0.000000000               0.000000000               0.000000000               0.000000000              -0.000310781               0.009263767               0.000785596              -0.001274511               0.003512728               0.002238218               0.000000000               0.000000000               0.000000000               0.000000000              -0.000393486               0.008730162               0.000769203              -0.001238825               0.003322966               0.002084142               0.000000000               0.000000000               0.000000000               0.000000000              -0.000424677               0.008259557               0.000726066              -0.001191696               0.003150390               0.001958694               0.000000000               0.000000000               0.000000000               0.000000000              -0.000423001               0.007827146               0.000675787              -0.001137016               0.002988028               0.001851012               0.000000000               0.000000000               0.000000000               0.000000000              -0.000399450               0.007424273               0.000623271              -0.001077825               0.002834008               0.001756183               0.000000000               0.000000000               0.000000000               0.000000000              -0.000362137               0.007052082               0.000568160              -0.001017309               0.002689773               0.001672464               0.000000000               0.000000000               0.000000000               0.000000000              -0.000315989               0.006713721               0.000503807              -0.000957709               0.002557121               0.001599412               0.000000000               0.000000000               0.000000000               0.000000000              -0.000267324               0.006410284               0.000427897              -0.000901530               0.002437250               0.001535720               0.000000000               0.000000000               0.000000000               0.000000000              -0.000211488               0.006144448               0.000344028              -0.000847362               0.002330583               0.001483221               0.000000000               0.000000000               0.000000000               0.000000000              -0.000143246               0.005918236               0.000247832              -0.000793495               0.002237224               0.001443729               0.000000000               0.000000000               0.000000000               0.000000000              -0.000071314               0.005739022               0.000132537              -0.000744118               0.002161028               0.001416909               0.000000000               0.000000000               0.000000000               0.000000000              -0.000047072               0.005644242               0.000076954              -0.000723180               0.002122455               0.001399275               0.000000000               0.000000000               0.000000000               0.000000000               0.002408713               0.013367150              -0.004275187              -0.000767628               0.004711547               0.003943919               0.000000000               0.000000000               0.000000000               0.000000000               0.000795138               0.011851016              -0.002305956              -0.001183199               0.004344698               0.003161499               0.000000000               0.000000000               0.000000000               0.000000000              -0.000280193               0.011108304              -0.000434700              -0.001493607               0.004200600               0.002706993               0.000000000               0.000000000               0.000000000               0.000000000              -0.000744165               0.010380515               0.000213508              -0.001576623               0.003985678               0.002409055               0.000000000               0.000000000               0.000000000               0.000000000              -0.000917325               0.009735192               0.000441014              -0.001560892               0.003765329               0.002204437               0.000000000               0.000000000               0.000000000               0.000000000              -0.000945121               0.009167261               0.000505150              -0.001500324               0.003555831               0.002055507               0.000000000               0.000000000               0.000000000               0.000000000              -0.000901025               0.008654459               0.000499042              -0.001419688               0.003358020               0.001938332               0.000000000               0.000000000               0.000000000               0.000000000              -0.000824750               0.008180308               0.000467820              -0.001331816               0.003170681               0.001838864               0.000000000               0.000000000               0.000000000               0.000000000              -0.000732123               0.007738616               0.000429220              -0.001241870               0.002993470               0.001751600               0.000000000               0.000000000               0.000000000               0.000000000              -0.000634204               0.007327131               0.000392234              -0.001153715               0.002826924               0.001673209               0.000000000               0.000000000               0.000000000               0.000000000              -0.000536038               0.006954053               0.000356827              -0.001070268               0.002674751               0.001604482               0.000000000               0.000000000               0.000000000               0.000000000              -0.000441496               0.006624714               0.000316049              -0.000993648               0.002539432               0.001545784               0.000000000               0.000000000               0.000000000               0.000000000              -0.000351414               0.006340989               0.000266591              -0.000924402               0.002421776               0.001497374               0.000000000               0.000000000               0.000000000               0.000000000              -0.000259061               0.006100253               0.000208532              -0.000859677               0.002319956               0.001460279               0.000000000               0.000000000               0.000000000               0.000000000              -0.000162611               0.005900410               0.000142168              -0.000798528               0.002232960               0.001434432               0.000000000               0.000000000               0.000000000               0.000000000              -0.000074759               0.005750431               0.000071295              -0.000746837               0.002165737               0.001418900               0.000000000               0.000000000               0.000000000               0.000000000              -0.000045321               0.005674165               0.000042031              -0.000726264               0.002133458               0.001407193               0.000000000               0.000000000               0.000000000               0.000000000               0.001960518               0.010837749              -0.003964737              -0.000619527               0.003819055               0.003199528               0.000000000               0.000000000               0.000000000               0.000000000               0.000180871               0.010321122              -0.002294322              -0.001222312               0.003847776               0.002625464               0.000000000               0.000000000               0.000000000               0.000000000              -0.001116412               0.010397022              -0.000701792              -0.001718278               0.004038399               0.002320121               0.000000000               0.000000000               0.000000000               0.000000000              -0.001486201               0.009979814              -0.000158245              -0.001804798               0.003928171               0.002123373               0.000000000               0.000000000               0.000000000               0.000000000              -0.001508899               0.009464897               0.000050325              -0.001748945               0.003737916               0.001988971               0.000000000               0.000000000               0.000000000               0.000000000              -0.001396081               0.008942160               0.000128749              -0.001641296               0.003527789               0.001886493               0.000000000               0.000000000               0.000000000               0.000000000              -0.001234595               0.008434565               0.000148184              -0.001517290               0.003317257               0.001799967               0.000000000               0.000000000               0.000000000               0.000000000              -0.001062938               0.007952301               0.000146033              -0.001392636               0.003114952               0.001722316               0.000000000               0.000000000               0.000000000               0.000000000              -0.000891786               0.007504437               0.000137459              -0.001272471               0.002925611               0.001653140               0.000000000               0.000000000               0.000000000               0.000000000              -0.000731248               0.007097180               0.000130606              -0.001161363               0.002752824               0.001591461               0.000000000               0.000000000               0.000000000               0.000000000              -0.000586807               0.006733764               0.000129777              -0.001061770               0.002598489               0.001536719               0.000000000               0.000000000               0.000000000               0.000000000              -0.000454880               0.006417357               0.000127046              -0.000972747               0.002463347               0.001490600               0.000000000               0.000000000               0.000000000               0.000000000              -0.000333455               0.006145030               0.000114555              -0.000893172               0.002346047               0.001452875               0.000000000               0.000000000               0.000000000               0.000000000              -0.000223838               0.005915503               0.000089548              -0.000823375               0.002246273               0.001422898               0.000000000               0.000000000               0.000000000               0.000000000              -0.000128489               0.005733915               0.000057053              -0.000764921               0.002166260               0.001401339               0.000000000               0.000000000               0.000000000               0.000000000              -0.000054624               0.005605735               0.000027409              -0.000721199               0.002108959               0.001387760               0.000000000               0.000000000               0.000000000               0.000000000              -0.000033779               0.005541303               0.000019845              -0.000705328               0.002082192               0.001376864               0.000000000               0.000000000               0.000000000               0.000000000               0.001248344               0.008484054              -0.003384953              -0.000592380               0.003025448               0.002433069               0.000000000               0.000000000               0.000000000               0.000000000              -0.000503703               0.008917092              -0.002204674              -0.001303523               0.003406842               0.002103318               0.000000000               0.000000000               0.000000000               0.000000000              -0.001818022               0.009681071              -0.001035770              -0.001891888               0.003857620               0.001965733               0.000000000               0.000000000               0.000000000               0.000000000              -0.002015875               0.009498580              -0.000590576              -0.001943271               0.003813919               0.001870648               0.000000000               0.000000000               0.000000000               0.000000000              -0.001881929               0.009076125              -0.000378895              -0.001840234               0.003638756               0.001798522               0.000000000               0.000000000               0.000000000               0.000000000              -0.001643857               0.008590417              -0.000268660              -0.001690244               0.003426858               0.001736614               0.000000000               0.000000000               0.000000000               0.000000000              -0.001382106               0.008094038              -0.000206982              -0.001530041               0.003207999               0.001677958               0.000000000               0.000000000               0.000000000               0.000000000              -0.001134262               0.007617879              -0.000165635              -0.001377580               0.002998461               0.001620881               0.000000000               0.000000000               0.000000000               0.000000000              -0.000907766               0.007177877              -0.000130572              -0.001237644               0.002805150               0.001567506               0.000000000               0.000000000               0.000000000               0.000000000              -0.000705545               0.006783512              -0.000095382              -0.001112515               0.002631987               0.001519471               0.000000000               0.000000000               0.000000000               0.000000000              -0.000532930               0.006434388              -0.000056716              -0.001004145               0.002479489               0.001475345               0.000000000               0.000000000               0.000000000               0.000000000              -0.000385443               0.006127212              -0.000022724              -0.000910441               0.002345864               0.001435423               0.000000000               0.000000000               0.000000000               0.000000000              -0.000257707               0.005862372              -0.000000486              -0.000829435               0.002230583               0.001401148               0.000000000               0.000000000               0.000000000               0.000000000              -0.000154810               0.005645169               0.000009276              -0.000763698               0.002136270               0.001372572               0.000000000               0.000000000               0.000000000               0.000000000              -0.000082510               0.005483165               0.000009654              -0.000716335               0.002066482               0.001350147               0.000000000               0.000000000               0.000000000               0.000000000              -0.000036980               0.005372295               0.000007584              -0.000685403               0.002019215               0.001333812               0.000000000               0.000000000               0.000000000               0.000000000              -0.000025420               0.005315346               0.000010813              -0.000673949               0.001996414               0.001322465               0.000000000               0.000000000               0.000000000               0.000000000               0.000384080               0.006483936              -0.002643968              -0.000666463               0.002383444               0.001716981               0.000000000               0.000000000               0.000000000               0.000000000              -0.001159643               0.007666342              -0.002085448              -0.001393157               0.003019807               0.001626650               0.000000000               0.000000000               0.000000000               0.000000000              -0.002342543               0.008967815              -0.001426636              -0.001999426               0.003655717               0.001656291               0.000000000               0.000000000               0.000000000               0.000000000              -0.002359899               0.009011097              -0.001045610              -0.002011344               0.003674117               0.001662773               0.000000000               0.000000000               0.000000000               0.000000000              -0.002099055               0.008704334              -0.000809932              -0.001875183               0.003526477               0.001651294               0.000000000               0.000000000               0.000000000               0.000000000              -0.001770344               0.008279662              -0.000655064              -0.001698832               0.003326137               0.001627305               0.000000000               0.000000000               0.000000000               0.000000000              -0.001437160               0.007822261              -0.000545436              -0.001516714               0.003112966               0.001596252               0.000000000               0.000000000               0.000000000               0.000000000              -0.001132270               0.007372715              -0.000456223              -0.001346187               0.002906276               0.001560089               0.000000000               0.000000000               0.000000000               0.000000000              -0.000864767               0.006951781              -0.000376773              -0.001193257               0.002714989               0.001521732               0.000000000               0.000000000               0.000000000               0.000000000              -0.000633994               0.006572829              -0.000302140              -0.001059349               0.002544037               0.001484689               0.000000000               0.000000000               0.000000000               0.000000000              -0.000442961               0.006235833              -0.000230279              -0.000945587               0.002393786               0.001448199               0.000000000               0.000000000               0.000000000               0.000000000              -0.000288643               0.005934236              -0.000163462              -0.000850019               0.002261398               0.001411380               0.000000000               0.000000000               0.000000000               0.000000000              -0.000170261               0.005668516              -0.000101956              -0.000772410               0.002146957               0.001374546               0.000000000               0.000000000               0.000000000               0.000000000              -0.000103385               0.005449472              -0.000051085              -0.000719951               0.002056456               0.001336505               0.000000000               0.000000000               0.000000000               0.000000000              -0.000081684               0.005286837              -0.000017829              -0.000691484               0.001992756               0.001301272               0.000000000               0.000000000               0.000000000               0.000000000              -0.000077726               0.005174786              -0.000000938              -0.000675994               0.001950243               0.001274249               0.000000000               0.000000000               0.000000000               0.000000000              -0.000077103               0.005120886               0.000005837              -0.000669023               0.001929953               0.001260930               0.000000000               0.000000000               0.000000000               0.000000000              -0.000642934               0.004618886              -0.001847607              -0.000818460               0.001812433               0.000993972               0.000000000               0.000000000               0.000000000               0.000000000              -0.001691269               0.006211912              -0.001948091              -0.001410712               0.002540853               0.001130141               0.000000000               0.000000000               0.000000000               0.000000000              -0.002625526               0.007885860              -0.001842617              -0.001970300               0.003285360               0.001315060               0.000000000               0.000000000               0.000000000               0.000000000              -0.002550416               0.008260353              -0.001532945              -0.001988946               0.003416405               0.001427460               0.000000000               0.000000000               0.000000000               0.000000000              -0.002240627               0.008181926              -0.001270327              -0.001862972               0.003348272               0.001485300               0.000000000               0.000000000               0.000000000               0.000000000              -0.001885121               0.007924781              -0.001065446              -0.001697514               0.003207405               0.001509891               0.000000000               0.000000000               0.000000000               0.000000000              -0.001534563               0.007592501              -0.000903426              -0.001524520               0.003038981               0.001514462               0.000000000               0.000000000               0.000000000               0.000000000              -0.001216744               0.007226936              -0.000768694              -0.001359643               0.002862169               0.001502526               0.000000000               0.000000000               0.000000000               0.000000000              -0.000933564               0.006865849              -0.000652122              -0.001208315               0.002691365               0.001483050               0.000000000               0.000000000               0.000000000               0.000000000              -0.000688368               0.006526095              -0.000545895              -0.001073897               0.002533309               0.001459412               0.000000000               0.000000000               0.000000000               0.000000000              -0.000482436               0.006216093              -0.000445637              -0.000957923               0.002391318               0.001433395               0.000000000               0.000000000               0.000000000               0.000000000              -0.000321871               0.005927436              -0.000346314              -0.000861629               0.002263002               0.001401373               0.000000000               0.000000000               0.000000000               0.000000000              -0.000205231               0.005662136              -0.000241837              -0.000784727               0.002148935               0.001364209               0.000000000               0.000000000               0.000000000               0.000000000              -0.000138370               0.005431106              -0.000142192              -0.000730775               0.002053943               0.001323167               0.000000000               0.000000000               0.000000000               0.000000000              -0.000124748               0.005246265              -0.000067352              -0.000702562               0.001982925               0.001280363               0.000000000               0.000000000               0.000000000               0.000000000              -0.000149487               0.005106620              -0.000020654              -0.000694383               0.001933651               0.001239267               0.000000000               0.000000000               0.000000000               0.000000000              -0.000173014               0.005037867              -0.000000748              -0.000694612               0.001910810               0.001216198               0.000000000               0.000000000               0.000000000               0.000000000              -0.001981808               0.002932710              -0.001051062              -0.001109764               0.001347481               0.000237717               0.000000000               0.000000000               0.000000000               0.000000000              -0.002291661               0.004747861              -0.001738413              -0.001452853               0.002066888               0.000614035               0.000000000               0.000000000               0.000000000               0.000000000              -0.002819285               0.006617706              -0.002166187              -0.001884441               0.002834026               0.000949585               0.000000000               0.000000000               0.000000000               0.000000000              -0.002663779               0.007308901              -0.001993158              -0.001912526               0.003073784               0.001161258               0.000000000               0.000000000               0.000000000               0.000000000              -0.002331168               0.007495767              -0.001732422              -0.001811155               0.003102282               0.001291127               0.000000000               0.000000000               0.000000000               0.000000000              -0.001970337               0.007448333              -0.001493526              -0.001669914               0.003039390               0.001369476               0.000000000               0.000000000               0.000000000               0.000000000              -0.001618184               0.007281037              -0.001288300              -0.001516945               0.002932636               0.001415691               0.000000000               0.000000000               0.000000000               0.000000000              -0.001293804               0.007042241              -0.001116878              -0.001365454               0.002802541               0.001437088               0.000000000               0.000000000               0.000000000               0.000000000              -0.000998259               0.006776644              -0.000971869              -0.001221425               0.002666000               0.001444575               0.000000000               0.000000000               0.000000000               0.000000000              -0.000734928               0.006507440              -0.000841158              -0.001089025               0.002532133               0.001443108               0.000000000               0.000000000               0.000000000               0.000000000              -0.000508197               0.006242821              -0.000718027              -0.000970924               0.002404561               0.001433637               0.000000000               0.000000000               0.000000000               0.000000000              -0.000327719               0.005982292              -0.000591925              -0.000870679               0.002284304               0.001413625               0.000000000               0.000000000               0.000000000               0.000000000              -0.000195494               0.005733212              -0.000456021              -0.000789960               0.002174372               0.001384412               0.000000000               0.000000000               0.000000000               0.000000000              -0.000111488               0.005499364              -0.000314715              -0.000729227               0.002076179               0.001346952               0.000000000               0.000000000               0.000000000               0.000000000              -0.000086161               0.005297060              -0.000184049              -0.000694441               0.001997150               0.001302708               0.000000000               0.000000000               0.000000000               0.000000000              -0.000129455               0.005130239              -0.000077320              -0.000689824               0.001940004               0.001250180               0.000000000               0.000000000               0.000000000               0.000000000              -0.000186412               0.005041569              -0.000024636              -0.000700099               0.001913872               0.001213773               0.000000000               0.000000000               0.000000000               0.000000000              -0.003540885               0.001545866              -0.000320823              -0.001521063               0.001022303              -0.000498760               0.000000000               0.000000000               0.000000000               0.000000000              -0.003016261               0.003363253              -0.001436252              -0.001551501               0.001638239               0.000086738               0.000000000               0.000000000               0.000000000               0.000000000              -0.002958202               0.005193167              -0.002291248              -0.001758468               0.002317193               0.000558725               0.000000000               0.000000000               0.000000000               0.000000000              -0.002654110               0.006102387              -0.002295280              -0.001758086               0.002620136               0.000862050               0.000000000               0.000000000               0.000000000               0.000000000              -0.002290833               0.006531612              -0.002085806              -0.001675511               0.002735685               0.001060175               0.000000000               0.000000000               0.000000000               0.000000000              -0.001926630               0.006705567              -0.001844761              -0.001560679               0.002755393               0.001194714               0.000000000               0.000000000               0.000000000               0.000000000              -0.001579478               0.006725454              -0.001617956              -0.001432983               0.002719456               0.001286473               0.000000000               0.000000000               0.000000000               0.000000000              -0.001258626               0.006643864              -0.001422183              -0.001302465               0.002648754               0.001346289               0.000000000               0.000000000               0.000000000               0.000000000              -0.000962560               0.006502828              -0.001257372              -0.001173811               0.002558858               0.001385047               0.000000000               0.000000000               0.000000000               0.000000000              -0.000689124               0.006331732              -0.001112627              -0.001049886               0.002460518               0.001410632               0.000000000               0.000000000               0.000000000               0.000000000              -0.000444667               0.006141513              -0.000976228              -0.000934437               0.002358629               0.001424192               0.000000000               0.000000000               0.000000000               0.000000000              -0.000237574               0.005938722              -0.000834299              -0.000831429               0.002256697               0.001425268               0.000000000               0.000000000               0.000000000               0.000000000              -0.000075785               0.005731300              -0.000679879              -0.000744830               0.002158691               0.001413861               0.000000000               0.000000000               0.000000000               0.000000000               0.000035905               0.005523668              -0.000511793              -0.000676993               0.002066868               0.001389876               0.000000000               0.000000000               0.000000000               0.000000000               0.000088837               0.005327817              -0.000335511              -0.000632662               0.001986809               0.001354147               0.000000000               0.000000000               0.000000000               0.000000000               0.000067107               0.005152588              -0.000162343              -0.000618907               0.001923814               0.001304908               0.000000000               0.000000000               0.000000000               0.000000000               0.000010367               0.005057637              -0.000070377              -0.000628315               0.001895301               0.001266985               0.000000000               0.000000000               0.000000000               0.000000000              -0.005201896               0.000526936               0.000245623              -0.002016576               0.000847831              -0.001168744               0.000000000               0.000000000               0.000000000               0.000000000              -0.003820342               0.002136971              -0.001083100              -0.001699747               0.001278897              -0.000420850               0.000000000               0.000000000               0.000000000               0.000000000              -0.003071473               0.003733788              -0.002194600              -0.001618523               0.001784090               0.000165567               0.000000000               0.000000000               0.000000000               0.000000000              -0.002542204               0.004744758              -0.002358643              -0.001546419               0.002097042               0.000550623               0.000000000               0.000000000               0.000000000               0.000000000              -0.002117612               0.005366355              -0.002231342              -0.001464896               0.002277065               0.000812169               0.000000000               0.000000000               0.000000000               0.000000000              -0.001750209               0.005737979              -0.002027763              -0.001373573               0.002370498               0.000996924               0.000000000               0.000000000               0.000000000               0.000000000              -0.001415698               0.005941888              -0.001809870              -0.001273620               0.002405149               0.001131529               0.000000000               0.000000000               0.000000000               0.000000000              -0.001104593               0.006030945              -0.001609916              -0.001168088               0.002399657               0.001231569               0.000000000               0.000000000               0.000000000               0.000000000              -0.000815409               0.006036675              -0.001438485              -0.001060361               0.002365658               0.001305297               0.000000000               0.000000000               0.000000000               0.000000000              -0.000541901               0.005988056              -0.001289250              -0.000951718               0.002313238               0.001361520               0.000000000               0.000000000               0.000000000               0.000000000              -0.000285874               0.005899056              -0.001149333              -0.000844583               0.002247860               0.001403277               0.000000000               0.000000000               0.000000000               0.000000000              -0.000054040               0.005778812              -0.001004565              -0.000742615               0.002173790               0.001431175               0.000000000               0.000000000               0.000000000               0.000000000               0.000148240               0.005636170              -0.000846224              -0.000648930               0.002095014               0.001446084               0.000000000               0.000000000               0.000000000               0.000000000               0.000312040               0.005481336              -0.000667718              -0.000568151               0.002016477               0.001448326               0.000000000               0.000000000               0.000000000               0.000000000               0.000427173               0.005319066              -0.000469337              -0.000504692               0.001941235               0.001436543               0.000000000               0.000000000               0.000000000               0.000000000               0.000477842               0.005157182              -0.000247038              -0.000465456               0.001874195               0.001408740               0.000000000               0.000000000               0.000000000               0.000000000               0.000473486               0.005073558              -0.000125451              -0.000456636               0.001843381               0.001386745               0.000000000               0.000000000               0.000000000               0.000000000              -0.006809440              -0.000139308               0.000559479              -0.002536125               0.000798933              -0.001737191               0.000000000               0.000000000               0.000000000               0.000000000              -0.004628857               0.001141062              -0.000735683              -0.001878452               0.001006498              -0.000871954               0.000000000               0.000000000               0.000000000               0.000000000              -0.003175954               0.002382883              -0.001877973              -0.001488841               0.001290565              -0.000198276               0.000000000               0.000000000               0.000000000               0.000000000              -0.002379230               0.003388051              -0.002140056              -0.001315715               0.001567910               0.000252194               0.000000000               0.000000000               0.000000000               0.000000000              -0.001856941               0.004137431              -0.002091989              -0.001213530               0.001783639               0.000570109               0.000000000               0.000000000               0.000000000               0.000000000              -0.001468441               0.004668151              -0.001944511              -0.001134182               0.001934095               0.000799913               0.000000000               0.000000000               0.000000000               0.000000000              -0.001145974               0.005028681              -0.001767923              -0.001058324               0.002028984               0.000970661               0.000000000               0.000000000               0.000000000               0.000000000              -0.000852014               0.005273002              -0.001593675              -0.000978629               0.002083859               0.001105230               0.000000000               0.000000000               0.000000000               0.000000000              -0.000579203               0.005424623              -0.001436263              -0.000895278               0.002106615               0.001211338               0.000000000               0.000000000               0.000000000               0.000000000              -0.000314415               0.005506836              -0.001298524              -0.000806259               0.002104346               0.001298088               0.000000000               0.000000000               0.000000000               0.000000000              -0.000054466               0.005531913              -0.001168631              -0.000711913               0.002081257               0.001369344               0.000000000               0.000000000               0.000000000               0.000000000               0.000199984               0.005511341              -0.001034161              -0.000613923               0.002041736               0.001427813               0.000000000               0.000000000               0.000000000               0.000000000               0.000445266               0.005454533              -0.000887152              -0.000514841               0.001989773               0.001474932               0.000000000               0.000000000               0.000000000               0.000000000               0.000680131               0.005368498              -0.000720764              -0.000416012               0.001928152               0.001512140               0.000000000               0.000000000               0.000000000               0.000000000               0.000898837               0.005259153              -0.000529052              -0.000320330               0.001859810               0.001539480               0.000000000               0.000000000               0.000000000               0.000000000               0.001082973               0.005135428              -0.000291406              -0.000235813               0.001790397               0.001554584               0.000000000               0.000000000               0.000000000               0.000000000               0.001189736               0.005082218              -0.000162213              -0.000189126               0.001757097               0.001567972               0.000000000               0.000000000               0.000000000               0.000000000              -0.008169887              -0.000525192               0.000588252              -0.002998057               0.000824282              -0.002173774               0.000000000               0.000000000               0.000000000               0.000000000              -0.005332293               0.000412910              -0.000437273              -0.002051222               0.000821372              -0.001229850               0.000000000               0.000000000               0.000000000               0.000000000              -0.003266008               0.001290669              -0.001369535              -0.001386085               0.000892244              -0.000493840               0.000000000               0.000000000               0.000000000               0.000000000              -0.002208955               0.002226222              -0.001631321              -0.001106634               0.001110944               0.000004309               0.000000000               0.000000000               0.000000000               0.000000000              -0.001580147               0.003029320              -0.001637766              -0.000971218               0.001333502               0.000362284               0.000000000               0.000000000               0.000000000               0.000000000              -0.001155534               0.003668317              -0.001549231              -0.000891864               0.001520047               0.000628184               0.000000000               0.000000000               0.000000000               0.000000000              -0.000831471               0.004154218              -0.001428018              -0.000831077               0.001661751               0.000830673               0.000000000               0.000000000               0.000000000               0.000000000              -0.000552790               0.004519908              -0.001300666              -0.000772284               0.001764048               0.000991765               0.000000000               0.000000000               0.000000000               0.000000000              -0.000296307               0.004786798              -0.001182280              -0.000709464               0.001832071               0.001122607               0.000000000               0.000000000               0.000000000               0.000000000              -0.000043678               0.004980896              -0.001076589              -0.000638990               0.001873279               0.001234288               0.000000000               0.000000000               0.000000000               0.000000000               0.000213390               0.005112703              -0.000974871              -0.000559066               0.001890572               0.001331507               0.000000000               0.000000000               0.000000000               0.000000000               0.000481577               0.005187465              -0.000867807              -0.000467841               0.001885084               0.001417244               0.000000000               0.000000000               0.000000000               0.000000000               0.000764391               0.005216410              -0.000750976              -0.000365404               0.001860587               0.001495183               0.000000000               0.000000000               0.000000000               0.000000000               0.001069501               0.005207079              -0.000623677              -0.000249822               0.001818949               0.001569128               0.000000000               0.000000000               0.000000000               0.000000000               0.001399237               0.005164041              -0.000470401              -0.000120791               0.001761593               0.001640802               0.000000000               0.000000000               0.000000000               0.000000000               0.001745741               0.005093082              -0.000264201               0.000018017               0.001691671               0.001709688               0.000000000               0.000000000               0.000000000               0.000000000               0.001996741               0.005079354              -0.000154611               0.000113857               0.001655149               0.001769006               0.000000000               0.000000000               0.000000000               0.000000000              -0.009086092              -0.000707375               0.000367916              -0.003318860               0.000870489              -0.002448371               0.000000000               0.000000000               0.000000000               0.000000000              -0.005816185              -0.000025519              -0.000199093              -0.002177878               0.000717448              -0.001460430               0.000000000               0.000000000               0.000000000               0.000000000              -0.003329452               0.000575592              -0.000723057              -0.001320492               0.000632024              -0.000688469               0.000000000               0.000000000               0.000000000               0.000000000              -0.002076659               0.001435632              -0.000884212              -0.000958200               0.000797938              -0.000160262               0.000000000               0.000000000               0.000000000               0.000000000              -0.001363041               0.002256656              -0.000901882              -0.000793221               0.001016618               0.000223397               0.000000000               0.000000000               0.000000000               0.000000000              -0.000908646               0.002952270              -0.000863464              -0.000709775               0.001220671               0.000510897               0.000000000               0.000000000               0.000000000               0.000000000              -0.000581046               0.003511956              -0.000803489              -0.000656885               0.001389602               0.000732717               0.000000000               0.000000000               0.000000000               0.000000000              -0.000308766               0.003955291              -0.000736242              -0.000610198               0.001521816               0.000911619               0.000000000               0.000000000               0.000000000               0.000000000              -0.000058661               0.004295877              -0.000672493              -0.000558981               0.001618272               0.001059290               0.000000000               0.000000000               0.000000000               0.000000000               0.000186497               0.004560319              -0.000615976              -0.000500103               0.001686792               0.001186689               0.000000000               0.000000000               0.000000000               0.000000000               0.000441001               0.004765036              -0.000560339              -0.000430253               0.001731747               0.001301494               0.000000000               0.000000000               0.000000000               0.000000000               0.000716658               0.004912861              -0.000499586              -0.000345360               0.001752724               0.001407364               0.000000000               0.000000000               0.000000000               0.000000000               0.001026389               0.005008207              -0.000434295              -0.000241129               0.001749762               0.001508633               0.000000000               0.000000000               0.000000000               0.000000000               0.001379098               0.005060095              -0.000366103              -0.000115350               0.001725132               0.001609781               0.000000000               0.000000000               0.000000000               0.000000000               0.001783795               0.005074789              -0.000280637               0.000034574               0.001680055               0.001714629               0.000000000               0.000000000               0.000000000               0.000000000               0.002256373               0.005050749              -0.000158361               0.000214794               0.001611968               0.001826762               0.000000000               0.000000000               0.000000000               0.000000000               0.002628709               0.005070334              -0.000094316               0.000351971               0.001572771               0.001924741               0.000000000               0.000000000               0.000000000               0.000000000               0.000000000               0.000000000               0.000000000               0.000000000               0.000000000               0.000000000               0.000000000               0.000000000               0.000000000               0.000000000               0.000000000               0.000000000               0.000000000               0.000000000               0.000000000               0.000000000               0.000000000               0.000000000               0.000000000               0.000000000               0.000000000               0.000000000               0.000000000               0.000000000               0.000000000               0.000000000               0.000000000               0.000000000               0.000000000               0.000000000               0.000000000               0.000000000               0.000000000               0.000000000               0.000000000               0.000000000               0.000000000               0.000000000               0.000000000               0.000000000               0.000000000               0.000000000               0.000000000               0.000000000               0.000000000               0.000000000               0.000000000               0.000000000               0.000000000               0.000000000               0.000000000               0.000000000               0.000000000               0.000000000               0.000000000               0.000000000               0.000000000               0.000000000               0.000000000               0.000000000               0.000000000               0.000000000               0.000000000               0.000000000               0.000000000               0.000000000               0.000000000               0.000000000               0.000000000               0.000000000               0.000000000               0.000000000               0.000000000               0.000000000               0.000000000               0.000000000               0.000000000               0.000000000               0.000000000               0.000000000               0.000000000               0.000000000               0.000000000               0.000000000               0.000000000               0.000000000               0.000000000               0.000000000               0.000000000               0.000000000               0.000000000               0.000000000               0.000000000               0.000000000               0.000000000               0.000000000               0.000000000               0.000000000               0.000000000               0.000000000               0.000000000               0.000000000               0.000000000               0.000000000               0.000000000               0.000000000               0.000000000               0.000000000               0.000000000               0.000000000               0.000000000               0.000000000               0.000000000               0.000000000               0.000000000               0.000000000               0.000000000               0.000000000               0.000000000               0.000000000               0.000000000               0.000000000               0.000000000               0.000000000               0.000000000               0.000000000               0.000000000               0.000000000               0.000000000               0.000000000               0.000000000               0.000000000               0.000000000               0.000000000               0.000000000               0.000000000               0.000000000               0.000000000               0.000000000               0.000000000               0.000000000               0.000000000               0.000000000               0.000000000               0.000000000               0.000000000               0.000000000               0.000000000               0.000000000               0.000000000               0.000000000               0.000000000               0.000000000               0.000000000               0.000000000               0.000000000               0.000000000               0.000000000               0.000000000               0.000000000               0.000000000               0.000000000               0.000000000               0.000000000               0.000000000               0.000000000               0.000000000               0.000000000               0.000000000               0.000000000               0.000000000               0.000000000               0.000000000               0.000000000               0.000000000               0.000000000               0.000000000               0.000000000               0.000000000               0.000000000               0.000000000               0.000000000               0.000000000               0.000000000               0.000000000               0.000000000               0.000000000               0.000000000               0.000000000               0.000000000               0.000000000               0.000000000               0.000000000               0.000000000               0.000000000               0.000000000               0.000000000               0.000000000               0.000000000               0.000000000               0.000000000               0.000000000               0.000000000               0.000000000               0.000000000               0.000000000               0.000000000               0.000000000               0.000000000               0.000000000               0.000000000               0.000000000               0.000000000               0.000000000               0.000000000               0.000000000               0.000000000               0.000000000               0.000000000               0.000000000               0.000000000               0.000000000               0.000000000               0.000000000               0.000000000               0.000000000               0.000000000               0.000000000               0.000000000               0.000000000               0.000000000               0.000000000               0.000000000               0.000000000               0.000000000               0.000000000               0.000000000               0.000000000               0.000000000               0.000000000               0.000000000               0.000000000               0.000000000               0.000000000               0.000000000               0.000000000               0.000000000               0.000000000               0.000000000               0.000000000               0.000000000               0.000000000               0.000000000               0.000000000               0.000000000               0.000000000               0.000000000               0.000000000               0.000000000               0.000000000               0.000000000               0.000000000               0.000000000               0.000000000               0.000000000               0.000000000               0.000000000               0.000000000               0.000000000               0.000000000               0.000000000               0.000000000               0.000000000               0.000000000               0.000000000               0.000000000               0.000000000               0.000000000               0.000000000               0.000000000               0.000000000               0.000000000               0.000000000               0.000000000               0.000000000               0.000000000               0.000000000               0.000000000               0.000000000               0.000000000               0.000000000               0.000000000               0.000000000               0.000000000               0.000000000               0.000000000               0.000000000               0.000000000               0.000000000               0.000000000               0.000000000               0.000000000               0.000000000               0.000000000               0.000000000               0.000000000               0.000000000               0.000000000               0.000000000               0.000000000               0.000000000               0.000000000               0.000000000               0.000000000               0.000000000               0.000000000               0.000000000               0.000000000               0.000000000               0.000000000               0.000000000               0.000000000               0.000000000               0.000000000               0.000000000               0.000000000               0.000000000               0.000000000               0.000000000               0.000000000               0.000000000               0.000000000               0.000000000               0.000000000               0.000000000               0.000000000               0.000000000               0.000000000               0.000000000               0.000000000               0.002084575               0.021458734               0.001506981              -0.001900622               0.007786380               0.005885759               0.000000000               0.000000000               0.000000000               0.000000000               0.001982284               0.016931198               0.000768644              -0.001373040               0.006101356               0.004728316               0.000000000               0.000000000               0.000000000               0.000000000               0.002523260               0.013314931               0.000031547              -0.000718142               0.004677647               0.003959505               0.000000000               0.000000000               0.000000000               0.000000000               0.002397078               0.011291945              -0.000283572              -0.000512588               0.003934807               0.003422219               0.000000000               0.000000000               0.000000000               0.000000000               0.002075214               0.010033334              -0.000411753              -0.000475960               0.003503065               0.003027104               0.000000000               0.000000000               0.000000000               0.000000000               0.001720622               0.009165582              -0.000450219              -0.000500463               0.003221985               0.002721521               0.000000000               0.000000000               0.000000000               0.000000000               0.001390805               0.008508849              -0.000450326              -0.000542053               0.003016939               0.002474886               0.000000000               0.000000000               0.000000000               0.000000000               0.001100797               0.007975312              -0.000438925              -0.000584114               0.002853115               0.002269001               0.000000000               0.000000000               0.000000000               0.000000000               0.000854607               0.007522093              -0.000419825              -0.000619783               0.002713933               0.002094151               0.000000000               0.000000000               0.000000000               0.000000000               0.000644418               0.007111621              -0.000396137              -0.000647294               0.002586281               0.001938987               0.000000000               0.000000000               0.000000000               0.000000000               0.000464172               0.006724536              -0.000373827              -0.000666501               0.002463656               0.001797156               0.000000000               0.000000000               0.000000000               0.000000000               0.000312510               0.006347003              -0.000350621              -0.000676182               0.002341041               0.001664858               0.000000000               0.000000000               0.000000000               0.000000000               0.000191735               0.005965601              -0.000320397              -0.000673798               0.002213113               0.001539315               0.000000000               0.000000000               0.000000000               0.000000000               0.000103849               0.005570038              -0.000278008              -0.000657310               0.002075764               0.001418454               0.000000000               0.000000000               0.000000000               0.000000000               0.000042646               0.005147471              -0.000219648              -0.000627440               0.001924953               0.001297513               0.000000000               0.000000000               0.000000000               0.000000000               0.000010082               0.004684559              -0.000130167              -0.000581788               0.001755433               0.001173646               0.000000000               0.000000000               0.000000000               0.000000000              -0.000033805               0.004338244              -0.000081153              -0.000554956               0.001631052               0.001076096               0.000000000               0.000000000               0.000000000               0.000000000               0.002275375               0.020195745               0.002807260              -0.001671199               0.007288914               0.005617714               0.000000000               0.000000000               0.000000000               0.000000000               0.001872806               0.016112693               0.001429455              -0.001311782               0.005808104               0.004496323               0.000000000               0.000000000               0.000000000               0.000000000               0.002095013               0.012959475               0.000066615              -0.000834303               0.004597883               0.003763580               0.000000000               0.000000000               0.000000000               0.000000000               0.001851153               0.011172408              -0.000493519              -0.000702367               0.003958221               0.003255854               0.000000000               0.000000000               0.000000000               0.000000000               0.001506606               0.010029112              -0.000712056              -0.000688660               0.003572557               0.002883897               0.000000000               0.000000000               0.000000000               0.000000000               0.001176218               0.009220322              -0.000773961              -0.000711457               0.003310562               0.002599105               0.000000000               0.000000000               0.000000000               0.000000000               0.000891913               0.008596119              -0.000768267              -0.000740046               0.003112026               0.002371981               0.000000000               0.000000000               0.000000000               0.000000000               0.000662940               0.008082353              -0.000743439              -0.000761690               0.002947987               0.002186297               0.000000000               0.000000000               0.000000000               0.000000000               0.000482498               0.007636692              -0.000709956              -0.000773648               0.002803421               0.002029773               0.000000000               0.000000000               0.000000000               0.000000000               0.000336554               0.007234339              -0.000669408              -0.000778083               0.002670783               0.001892700               0.000000000               0.000000000               0.000000000               0.000000000               0.000218658               0.006859093              -0.000628057              -0.000775388               0.002544804               0.001769416               0.000000000               0.000000000               0.000000000               0.000000000               0.000127771               0.006496634              -0.000580790              -0.000764163               0.002420244               0.001656081               0.000000000               0.000000000               0.000000000               0.000000000               0.000061709               0.006139972              -0.000522091              -0.000744354               0.002294755               0.001550401               0.000000000               0.000000000               0.000000000               0.000000000               0.000020054               0.005791094              -0.000447358              -0.000716365               0.002169133               0.001452769               0.000000000               0.000000000               0.000000000               0.000000000              -0.000002933               0.005449847              -0.000347679              -0.000682329               0.002044041               0.001361711               0.000000000               0.000000000               0.000000000               0.000000000              -0.000009769               0.005114858              -0.000201093              -0.000643019               0.001919275               0.001276256               0.000000000               0.000000000               0.000000000               0.000000000              -0.000030520               0.004888285              -0.000120357              -0.000622479               0.001836905               0.001214426               0.000000000               0.000000000               0.000000000               0.000000000               0.002478739               0.018272952               0.003737816              -0.001354591               0.006542453               0.005187862               0.000000000               0.000000000               0.000000000               0.000000000               0.001653679               0.014887066               0.001910643              -0.001240751               0.005375889               0.004135138               0.000000000               0.000000000               0.000000000               0.000000000               0.001429364               0.012432805               0.000130151              -0.001018087               0.004483589               0.003465502               0.000000000               0.000000000               0.000000000               0.000000000               0.001052081               0.010979472              -0.000563228              -0.000977901               0.003985754               0.003007853               0.000000000               0.000000000               0.000000000               0.000000000               0.000709613               0.009996593              -0.000823045              -0.000983467               0.003659987               0.002676520               0.000000000               0.000000000               0.000000000               0.000000000               0.000442532               0.009269743              -0.000891112              -0.000992766               0.003420805               0.002428039               0.000000000               0.000000000               0.000000000               0.000000000               0.000243163               0.008691384              -0.000878761              -0.000995235               0.003228844               0.002233609               0.000000000               0.000000000               0.000000000               0.000000000               0.000105274               0.008205217              -0.000841072              -0.000986172               0.003063769               0.002077597               0.000000000               0.000000000               0.000000000               0.000000000               0.000014075               0.007771298              -0.000793845              -0.000966132               0.002912451               0.001946319               0.000000000               0.000000000               0.000000000               0.000000000              -0.000048596               0.007375246              -0.000740343              -0.000940127               0.002771766               0.001831639               0.000000000               0.000000000               0.000000000               0.000000000              -0.000088507               0.007004714              -0.000683195              -0.000908777               0.002637807               0.001729030               0.000000000               0.000000000               0.000000000               0.000000000              -0.000106424               0.006655754              -0.000617253              -0.000871876               0.002509188               0.001637312               0.000000000               0.000000000               0.000000000               0.000000000              -0.000109217               0.006326736              -0.000540007              -0.000831797               0.002386156               0.001554360               0.000000000               0.000000000               0.000000000               0.000000000              -0.000095669               0.006024071              -0.000449663              -0.000788883               0.002270965               0.001482082               0.000000000               0.000000000               0.000000000               0.000000000              -0.000072229               0.005753885              -0.000337845              -0.000746320               0.002166716               0.001420396               0.000000000               0.000000000               0.000000000               0.000000000              -0.000041556               0.005523269              -0.000187413              -0.000705990               0.002076401               0.001370411               0.000000000               0.000000000               0.000000000               0.000000000              -0.000035731               0.005391099              -0.000107196              -0.000687285               0.002026110               0.001338825               0.000000000               0.000000000               0.000000000               0.000000000               0.002561945               0.015915524               0.004223638              -0.001028712               0.005648025               0.004619313               0.000000000               0.000000000               0.000000000               0.000000000               0.001294700               0.013414052               0.002194482              -0.001191242               0.004868387               0.003677144               0.000000000               0.000000000               0.000000000               0.000000000               0.000602459               0.011799224               0.000246242              -0.001248978               0.004349361               0.003100383               0.000000000               0.000000000               0.000000000               0.000000000               0.000141939               0.010714910              -0.000468255              -0.001286133               0.004000312               0.002714179               0.000000000               0.000000000               0.000000000               0.000000000              -0.000145467               0.009904486              -0.000722887              -0.001292608               0.003732331               0.002439724               0.000000000               0.000000000               0.000000000               0.000000000              -0.000310781               0.009263767              -0.000785596              -0.001274511               0.003512728               0.002238218               0.000000000               0.000000000               0.000000000               0.000000000              -0.000393486               0.008730162              -0.000769203              -0.001238825               0.003322966               0.002084142               0.000000000               0.000000000               0.000000000               0.000000000              -0.000424677               0.008259557              -0.000726066              -0.001191696               0.003150390               0.001958694               0.000000000               0.000000000               0.000000000               0.000000000              -0.000423001               0.007827146              -0.000675787              -0.001137016               0.002988028               0.001851012               0.000000000               0.000000000               0.000000000               0.000000000              -0.000399450               0.007424273              -0.000623271              -0.001077825               0.002834008               0.001756183               0.000000000               0.000000000               0.000000000               0.000000000              -0.000362137               0.007052082              -0.000568160              -0.001017309               0.002689773               0.001672464               0.000000000               0.000000000               0.000000000               0.000000000              -0.000315989               0.006713721              -0.000503807              -0.000957709               0.002557121               0.001599412               0.000000000               0.000000000               0.000000000               0.000000000              -0.000267324               0.006410284              -0.000427897              -0.000901530               0.002437250               0.001535720               0.000000000               0.000000000               0.000000000               0.000000000              -0.000211488               0.006144448              -0.000344028              -0.000847362               0.002330583               0.001483221               0.000000000               0.000000000               0.000000000               0.000000000              -0.000143246               0.005918236              -0.000247832              -0.000793495               0.002237224               0.001443729               0.000000000               0.000000000               0.000000000               0.000000000              -0.000071314               0.005739022              -0.000132537              -0.000744118               0.002161028               0.001416909               0.000000000               0.000000000               0.000000000               0.000000000              -0.000047072               0.005644242              -0.000076954              -0.000723180               0.002122455               0.001399275               0.000000000               0.000000000               0.000000000               0.000000000               0.002408713               0.013367150               0.004275187              -0.000767628               0.004711547               0.003943919               0.000000000               0.000000000               0.000000000               0.000000000               0.000795138               0.011851016               0.002305956              -0.001183199               0.004344698               0.003161499               0.000000000               0.000000000               0.000000000               0.000000000              -0.000280193               0.011108304               0.000434700              -0.001493607               0.004200600               0.002706993               0.000000000               0.000000000               0.000000000               0.000000000              -0.000744165               0.010380515              -0.000213508              -0.001576623               0.003985678               0.002409055               0.000000000               0.000000000               0.000000000               0.000000000              -0.000917325               0.009735192              -0.000441014              -0.001560892               0.003765329               0.002204437               0.000000000               0.000000000               0.000000000               0.000000000              -0.000945121               0.009167261              -0.000505150              -0.001500324               0.003555831               0.002055507               0.000000000               0.000000000               0.000000000               0.000000000              -0.000901025               0.008654459              -0.000499042              -0.001419688               0.003358020               0.001938332               0.000000000               0.000000000               0.000000000               0.000000000              -0.000824750               0.008180308              -0.000467820              -0.001331816               0.003170681               0.001838864               0.000000000               0.000000000               0.000000000               0.000000000              -0.000732123               0.007738616              -0.000429220              -0.001241870               0.002993470               0.001751600               0.000000000               0.000000000               0.000000000               0.000000000              -0.000634204               0.007327131              -0.000392234              -0.001153715               0.002826924               0.001673209               0.000000000               0.000000000               0.000000000               0.000000000              -0.000536038               0.006954053              -0.000356827              -0.001070268               0.002674751               0.001604482               0.000000000               0.000000000               0.000000000               0.000000000              -0.000441496               0.006624714              -0.000316049              -0.000993648               0.002539432               0.001545784               0.000000000               0.000000000               0.000000000               0.000000000              -0.000351414               0.006340989              -0.000266591              -0.000924402               0.002421776               0.001497374               0.000000000               0.000000000               0.000000000               0.000000000              -0.000259061               0.006100253              -0.000208532              -0.000859677               0.002319956               0.001460279               0.000000000               0.000000000               0.000000000               0.000000000              -0.000162611               0.005900410              -0.000142168              -0.000798528               0.002232960               0.001434432               0.000000000               0.000000000               0.000000000               0.000000000              -0.000074759               0.005750431              -0.000071295              -0.000746837               0.002165737               0.001418900               0.000000000               0.000000000               0.000000000               0.000000000              -0.000045321               0.005674165              -0.000042031              -0.000726264               0.002133458               0.001407193               0.000000000               0.000000000               0.000000000               0.000000000               0.001960518               0.010837749               0.003964737              -0.000619527               0.003819055               0.003199528               0.000000000               0.000000000               0.000000000               0.000000000               0.000180871               0.010321122               0.002294322              -0.001222312               0.003847776               0.002625464               0.000000000               0.000000000               0.000000000               0.000000000              -0.001116412               0.010397022               0.000701792              -0.001718278               0.004038399               0.002320121               0.000000000               0.000000000               0.000000000               0.000000000              -0.001486201               0.009979814               0.000158245              -0.001804798               0.003928171               0.002123373               0.000000000               0.000000000               0.000000000               0.000000000              -0.001508899               0.009464897              -0.000050325              -0.001748945               0.003737916               0.001988971               0.000000000               0.000000000               0.000000000               0.000000000              -0.001396081               0.008942160              -0.000128749              -0.001641296               0.003527789               0.001886493               0.000000000               0.000000000               0.000000000               0.000000000              -0.001234595               0.008434565              -0.000148184              -0.001517290               0.003317257               0.001799967               0.000000000               0.000000000               0.000000000               0.000000000              -0.001062938               0.007952301              -0.000146033              -0.001392636               0.003114952               0.001722316               0.000000000               0.000000000               0.000000000               0.000000000              -0.000891786               0.007504437              -0.000137459              -0.001272471               0.002925611               0.001653140               0.000000000               0.000000000               0.000000000               0.000000000              -0.000731248               0.007097180              -0.000130606              -0.001161363               0.002752824               0.001591461               0.000000000               0.000000000               0.000000000               0.000000000              -0.000586807               0.006733764              -0.000129777              -0.001061770               0.002598489               0.001536719               0.000000000               0.000000000               0.000000000               0.000000000              -0.000454880               0.006417357              -0.000127046              -0.000972747               0.002463347               0.001490600               0.000000000               0.000000000               0.000000000               0.000000000              -0.000333455               0.006145030              -0.000114555              -0.000893172               0.002346047               0.001452875               0.000000000               0.000000000               0.000000000               0.000000000              -0.000223838               0.005915503              -0.000089548              -0.000823375               0.002246273               0.001422898               0.000000000               0.000000000               0.000000000               0.000000000              -0.000128489               0.005733915              -0.000057053              -0.000764921               0.002166260               0.001401339               0.000000000               0.000000000               0.000000000               0.000000000              -0.000054624               0.005605735              -0.000027409              -0.000721199               0.002108959               0.001387760               0.000000000               0.000000000               0.000000000               0.000000000              -0.000033779               0.005541303              -0.000019845              -0.000705328               0.002082192               0.001376864               0.000000000               0.000000000               0.000000000               0.000000000               0.001248344               0.008484054               0.003384953              -0.000592380               0.003025448               0.002433069               0.000000000               0.000000000               0.000000000               0.000000000              -0.000503703               0.008917092               0.002204674              -0.001303523               0.003406842               0.002103318               0.000000000               0.000000000               0.000000000               0.000000000              -0.001818022               0.009681071               0.001035770              -0.001891888               0.003857620               0.001965733               0.000000000               0.000000000               0.000000000               0.000000000              -0.002015875               0.009498580               0.000590576              -0.001943271               0.003813919               0.001870648               0.000000000               0.000000000               0.000000000               0.000000000              -0.001881929               0.009076125               0.000378895              -0.001840234               0.003638756               0.001798522               0.000000000               0.000000000               0.000000000               0.000000000              -0.001643857               0.008590417               0.000268660              -0.001690244               0.003426858               0.001736614               0.000000000               0.000000000               0.000000000               0.000000000              -0.001382106               0.008094038               0.000206982              -0.001530041               0.003207999               0.001677958               0.000000000               0.000000000               0.000000000               0.000000000              -0.001134262               0.007617879               0.000165635              -0.001377580               0.002998461               0.001620881               0.000000000               0.000000000               0.000000000               0.000000000              -0.000907766               0.007177877               0.000130572              -0.001237644               0.002805150               0.001567506               0.000000000               0.000000000               0.000000000               0.000000000              -0.000705545               0.006783512               0.000095382              -0.001112515               0.002631987               0.001519471               0.000000000               0.000000000               0.000000000               0.000000000              -0.000532930               0.006434388               0.000056716              -0.001004145               0.002479489               0.001475345               0.000000000               0.000000000               0.000000000               0.000000000              -0.000385443               0.006127212               0.000022724              -0.000910441               0.002345864               0.001435423               0.000000000               0.000000000               0.000000000               0.000000000              -0.000257707               0.005862372               0.000000486              -0.000829435               0.002230583               0.001401148               0.000000000               0.000000000               0.000000000               0.000000000              -0.000154810               0.005645169              -0.000009276              -0.000763698               0.002136270               0.001372572               0.000000000               0.000000000               0.000000000               0.000000000              -0.000082510               0.005483165              -0.000009654              -0.000716335               0.002066482               0.001350147               0.000000000               0.000000000               0.000000000               0.000000000              -0.000036980               0.005372295              -0.000007584              -0.000685403               0.002019215               0.001333812               0.000000000               0.000000000               0.000000000               0.000000000              -0.000025420               0.005315346              -0.000010813              -0.000673949               0.001996414               0.001322465               0.000000000               0.000000000               0.000000000               0.000000000               0.000384080               0.006483936               0.002643968              -0.000666463               0.002383444               0.001716981               0.000000000               0.000000000               0.000000000               0.000000000              -0.001159643               0.007666342               0.002085448              -0.001393157               0.003019807               0.001626650               0.000000000               0.000000000               0.000000000               0.000000000              -0.002342543               0.008967815               0.001426636              -0.001999426               0.003655717               0.001656291               0.000000000               0.000000000               0.000000000               0.000000000              -0.002359899               0.009011097               0.001045610              -0.002011344               0.003674117               0.001662773               0.000000000               0.000000000               0.000000000               0.000000000              -0.002099055               0.008704334               0.000809932              -0.001875183               0.003526477               0.001651294               0.000000000               0.000000000               0.000000000               0.000000000              -0.001770344               0.008279662               0.000655064              -0.001698832               0.003326137               0.001627305               0.000000000               0.000000000               0.000000000               0.000000000              -0.001437160               0.007822261               0.000545436              -0.001516714               0.003112966               0.001596252               0.000000000               0.000000000               0.000000000               0.000000000              -0.001132270               0.007372715               0.000456223              -0.001346187               0.002906276               0.001560089               0.000000000               0.000000000               0.000000000               0.000000000              -0.000864767               0.006951781               0.000376773              -0.001193257               0.002714989               0.001521732               0.000000000               0.000000000               0.000000000               0.000000000              -0.000633994               0.006572829               0.000302140              -0.001059349               0.002544037               0.001484689               0.000000000               0.000000000               0.000000000               0.000000000              -0.000442961               0.006235833               0.000230279              -0.000945587               0.002393786               0.001448199               0.000000000               0.000000000               0.000000000               0.000000000              -0.000288643               0.005934236               0.000163462              -0.000850019               0.002261398               0.001411380               0.000000000               0.000000000               0.000000000               0.000000000              -0.000170261               0.005668516               0.000101956              -0.000772410               0.002146957               0.001374546               0.000000000               0.000000000               0.000000000               0.000000000              -0.000103385               0.005449472               0.000051085              -0.000719951               0.002056456               0.001336505               0.000000000               0.000000000               0.000000000               0.000000000              -0.000081684               0.005286837               0.000017829              -0.000691484               0.001992756               0.001301272               0.000000000               0.000000000               0.000000000               0.000000000              -0.000077726               0.005174786               0.000000938              -0.000675994               0.001950243               0.001274249               0.000000000               0.000000000               0.000000000               0.000000000              -0.000077103               0.005120886              -0.000005837              -0.000669023               0.001929953               0.001260930               0.000000000               0.000000000               0.000000000               0.000000000              -0.000642934               0.004618886               0.001847607              -0.000818460               0.001812433               0.000993972               0.000000000               0.000000000               0.000000000               0.000000000              -0.001691269               0.006211912               0.001948091              -0.001410712               0.002540853               0.001130141               0.000000000               0.000000000               0.000000000               0.000000000              -0.002625526               0.007885860               0.001842617              -0.001970300               0.003285360               0.001315060               0.000000000               0.000000000               0.000000000               0.000000000              -0.002550416               0.008260353               0.001532945              -0.001988946               0.003416405               0.001427460               0.000000000               0.000000000               0.000000000               0.000000000              -0.002240627               0.008181926               0.001270327              -0.001862972               0.003348272               0.001485300               0.000000000               0.000000000               0.000000000               0.000000000              -0.001885121               0.007924781               0.001065446              -0.001697514               0.003207405               0.001509891               0.000000000               0.000000000               0.000000000               0.000000000              -0.001534563               0.007592501               0.000903426              -0.001524520               0.003038981               0.001514462               0.000000000               0.000000000               0.000000000               0.000000000              -0.001216744               0.007226936               0.000768694              -0.001359643               0.002862169               0.001502526               0.000000000               0.000000000               0.000000000               0.000000000              -0.000933564               0.006865849               0.000652122              -0.001208315               0.002691365               0.001483050               0.000000000               0.000000000               0.000000000               0.000000000              -0.000688368               0.006526095               0.000545895              -0.001073897               0.002533309               0.001459412               0.000000000               0.000000000               0.000000000               0.000000000              -0.000482436               0.006216093               0.000445637              -0.000957923               0.002391318               0.001433395               0.000000000               0.000000000               0.000000000               0.000000000              -0.000321871               0.005927436               0.000346314              -0.000861629               0.002263002               0.001401373               0.000000000               0.000000000               0.000000000               0.000000000              -0.000205231               0.005662136               0.000241837              -0.000784727               0.002148935               0.001364209               0.000000000               0.000000000               0.000000000               0.000000000              -0.000138370               0.005431106               0.000142192              -0.000730775               0.002053943               0.001323167               0.000000000               0.000000000               0.000000000               0.000000000              -0.000124748               0.005246265               0.000067352              -0.000702562               0.001982925               0.001280363               0.000000000               0.000000000               0.000000000               0.000000000              -0.000149487               0.005106620               0.000020654              -0.000694383               0.001933651               0.001239267               0.000000000               0.000000000               0.000000000               0.000000000              -0.000173014               0.005037867               0.000000748              -0.000694612               0.001910810               0.001216198               0.000000000               0.000000000               0.000000000               0.000000000              -0.001981808               0.002932710               0.001051062              -0.001109764               0.001347481               0.000237717               0.000000000               0.000000000               0.000000000               0.000000000              -0.002291661               0.004747861               0.001738413              -0.001452853               0.002066888               0.000614035               0.000000000               0.000000000               0.000000000               0.000000000              -0.002819285               0.006617706               0.002166187              -0.001884441               0.002834026               0.000949585               0.000000000               0.000000000               0.000000000               0.000000000              -0.002663779               0.007308901               0.001993158              -0.001912526               0.003073784               0.001161258               0.000000000               0.000000000               0.000000000               0.000000000              -0.002331168               0.007495767               0.001732422              -0.001811155               0.003102282               0.001291127               0.000000000               0.000000000               0.000000000               0.000000000              -0.001970337               0.007448333               0.001493526              -0.001669914               0.003039390               0.001369476               0.000000000               0.000000000               0.000000000               0.000000000              -0.001618184               0.007281037               0.001288300              -0.001516945               0.002932636               0.001415691               0.000000000               0.000000000               0.000000000               0.000000000              -0.001293804               0.007042241               0.001116878              -0.001365454               0.002802541               0.001437088               0.000000000               0.000000000               0.000000000               0.000000000              -0.000998259               0.006776644               0.000971869              -0.001221425               0.002666000               0.001444575               0.000000000               0.000000000               0.000000000               0.000000000              -0.000734928               0.006507440               0.000841158              -0.001089025               0.002532133               0.001443108               0.000000000               0.000000000               0.000000000               0.000000000              -0.000508197               0.006242821               0.000718027              -0.000970924               0.002404561               0.001433637               0.000000000               0.000000000               0.000000000               0.000000000              -0.000327719               0.005982292               0.000591925              -0.000870679               0.002284304               0.001413625               0.000000000               0.000000000               0.000000000               0.000000000              -0.000195494               0.005733212               0.000456021              -0.000789960               0.002174372               0.001384412               0.000000000               0.000000000               0.000000000               0.000000000              -0.000111488               0.005499364               0.000314715              -0.000729227               0.002076179               0.001346952               0.000000000               0.000000000               0.000000000               0.000000000              -0.000086161               0.005297060               0.000184049              -0.000694441               0.001997150               0.001302708               0.000000000               0.000000000               0.000000000               0.000000000              -0.000129455               0.005130239               0.000077320              -0.000689824               0.001940004               0.001250180               0.000000000               0.000000000               0.000000000               0.000000000              -0.000186412               0.005041569               0.000024636              -0.000700099               0.001913872               0.001213773               0.000000000               0.000000000               0.000000000               0.000000000              -0.003540885               0.001545866               0.000320823              -0.001521063               0.001022303              -0.000498760               0.000000000               0.000000000               0.000000000               0.000000000              -0.003016261               0.003363253               0.001436252              -0.001551501               0.001638239               0.000086738               0.000000000               0.000000000               0.000000000               0.000000000              -0.002958202               0.005193167               0.002291248              -0.001758468               0.002317193               0.000558725               0.000000000               0.000000000               0.000000000               0.000000000              -0.002654110               0.006102387               0.002295280              -0.001758086               0.002620136               0.000862050               0.000000000               0.000000000               0.000000000               0.000000000              -0.002290833               0.006531612               0.002085806              -0.001675511               0.002735685               0.001060175               0.000000000               0.000000000               0.000000000               0.000000000              -0.001926630               0.006705567               0.001844761              -0.001560679               0.002755393               0.001194714               0.000000000               0.000000000               0.000000000               0.000000000              -0.001579478               0.006725454               0.001617956              -0.001432983               0.002719456               0.001286473               0.000000000               0.000000000               0.000000000               0.000000000              -0.001258626               0.006643864               0.001422183              -0.001302465               0.002648754               0.001346289               0.000000000               0.000000000               0.000000000               0.000000000              -0.000962560               0.006502828               0.001257372              -0.001173811               0.002558858               0.001385047               0.000000000               0.000000000               0.000000000               0.000000000              -0.000689124               0.006331732               0.001112627              -0.001049886               0.002460518               0.001410632               0.000000000               0.000000000               0.000000000               0.000000000              -0.000444667               0.006141513               0.000976228              -0.000934437               0.002358629               0.001424192               0.000000000               0.000000000               0.000000000               0.000000000              -0.000237574               0.005938722               0.000834299              -0.000831429               0.002256697               0.001425268               0.000000000               0.000000000               0.000000000               0.000000000              -0.000075785               0.005731300               0.000679879              -0.000744830               0.002158691               0.001413861               0.000000000               0.000000000               0.000000000               0.000000000               0.000035905               0.005523668               0.000511793              -0.000676993               0.002066868               0.001389876               0.000000000               0.000000000               0.000000000               0.000000000               0.000088837               0.005327817               0.000335511              -0.000632662               0.001986809               0.001354147               0.000000000               0.000000000               0.000000000               0.000000000               0.000067107               0.005152588               0.000162343              -0.000618907               0.001923814               0.001304908               0.000000000               0.000000000               0.000000000               0.000000000               0.000010367               0.005057637               0.000070377              -0.000628315               0.001895301               0.001266985               0.000000000               0.000000000               0.000000000               0.000000000              -0.005201896               0.000526936              -0.000245623              -0.002016576               0.000847831              -0.001168744               0.000000000               0.000000000               0.000000000               0.000000000              -0.003820342               0.002136971               0.001083100              -0.001699747               0.001278897              -0.000420850               0.000000000               0.000000000               0.000000000               0.000000000              -0.003071473               0.003733788               0.002194600              -0.001618523               0.001784090               0.000165567               0.000000000               0.000000000               0.000000000               0.000000000              -0.002542204               0.004744758               0.002358643              -0.001546419               0.002097042               0.000550623               0.000000000               0.000000000               0.000000000               0.000000000              -0.002117612               0.005366355               0.002231342              -0.001464896               0.002277065               0.000812169               0.000000000               0.000000000               0.000000000               0.000000000              -0.001750209               0.005737979               0.002027763              -0.001373573               0.002370498               0.000996924               0.000000000               0.000000000               0.000000000               0.000000000              -0.001415698               0.005941888               0.001809870              -0.001273620               0.002405149               0.001131529               0.000000000               0.000000000               0.000000000               0.000000000              -0.001104593               0.006030945               0.001609916              -0.001168088               0.002399657               0.001231569               0.000000000               0.000000000               0.000000000               0.000000000              -0.000815409               0.006036675               0.001438485              -0.001060361               0.002365658               0.001305297               0.000000000               0.000000000               0.000000000               0.000000000              -0.000541901               0.005988056               0.001289250              -0.000951718               0.002313238               0.001361520               0.000000000               0.000000000               0.000000000               0.000000000              -0.000285874               0.005899056               0.001149333              -0.000844583               0.002247860               0.001403277               0.000000000               0.000000000               0.000000000               0.000000000              -0.000054040               0.005778812               0.001004565              -0.000742615               0.002173790               0.001431175               0.000000000               0.000000000               0.000000000               0.000000000               0.000148240               0.005636170               0.000846224              -0.000648930               0.002095014               0.001446084               0.000000000               0.000000000               0.000000000               0.000000000               0.000312040               0.005481336               0.000667718              -0.000568151               0.002016477               0.001448326               0.000000000               0.000000000               0.000000000               0.000000000               0.000427173               0.005319066               0.000469337              -0.000504692               0.001941235               0.001436543               0.000000000               0.000000000               0.000000000               0.000000000               0.000477842               0.005157182               0.000247038              -0.000465456               0.001874195               0.001408740               0.000000000               0.000000000               0.000000000               0.000000000               0.000473486               0.005073558               0.000125451              -0.000456636               0.001843381               0.001386745               0.000000000               0.000000000               0.000000000               0.000000000              -0.006809440              -0.000139308              -0.000559479              -0.002536125               0.000798933              -0.001737191               0.000000000               0.000000000               0.000000000               0.000000000              -0.004628857               0.001141062               0.000735683              -0.001878452               0.001006498              -0.000871954               0.000000000               0.000000000               0.000000000               0.000000000              -0.003175954               0.002382883               0.001877973              -0.001488841               0.001290565              -0.000198276               0.000000000               0.000000000               0.000000000               0.000000000              -0.002379230               0.003388051               0.002140056              -0.001315715               0.001567910               0.000252194               0.000000000               0.000000000               0.000000000               0.000000000              -0.001856941               0.004137431               0.002091989              -0.001213530               0.001783639               0.000570109               0.000000000               0.000000000               0.000000000               0.000000000              -0.001468441               0.004668151               0.001944511              -0.001134182               0.001934095               0.000799913               0.000000000               0.000000000               0.000000000               0.000000000              -0.001145974               0.005028681               0.001767923              -0.001058324               0.002028984               0.000970661               0.000000000               0.000000000               0.000000000               0.000000000              -0.000852014               0.005273002               0.001593675              -0.000978629               0.002083859               0.001105230               0.000000000               0.000000000               0.000000000               0.000000000              -0.000579203               0.005424623               0.001436263              -0.000895278               0.002106615               0.001211338               0.000000000               0.000000000               0.000000000               0.000000000              -0.000314415               0.005506836               0.001298524              -0.000806259               0.002104346               0.001298088               0.000000000               0.000000000               0.000000000               0.000000000              -0.000054466               0.005531913               0.001168631              -0.000711913               0.002081257               0.001369344               0.000000000               0.000000000               0.000000000               0.000000000               0.000199984               0.005511341               0.001034161              -0.000613923               0.002041736               0.001427813               0.000000000               0.000000000               0.000000000               0.000000000               0.000445266               0.005454533               0.000887152              -0.000514841               0.001989773               0.001474932               0.000000000               0.000000000               0.000000000               0.000000000               0.000680131               0.005368498               0.000720764              -0.000416012               0.001928152               0.001512140               0.000000000               0.000000000               0.000000000               0.000000000               0.000898837               0.005259153               0.000529052              -0.000320330               0.001859810               0.001539480               0.000000000               0.000000000               0.000000000               0.000000000               0.001082973               0.005135428               0.000291406              -0.000235813               0.001790397               0.001554584               0.000000000               0.000000000               0.000000000               0.000000000               0.001189736               0.005082218               0.000162213              -0.000189126               0.001757097               0.001567972               0.000000000               0.000000000               0.000000000               0.000000000              -0.008169887              -0.000525192              -0.000588252              -0.002998057               0.000824282              -0.002173774               0.000000000               0.000000000               0.000000000               0.000000000              -0.005332293               0.000412910               0.000437273              -0.002051222               0.000821372              -0.001229850               0.000000000               0.000000000               0.000000000               0.000000000              -0.003266008               0.001290669               0.001369535              -0.001386085               0.000892244              -0.000493840               0.000000000               0.000000000               0.000000000               0.000000000              -0.002208955               0.002226222               0.001631321              -0.001106634               0.001110944               0.000004309               0.000000000               0.000000000               0.000000000               0.000000000              -0.001580147               0.003029320               0.001637766              -0.000971218               0.001333502               0.000362284               0.000000000               0.000000000               0.000000000               0.000000000              -0.001155534               0.003668317               0.001549231              -0.000891864               0.001520047               0.000628184               0.000000000               0.000000000               0.000000000               0.000000000              -0.000831471               0.004154218               0.001428018              -0.000831077               0.001661751               0.000830673               0.000000000               0.000000000               0.000000000               0.000000000              -0.000552790               0.004519908               0.001300666              -0.000772284               0.001764048               0.000991765               0.000000000               0.000000000               0.000000000               0.000000000              -0.000296307               0.004786798               0.001182280              -0.000709464               0.001832071               0.001122607               0.000000000               0.000000000               0.000000000               0.000000000              -0.000043678               0.004980896               0.001076589              -0.000638990               0.001873279               0.001234288               0.000000000               0.000000000               0.000000000               0.000000000               0.000213390               0.005112703               0.000974871              -0.000559066               0.001890572               0.001331507               0.000000000               0.000000000               0.000000000               0.000000000               0.000481577               0.005187465               0.000867807              -0.000467841               0.001885084               0.001417244               0.000000000               0.000000000               0.000000000               0.000000000               0.000764391               0.005216410               0.000750976              -0.000365404               0.001860587               0.001495183               0.000000000               0.000000000               0.000000000               0.000000000               0.001069501               0.005207079               0.000623677              -0.000249822               0.001818949               0.001569128               0.000000000               0.000000000               0.000000000               0.000000000               0.001399237               0.005164041               0.000470401              -0.000120791               0.001761593               0.001640802               0.000000000               0.000000000               0.000000000               0.000000000               0.001745741               0.005093082               0.000264201               0.000018017               0.001691671               0.001709688               0.000000000               0.000000000               0.000000000               0.000000000               0.001996741               0.005079354               0.000154611               0.000113857               0.001655149               0.001769006               0.000000000               0.000000000               0.000000000               0.000000000              -0.009086092              -0.000707375              -0.000367916              -0.003318860               0.000870489              -0.002448371               0.000000000               0.000000000               0.000000000               0.000000000              -0.005816185              -0.000025519               0.000199093              -0.002177878               0.000717448              -0.001460430               0.000000000               0.000000000               0.000000000               0.000000000              -0.003329452               0.000575592               0.000723057              -0.001320492               0.000632024              -0.000688469               0.000000000               0.000000000               0.000000000               0.000000000              -0.002076659               0.001435632               0.000884212              -0.000958200               0.000797938              -0.000160262               0.000000000               0.000000000               0.000000000               0.000000000              -0.001363041               0.002256656               0.000901882              -0.000793221               0.001016618               0.000223397               0.000000000               0.000000000               0.000000000               0.000000000              -0.000908646               0.002952270               0.000863464              -0.000709775               0.001220671               0.000510897               0.000000000               0.000000000               0.000000000               0.000000000              -0.000581046               0.003511956               0.000803489              -0.000656885               0.001389602               0.000732717               0.000000000               0.000000000               0.000000000               0.000000000              -0.000308766               0.003955291               0.000736242              -0.000610198               0.001521816               0.000911619               0.000000000               0.000000000               0.000000000               0.000000000              -0.000058661               0.004295877               0.000672493              -0.000558981               0.001618272               0.001059290               0.000000000               0.000000000               0.000000000               0.000000000               0.000186497               0.004560319               0.000615976              -0.000500103               0.001686792               0.001186689               0.000000000               0.000000000               0.000000000               0.000000000               0.000441001               0.004765036               0.000560339              -0.000430253               0.001731747               0.001301494               0.000000000               0.000000000               0.000000000               0.000000000               0.000716658               0.004912861               0.000499586              -0.000345360               0.001752724               0.001407364               0.000000000               0.000000000               0.000000000               0.000000000               0.001026389               0.005008207               0.000434295              -0.000241129               0.001749762               0.001508633               0.000000000               0.000000000               0.000000000               0.000000000               0.001379098               0.005060095               0.000366103              -0.000115350               0.001725132               0.001609781               0.000000000               0.000000000               0.000000000               0.000000000               0.001783795               0.005074789               0.000280637               0.000034574               0.001680055               0.001714629               0.000000000               0.000000000               0.000000000               0.000000000               0.002256373               0.005050749               0.000158361               0.000214794               0.001611968               0.001826762               0.000000000               0.000000000               0.000000000               0.000000000               0.002628709               0.005070334               0.000094316               0.000351971               0.001572771               0.001924741               0.000000000               0.000000000               0.000000000               0.000000000               0.000000000               0.000000000               0.000000000               0.000000000               0.000000000               0.000000000               0.000000000               0.000000000               0.000000000               0.000000000               0.000000000               0.000000000               0.000000000               0.000000000               0.000000000               0.000000000               0.000000000               0.000000000               0.000000000               0.000000000               0.000000000               0.000000000               0.000000000               0.000000000               0.000000000               0.000000000               0.000000000               0.000000000               0.000000000               0.000000000               0.000000000               0.000000000               0.000000000               0.000000000               0.000000000               0.000000000               0.000000000               0.000000000               0.000000000               0.000000000               0.000000000               0.000000000               0.000000000               0.000000000               0.000000000               0.000000000               0.000000000               0.000000000               0.000000000               0.000000000               0.000000000               0.000000000               0.000000000               0.000000000               0.000000000               0.000000000               0.000000000               0.000000000               0.000000000               0.000000000               0.000000000               0.000000000               0.000000000               0.000000000               0.000000000               0.000000000               0.000000000               0.000000000               0.000000000               0.000000000               0.000000000               0.000000000               0.000000000               0.000000000               0.000000000               0.000000000               0.000000000               0.000000000               0.000000000               0.000000000               0.000000000               0.000000000               0.000000000               0.000000000               0.000000000               0.000000000               0.000000000               0.000000000               0.000000000               0.000000000               0.000000000               0.000000000               0.000000000               0.000000000               0.000000000               0.000000000               0.000000000               0.000000000               0.000000000               0.000000000               0.000000000               0.000000000               0.000000000               0.000000000               0.000000000               0.000000000               0.000000000               0.000000000               0.000000000               0.000000000               0.000000000               0.000000000               0.000000000               0.000000000               0.000000000               0.000000000               0.000000000               0.000000000               0.000000000               0.000000000               0.000000000               0.000000000               0.000000000               0.000000000               0.000000000               0.000000000               0.000000000               0.000000000               0.000000000               0.000000000               0.000000000               0.000000000               0.000000000               0.000000000               0.000000000               0.000000000               0.000000000               0.000000000               0.000000000               0.000000000               0.000000000               0.000000000               0.000000000               0.000000000               0.000000000               0.000000000               0.000000000               0.000000000               0.000000000               0.000000000               0.000000000               0.000000000               0.000000000               0.000000000               0.000000000               0.000000000               0.000000000               0.000000000               0.000000000               0.000000000               0.000000000               0.000000000               0.000000000               0.000000000               0.000000000               0.000000000               0.000000000               0.000000000               0.000000000               0.000000000 </DataArray>
</PointData>
</Piece>
</UnstructuredGrid> </VTKFile>
