<?xml version="1.0"?>
<VTKFile type="UnstructuredGrid" version="0.1">
<UnstructuredGrid>
<Piece NumberOfPoints="      1156" NumberOfCells="      1024">
<Points>
<DataArray type="Float64"                                    Name="coordinates"                                                      NumberOfComponents=" 3" format="ascii">
              0.133000000               0.000000000               0.000000000               0.155937500               0.000000000               0.000000000               0.178875000               0.000000000               0.000000000               0.201812500               0.000000000               0.000000000               0.224750000               0.000000000               0.000000000               0.247687500               0.000000000               0.000000000               0.270625000               0.000000000               0.000000000               0.293562500               0.000000000               0.000000000               0.316500000               0.000000000               0.000000000               0.339437500               0.000000000               0.000000000               0.362375000               0.000000000               0.000000000               0.385312500               0.000000000               0.000000000               0.408250000               0.000000000               0.000000000               0.431187500               0.000000000               0.000000000               0.454125000               0.000000000               0.000000000               0.477062500               0.000000000               0.000000000               0.500000000               0.000000000               0.000000000               0.132359569               0.013036280               0.000000000               0.155337096               0.016127762               0.000000000               0.178314623               0.019219245               0.000000000               0.201292150               0.022310727               0.000000000               0.224269676               0.025402210               0.000000000               0.247247203               0.028493692               0.000000000               0.270224730               0.031585175               0.000000000               0.293202257               0.034676657               0.000000000               0.316179784               0.037768140               0.000000000               0.339157311               0.040859622               0.000000000               0.362134838               0.043951105               0.000000000               0.385112365               0.047042587               0.000000000               0.408089892               0.050134070               0.000000000               0.431067419               0.053225552               0.000000000               0.454044946               0.056317035               0.000000000               0.477022473               0.059408517               0.000000000               0.500000000               0.062500000               0.000000000               0.130444442               0.025947013               0.000000000               0.153541665               0.032137825               0.000000000               0.176638887               0.038328636               0.000000000               0.199736109               0.044519448               0.000000000               0.222833332               0.050710260               0.000000000               0.245930554               0.056901071               0.000000000               0.269027776               0.063091883               0.000000000               0.292124999               0.069282695               0.000000000               0.315222221               0.075473506               0.000000000               0.338319444               0.081664318               0.000000000               0.361416666               0.087855130               0.000000000               0.384513888               0.094045942               0.000000000               0.407611111               0.100236753               0.000000000               0.430708333               0.106427565               0.000000000               0.453805555               0.112618377               0.000000000               0.476902778               0.118809188               0.000000000               0.500000000               0.125000000               0.000000000               0.127273065               0.038607862               0.000000000               0.150568498               0.047913621               0.000000000               0.173863932               0.057219379               0.000000000               0.197159365               0.066525138               0.000000000               0.220454798               0.075830897               0.000000000               0.243750232               0.085136655               0.000000000               0.267045665               0.094442414               0.000000000               0.290341099               0.103748172               0.000000000               0.313636532               0.113053931               0.000000000               0.336931966               0.122359690               0.000000000               0.360227399               0.131665448               0.000000000               0.383522833               0.140971207               0.000000000               0.406818266               0.150276966               0.000000000               0.430113700               0.159582724               0.000000000               0.453409133               0.168888483               0.000000000               0.476704567               0.178194241               0.000000000               0.500000000               0.187500000               0.000000000               0.122875978               0.050896897               0.000000000               0.146446229               0.063340840               0.000000000               0.170016481               0.075784784               0.000000000               0.193586732               0.088228728               0.000000000               0.217156983               0.100672672               0.000000000               0.240727235               0.113116616               0.000000000               0.264297486               0.125560560               0.000000000               0.287867738               0.138004504               0.000000000               0.311437989               0.150448448               0.000000000               0.335008240               0.162892392               0.000000000               0.358578492               0.175336336               0.000000000               0.382148743               0.187780280               0.000000000               0.405718994               0.200224224               0.000000000               0.429289246               0.212668168               0.000000000               0.452859497               0.225112112               0.000000000               0.476429749               0.237556056               0.000000000               0.500000000               0.250000000               0.000000000               0.117295528               0.062695766               0.000000000               0.141214558               0.078308531               0.000000000               0.165133587               0.093921295               0.000000000               0.189052617               0.109534060               0.000000000               0.212971646               0.125146824               0.000000000               0.236890676               0.140759589               0.000000000               0.260809705               0.156372354               0.000000000               0.284728735               0.171985118               0.000000000               0.308647764               0.187597883               0.000000000               0.332566794               0.203210648               0.000000000               0.356485823               0.218823412               0.000000000               0.380404853               0.234436177               0.000000000               0.404323882               0.250048941               0.000000000               0.428242912               0.265661706               0.000000000               0.452161941               0.281274471               0.000000000               0.476080971               0.296887235               0.000000000               0.500000000               0.312500000               0.000000000               0.110585458               0.073890841               0.000000000               0.134923867               0.092710163               0.000000000               0.159262276               0.111529486               0.000000000               0.183600685               0.130348808               0.000000000               0.207939094               0.149168131               0.000000000               0.232277503               0.167987453               0.000000000               0.256615912               0.186806776               0.000000000               0.280954320               0.205626098               0.000000000               0.305292729               0.224445420               0.000000000               0.329631138               0.243264743               0.000000000               0.353969547               0.262084065               0.000000000               0.378307956               0.280903388               0.000000000               0.402646365               0.299722710               0.000000000               0.426984773               0.318542033               0.000000000               0.451323182               0.337361355               0.000000000               0.475661591               0.356180678               0.000000000               0.500000000               0.375000000               0.000000000               0.102810390               0.084374307               0.000000000               0.127634741               0.106444663               0.000000000               0.152459092               0.128515018               0.000000000               0.177283442               0.150585374               0.000000000               0.202107793               0.172655730               0.000000000               0.226932143               0.194726086               0.000000000               0.251756494               0.216796442               0.000000000               0.276580845               0.238866798               0.000000000               0.301405195               0.260937153               0.000000000               0.326229546               0.283007509               0.000000000               0.351053896               0.305077865               0.000000000               0.375878247               0.327148221               0.000000000               0.400702598               0.349218577               0.000000000               0.425526948               0.371288933               0.000000000               0.450351299               0.393359288               0.000000000               0.475175649               0.415429644               0.000000000               0.500000000               0.437500000               0.000000000               0.094045202               0.094045202               0.000000000               0.119417377               0.119417377               0.000000000               0.144789552               0.144789552               0.000000000               0.170161727               0.170161727               0.000000000               0.195533901               0.195533901               0.000000000               0.220906076               0.220906076               0.000000000               0.246278251               0.246278251               0.000000000               0.271650426               0.271650426               0.000000000               0.297022601               0.297022601               0.000000000               0.322394776               0.322394776               0.000000000               0.347766951               0.347766951               0.000000000               0.373139126               0.373139126               0.000000000               0.398511300               0.398511300               0.000000000               0.423883475               0.423883475               0.000000000               0.449255650               0.449255650               0.000000000               0.474627825               0.474627825               0.000000000               0.500000000               0.500000000               0.000000000               0.084374307               0.102810390               0.000000000               0.106444663               0.127634741               0.000000000               0.128515018               0.152459092               0.000000000               0.150585374               0.177283442               0.000000000               0.172655730               0.202107793               0.000000000               0.194726086               0.226932143               0.000000000               0.216796442               0.251756494               0.000000000               0.238866798               0.276580845               0.000000000               0.260937153               0.301405195               0.000000000               0.283007509               0.326229546               0.000000000               0.305077865               0.351053896               0.000000000               0.327148221               0.375878247               0.000000000               0.349218577               0.400702598               0.000000000               0.371288933               0.425526948               0.000000000               0.393359288               0.450351299               0.000000000               0.415429644               0.475175649               0.000000000               0.437500000               0.500000000               0.000000000               0.073890841               0.110585458               0.000000000               0.092710163               0.134923867               0.000000000               0.111529486               0.159262276               0.000000000               0.130348808               0.183600685               0.000000000               0.149168131               0.207939094               0.000000000               0.167987453               0.232277503               0.000000000               0.186806776               0.256615912               0.000000000               0.205626098               0.280954320               0.000000000               0.224445420               0.305292729               0.000000000               0.243264743               0.329631138               0.000000000               0.262084065               0.353969547               0.000000000               0.280903388               0.378307956               0.000000000               0.299722710               0.402646365               0.000000000               0.318542033               0.426984773               0.000000000               0.337361355               0.451323182               0.000000000               0.356180678               0.475661591               0.000000000               0.375000000               0.500000000               0.000000000               0.062695766               0.117295528               0.000000000               0.078308531               0.141214558               0.000000000               0.093921295               0.165133587               0.000000000               0.109534060               0.189052617               0.000000000               0.125146824               0.212971646               0.000000000               0.140759589               0.236890676               0.000000000               0.156372354               0.260809705               0.000000000               0.171985118               0.284728735               0.000000000               0.187597883               0.308647764               0.000000000               0.203210648               0.332566794               0.000000000               0.218823412               0.356485823               0.000000000               0.234436177               0.380404853               0.000000000               0.250048941               0.404323882               0.000000000               0.265661706               0.428242912               0.000000000               0.281274471               0.452161941               0.000000000               0.296887235               0.476080971               0.000000000               0.312500000               0.500000000               0.000000000               0.050896897               0.122875978               0.000000000               0.063340840               0.146446229               0.000000000               0.075784784               0.170016481               0.000000000               0.088228728               0.193586732               0.000000000               0.100672672               0.217156983               0.000000000               0.113116616               0.240727235               0.000000000               0.125560560               0.264297486               0.000000000               0.138004504               0.287867738               0.000000000               0.150448448               0.311437989               0.000000000               0.162892392               0.335008240               0.000000000               0.175336336               0.358578492               0.000000000               0.187780280               0.382148743               0.000000000               0.200224224               0.405718994               0.000000000               0.212668168               0.429289246               0.000000000               0.225112112               0.452859497               0.000000000               0.237556056               0.476429749               0.000000000               0.250000000               0.500000000               0.000000000               0.038607862               0.127273065               0.000000000               0.047913621               0.150568498               0.000000000               0.057219379               0.173863932               0.000000000               0.066525138               0.197159365               0.000000000               0.075830897               0.220454798               0.000000000               0.085136655               0.243750232               0.000000000               0.094442414               0.267045665               0.000000000               0.103748172               0.290341099               0.000000000               0.113053931               0.313636532               0.000000000               0.122359690               0.336931966               0.000000000               0.131665448               0.360227399               0.000000000               0.140971207               0.383522833               0.000000000               0.150276966               0.406818266               0.000000000               0.159582724               0.430113700               0.000000000               0.168888483               0.453409133               0.000000000               0.178194241               0.476704567               0.000000000               0.187500000               0.500000000               0.000000000               0.025947013               0.130444442               0.000000000               0.032137825               0.153541665               0.000000000               0.038328636               0.176638887               0.000000000               0.044519448               0.199736109               0.000000000               0.050710260               0.222833332               0.000000000               0.056901071               0.245930554               0.000000000               0.063091883               0.269027776               0.000000000               0.069282695               0.292124999               0.000000000               0.075473506               0.315222221               0.000000000               0.081664318               0.338319444               0.000000000               0.087855130               0.361416666               0.000000000               0.094045942               0.384513888               0.000000000               0.100236753               0.407611111               0.000000000               0.106427565               0.430708333               0.000000000               0.112618377               0.453805555               0.000000000               0.118809188               0.476902778               0.000000000               0.125000000               0.500000000               0.000000000               0.013036280               0.132359569               0.000000000               0.016127762               0.155337096               0.000000000               0.019219245               0.178314623               0.000000000               0.022310727               0.201292150               0.000000000               0.025402210               0.224269676               0.000000000               0.028493692               0.247247203               0.000000000               0.031585175               0.270224730               0.000000000               0.034676657               0.293202257               0.000000000               0.037768140               0.316179784               0.000000000               0.040859622               0.339157311               0.000000000               0.043951105               0.362134838               0.000000000               0.047042587               0.385112365               0.000000000               0.050134070               0.408089892               0.000000000               0.053225552               0.431067419               0.000000000               0.056317035               0.454044946               0.000000000               0.059408517               0.477022473               0.000000000               0.062500000               0.500000000               0.000000000               0.000000000               0.133000000               0.000000000               0.000000000               0.155937500               0.000000000               0.000000000               0.178875000               0.000000000               0.000000000               0.201812500               0.000000000               0.000000000               0.224750000               0.000000000               0.000000000               0.247687500               0.000000000               0.000000000               0.270625000               0.000000000               0.000000000               0.293562500               0.000000000               0.000000000               0.316500000               0.000000000               0.000000000               0.339437500               0.000000000               0.000000000               0.362375000               0.000000000               0.000000000               0.385312500               0.000000000               0.000000000               0.408250000               0.000000000               0.000000000               0.431187500               0.000000000               0.000000000               0.454125000               0.000000000               0.000000000               0.477062500               0.000000000               0.000000000               0.500000000               0.000000000               0.133000000               0.000000000               0.000000000               0.155937500               0.000000000               0.000000000               0.178875000               0.000000000               0.000000000               0.201812500               0.000000000               0.000000000               0.224750000               0.000000000               0.000000000               0.247687500               0.000000000               0.000000000               0.270625000               0.000000000               0.000000000               0.293562500               0.000000000               0.000000000               0.316500000               0.000000000               0.000000000               0.339437500               0.000000000               0.000000000               0.362375000               0.000000000               0.000000000               0.385312500               0.000000000               0.000000000               0.408250000               0.000000000               0.000000000               0.431187500               0.000000000               0.000000000               0.454125000               0.000000000               0.000000000               0.477062500               0.000000000               0.000000000               0.500000000               0.000000000               0.000000000               0.132359569              -0.013036280               0.000000000               0.155337096              -0.016127762               0.000000000               0.178314623              -0.019219245               0.000000000               0.201292150              -0.022310727               0.000000000               0.224269676              -0.025402210               0.000000000               0.247247203              -0.028493692               0.000000000               0.270224730              -0.031585175               0.000000000               0.293202257              -0.034676657               0.000000000               0.316179784              -0.037768140               0.000000000               0.339157311              -0.040859622               0.000000000               0.362134838              -0.043951105               0.000000000               0.385112365              -0.047042587               0.000000000               0.408089892              -0.050134070               0.000000000               0.431067419              -0.053225552               0.000000000               0.454044946              -0.056317035               0.000000000               0.477022473              -0.059408517               0.000000000               0.500000000              -0.062500000               0.000000000               0.130444442              -0.025947013               0.000000000               0.153541665              -0.032137825               0.000000000               0.176638887              -0.038328636               0.000000000               0.199736109              -0.044519448               0.000000000               0.222833332              -0.050710260               0.000000000               0.245930554              -0.056901071               0.000000000               0.269027776              -0.063091883               0.000000000               0.292124999              -0.069282695               0.000000000               0.315222221              -0.075473506               0.000000000               0.338319444              -0.081664318               0.000000000               0.361416666              -0.087855130               0.000000000               0.384513888              -0.094045942               0.000000000               0.407611111              -0.100236753               0.000000000               0.430708333              -0.106427565               0.000000000               0.453805555              -0.112618377               0.000000000               0.476902778              -0.118809188               0.000000000               0.500000000              -0.125000000               0.000000000               0.127273065              -0.038607862               0.000000000               0.150568498              -0.047913621               0.000000000               0.173863932              -0.057219379               0.000000000               0.197159365              -0.066525138               0.000000000               0.220454798              -0.075830897               0.000000000               0.243750232              -0.085136655               0.000000000               0.267045665              -0.094442414               0.000000000               0.290341099              -0.103748172               0.000000000               0.313636532              -0.113053931               0.000000000               0.336931966              -0.122359690               0.000000000               0.360227399              -0.131665448               0.000000000               0.383522833              -0.140971207               0.000000000               0.406818266              -0.150276966               0.000000000               0.430113700              -0.159582724               0.000000000               0.453409133              -0.168888483               0.000000000               0.476704567              -0.178194241               0.000000000               0.500000000              -0.187500000               0.000000000               0.122875978              -0.050896897               0.000000000               0.146446229              -0.063340840               0.000000000               0.170016481              -0.075784784               0.000000000               0.193586732              -0.088228728               0.000000000               0.217156983              -0.100672672               0.000000000               0.240727235              -0.113116616               0.000000000               0.264297486              -0.125560560               0.000000000               0.287867738              -0.138004504               0.000000000               0.311437989              -0.150448448               0.000000000               0.335008240              -0.162892392               0.000000000               0.358578492              -0.175336336               0.000000000               0.382148743              -0.187780280               0.000000000               0.405718994              -0.200224224               0.000000000               0.429289246              -0.212668168               0.000000000               0.452859497              -0.225112112               0.000000000               0.476429749              -0.237556056               0.000000000               0.500000000              -0.250000000               0.000000000               0.117295528              -0.062695766               0.000000000               0.141214558              -0.078308531               0.000000000               0.165133587              -0.093921295               0.000000000               0.189052617              -0.109534060               0.000000000               0.212971646              -0.125146824               0.000000000               0.236890676              -0.140759589               0.000000000               0.260809705              -0.156372354               0.000000000               0.284728735              -0.171985118               0.000000000               0.308647764              -0.187597883               0.000000000               0.332566794              -0.203210648               0.000000000               0.356485823              -0.218823412               0.000000000               0.380404853              -0.234436177               0.000000000               0.404323882              -0.250048941               0.000000000               0.428242912              -0.265661706               0.000000000               0.452161941              -0.281274471               0.000000000               0.476080971              -0.296887235               0.000000000               0.500000000              -0.312500000               0.000000000               0.110585458              -0.073890841               0.000000000               0.134923867              -0.092710163               0.000000000               0.159262276              -0.111529486               0.000000000               0.183600685              -0.130348808               0.000000000               0.207939094              -0.149168131               0.000000000               0.232277503              -0.167987453               0.000000000               0.256615912              -0.186806776               0.000000000               0.280954320              -0.205626098               0.000000000               0.305292729              -0.224445420               0.000000000               0.329631138              -0.243264743               0.000000000               0.353969547              -0.262084065               0.000000000               0.378307956              -0.280903388               0.000000000               0.402646365              -0.299722710               0.000000000               0.426984773              -0.318542033               0.000000000               0.451323182              -0.337361355               0.000000000               0.475661591              -0.356180678               0.000000000               0.500000000              -0.375000000               0.000000000               0.102810390              -0.084374307               0.000000000               0.127634741              -0.106444663               0.000000000               0.152459092              -0.128515018               0.000000000               0.177283442              -0.150585374               0.000000000               0.202107793              -0.172655730               0.000000000               0.226932143              -0.194726086               0.000000000               0.251756494              -0.216796442               0.000000000               0.276580845              -0.238866798               0.000000000               0.301405195              -0.260937153               0.000000000               0.326229546              -0.283007509               0.000000000               0.351053896              -0.305077865               0.000000000               0.375878247              -0.327148221               0.000000000               0.400702598              -0.349218577               0.000000000               0.425526948              -0.371288933               0.000000000               0.450351299              -0.393359288               0.000000000               0.475175649              -0.415429644               0.000000000               0.500000000              -0.437500000               0.000000000               0.094045202              -0.094045202               0.000000000               0.119417377              -0.119417377               0.000000000               0.144789552              -0.144789552               0.000000000               0.170161727              -0.170161727               0.000000000               0.195533901              -0.195533901               0.000000000               0.220906076              -0.220906076               0.000000000               0.246278251              -0.246278251               0.000000000               0.271650426              -0.271650426               0.000000000               0.297022601              -0.297022601               0.000000000               0.322394776              -0.322394776               0.000000000               0.347766951              -0.347766951               0.000000000               0.373139126              -0.373139126               0.000000000               0.398511300              -0.398511300               0.000000000               0.423883475              -0.423883475               0.000000000               0.449255650              -0.449255650               0.000000000               0.474627825              -0.474627825               0.000000000               0.500000000              -0.500000000               0.000000000               0.084374307              -0.102810390               0.000000000               0.106444663              -0.127634741               0.000000000               0.128515018              -0.152459092               0.000000000               0.150585374              -0.177283442               0.000000000               0.172655730              -0.202107793               0.000000000               0.194726086              -0.226932143               0.000000000               0.216796442              -0.251756494               0.000000000               0.238866798              -0.276580845               0.000000000               0.260937153              -0.301405195               0.000000000               0.283007509              -0.326229546               0.000000000               0.305077865              -0.351053896               0.000000000               0.327148221              -0.375878247               0.000000000               0.349218577              -0.400702598               0.000000000               0.371288933              -0.425526948               0.000000000               0.393359288              -0.450351299               0.000000000               0.415429644              -0.475175649               0.000000000               0.437500000              -0.500000000               0.000000000               0.073890841              -0.110585458               0.000000000               0.092710163              -0.134923867               0.000000000               0.111529486              -0.159262276               0.000000000               0.130348808              -0.183600685               0.000000000               0.149168131              -0.207939094               0.000000000               0.167987453              -0.232277503               0.000000000               0.186806776              -0.256615912               0.000000000               0.205626098              -0.280954320               0.000000000               0.224445420              -0.305292729               0.000000000               0.243264743              -0.329631138               0.000000000               0.262084065              -0.353969547               0.000000000               0.280903388              -0.378307956               0.000000000               0.299722710              -0.402646365               0.000000000               0.318542033              -0.426984773               0.000000000               0.337361355              -0.451323182               0.000000000               0.356180678              -0.475661591               0.000000000               0.375000000              -0.500000000               0.000000000               0.062695766              -0.117295528               0.000000000               0.078308531              -0.141214558               0.000000000               0.093921295              -0.165133587               0.000000000               0.109534060              -0.189052617               0.000000000               0.125146824              -0.212971646               0.000000000               0.140759589              -0.236890676               0.000000000               0.156372354              -0.260809705               0.000000000               0.171985118              -0.284728735               0.000000000               0.187597883              -0.308647764               0.000000000               0.203210648              -0.332566794               0.000000000               0.218823412              -0.356485823               0.000000000               0.234436177              -0.380404853               0.000000000               0.250048941              -0.404323882               0.000000000               0.265661706              -0.428242912               0.000000000               0.281274471              -0.452161941               0.000000000               0.296887235              -0.476080971               0.000000000               0.312500000              -0.500000000               0.000000000               0.050896897              -0.122875978               0.000000000               0.063340840              -0.146446229               0.000000000               0.075784784              -0.170016481               0.000000000               0.088228728              -0.193586732               0.000000000               0.100672672              -0.217156983               0.000000000               0.113116616              -0.240727235               0.000000000               0.125560560              -0.264297486               0.000000000               0.138004504              -0.287867738               0.000000000               0.150448448              -0.311437989               0.000000000               0.162892392              -0.335008240               0.000000000               0.175336336              -0.358578492               0.000000000               0.187780280              -0.382148743               0.000000000               0.200224224              -0.405718994               0.000000000               0.212668168              -0.429289246               0.000000000               0.225112112              -0.452859497               0.000000000               0.237556056              -0.476429749               0.000000000               0.250000000              -0.500000000               0.000000000               0.038607862              -0.127273065               0.000000000               0.047913621              -0.150568498               0.000000000               0.057219379              -0.173863932               0.000000000               0.066525138              -0.197159365               0.000000000               0.075830897              -0.220454798               0.000000000               0.085136655              -0.243750232               0.000000000               0.094442414              -0.267045665               0.000000000               0.103748172              -0.290341099               0.000000000               0.113053931              -0.313636532               0.000000000               0.122359690              -0.336931966               0.000000000               0.131665448              -0.360227399               0.000000000               0.140971207              -0.383522833               0.000000000               0.150276966              -0.406818266               0.000000000               0.159582724              -0.430113700               0.000000000               0.168888483              -0.453409133               0.000000000               0.178194241              -0.476704567               0.000000000               0.187500000              -0.500000000               0.000000000               0.025947013              -0.130444442               0.000000000               0.032137825              -0.153541665               0.000000000               0.038328636              -0.176638887               0.000000000               0.044519448              -0.199736109               0.000000000               0.050710260              -0.222833332               0.000000000               0.056901071              -0.245930554               0.000000000               0.063091883              -0.269027776               0.000000000               0.069282695              -0.292124999               0.000000000               0.075473506              -0.315222221               0.000000000               0.081664318              -0.338319444               0.000000000               0.087855130              -0.361416666               0.000000000               0.094045942              -0.384513888               0.000000000               0.100236753              -0.407611111               0.000000000               0.106427565              -0.430708333               0.000000000               0.112618377              -0.453805555               0.000000000               0.118809188              -0.476902778               0.000000000               0.125000000              -0.500000000               0.000000000               0.013036280              -0.132359569               0.000000000               0.016127762              -0.155337096               0.000000000               0.019219245              -0.178314623               0.000000000               0.022310727              -0.201292150               0.000000000               0.025402210              -0.224269676               0.000000000               0.028493692              -0.247247203               0.000000000               0.031585175              -0.270224730               0.000000000               0.034676657              -0.293202257               0.000000000               0.037768140              -0.316179784               0.000000000               0.040859622              -0.339157311               0.000000000               0.043951105              -0.362134838               0.000000000               0.047042587              -0.385112365               0.000000000               0.050134070              -0.408089892               0.000000000               0.053225552              -0.431067419               0.000000000               0.056317035              -0.454044946               0.000000000               0.059408517              -0.477022473               0.000000000               0.062500000              -0.500000000               0.000000000               0.000000000              -0.133000000               0.000000000               0.000000000              -0.155937500               0.000000000               0.000000000              -0.178875000               0.000000000               0.000000000              -0.201812500               0.000000000               0.000000000              -0.224750000               0.000000000               0.000000000              -0.247687500               0.000000000               0.000000000              -0.270625000               0.000000000               0.000000000              -0.293562500               0.000000000               0.000000000              -0.316500000               0.000000000               0.000000000              -0.339437500               0.000000000               0.000000000              -0.362375000               0.000000000               0.000000000              -0.385312500               0.000000000               0.000000000              -0.408250000               0.000000000               0.000000000              -0.431187500               0.000000000               0.000000000              -0.454125000               0.000000000               0.000000000              -0.477062500               0.000000000               0.000000000              -0.500000000               0.000000000              -0.133000000               0.000000000               0.000000000              -0.155937500               0.000000000               0.000000000              -0.178875000               0.000000000               0.000000000              -0.201812500               0.000000000               0.000000000              -0.224750000               0.000000000               0.000000000              -0.247687500               0.000000000               0.000000000              -0.270625000               0.000000000               0.000000000              -0.293562500               0.000000000               0.000000000              -0.316500000               0.000000000               0.000000000              -0.339437500               0.000000000               0.000000000              -0.362375000               0.000000000               0.000000000              -0.385312500               0.000000000               0.000000000              -0.408250000               0.000000000               0.000000000              -0.431187500               0.000000000               0.000000000              -0.454125000               0.000000000               0.000000000              -0.477062500               0.000000000               0.000000000              -0.500000000               0.000000000               0.000000000              -0.132359569              -0.013036280               0.000000000              -0.155337096              -0.016127762               0.000000000              -0.178314623              -0.019219245               0.000000000              -0.201292150              -0.022310727               0.000000000              -0.224269676              -0.025402210               0.000000000              -0.247247203              -0.028493692               0.000000000              -0.270224730              -0.031585175               0.000000000              -0.293202257              -0.034676657               0.000000000              -0.316179784              -0.037768140               0.000000000              -0.339157311              -0.040859622               0.000000000              -0.362134838              -0.043951105               0.000000000              -0.385112365              -0.047042587               0.000000000              -0.408089892              -0.050134070               0.000000000              -0.431067419              -0.053225552               0.000000000              -0.454044946              -0.056317035               0.000000000              -0.477022473              -0.059408517               0.000000000              -0.500000000              -0.062500000               0.000000000              -0.130444442              -0.025947013               0.000000000              -0.153541665              -0.032137825               0.000000000              -0.176638887              -0.038328636               0.000000000              -0.199736109              -0.044519448               0.000000000              -0.222833332              -0.050710260               0.000000000              -0.245930554              -0.056901071               0.000000000              -0.269027776              -0.063091883               0.000000000              -0.292124999              -0.069282695               0.000000000              -0.315222221              -0.075473506               0.000000000              -0.338319444              -0.081664318               0.000000000              -0.361416666              -0.087855130               0.000000000              -0.384513888              -0.094045942               0.000000000              -0.407611111              -0.100236753               0.000000000              -0.430708333              -0.106427565               0.000000000              -0.453805555              -0.112618377               0.000000000              -0.476902778              -0.118809188               0.000000000              -0.500000000              -0.125000000               0.000000000              -0.127273065              -0.038607862               0.000000000              -0.150568498              -0.047913621               0.000000000              -0.173863932              -0.057219379               0.000000000              -0.197159365              -0.066525138               0.000000000              -0.220454798              -0.075830897               0.000000000              -0.243750232              -0.085136655               0.000000000              -0.267045665              -0.094442414               0.000000000              -0.290341099              -0.103748172               0.000000000              -0.313636532              -0.113053931               0.000000000              -0.336931966              -0.122359690               0.000000000              -0.360227399              -0.131665448               0.000000000              -0.383522833              -0.140971207               0.000000000              -0.406818266              -0.150276966               0.000000000              -0.430113700              -0.159582724               0.000000000              -0.453409133              -0.168888483               0.000000000              -0.476704567              -0.178194241               0.000000000              -0.500000000              -0.187500000               0.000000000              -0.122875978              -0.050896897               0.000000000              -0.146446229              -0.063340840               0.000000000              -0.170016481              -0.075784784               0.000000000              -0.193586732              -0.088228728               0.000000000              -0.217156983              -0.100672672               0.000000000              -0.240727235              -0.113116616               0.000000000              -0.264297486              -0.125560560               0.000000000              -0.287867738              -0.138004504               0.000000000              -0.311437989              -0.150448448               0.000000000              -0.335008240              -0.162892392               0.000000000              -0.358578492              -0.175336336               0.000000000              -0.382148743              -0.187780280               0.000000000              -0.405718994              -0.200224224               0.000000000              -0.429289246              -0.212668168               0.000000000              -0.452859497              -0.225112112               0.000000000              -0.476429749              -0.237556056               0.000000000              -0.500000000              -0.250000000               0.000000000              -0.117295528              -0.062695766               0.000000000              -0.141214558              -0.078308531               0.000000000              -0.165133587              -0.093921295               0.000000000              -0.189052617              -0.109534060               0.000000000              -0.212971646              -0.125146824               0.000000000              -0.236890676              -0.140759589               0.000000000              -0.260809705              -0.156372354               0.000000000              -0.284728735              -0.171985118               0.000000000              -0.308647764              -0.187597883               0.000000000              -0.332566794              -0.203210648               0.000000000              -0.356485823              -0.218823412               0.000000000              -0.380404853              -0.234436177               0.000000000              -0.404323882              -0.250048941               0.000000000              -0.428242912              -0.265661706               0.000000000              -0.452161941              -0.281274471               0.000000000              -0.476080971              -0.296887235               0.000000000              -0.500000000              -0.312500000               0.000000000              -0.110585458              -0.073890841               0.000000000              -0.134923867              -0.092710163               0.000000000              -0.159262276              -0.111529486               0.000000000              -0.183600685              -0.130348808               0.000000000              -0.207939094              -0.149168131               0.000000000              -0.232277503              -0.167987453               0.000000000              -0.256615912              -0.186806776               0.000000000              -0.280954320              -0.205626098               0.000000000              -0.305292729              -0.224445420               0.000000000              -0.329631138              -0.243264743               0.000000000              -0.353969547              -0.262084065               0.000000000              -0.378307956              -0.280903388               0.000000000              -0.402646365              -0.299722710               0.000000000              -0.426984773              -0.318542033               0.000000000              -0.451323182              -0.337361355               0.000000000              -0.475661591              -0.356180678               0.000000000              -0.500000000              -0.375000000               0.000000000              -0.102810390              -0.084374307               0.000000000              -0.127634741              -0.106444663               0.000000000              -0.152459092              -0.128515018               0.000000000              -0.177283442              -0.150585374               0.000000000              -0.202107793              -0.172655730               0.000000000              -0.226932143              -0.194726086               0.000000000              -0.251756494              -0.216796442               0.000000000              -0.276580845              -0.238866798               0.000000000              -0.301405195              -0.260937153               0.000000000              -0.326229546              -0.283007509               0.000000000              -0.351053896              -0.305077865               0.000000000              -0.375878247              -0.327148221               0.000000000              -0.400702598              -0.349218577               0.000000000              -0.425526948              -0.371288933               0.000000000              -0.450351299              -0.393359288               0.000000000              -0.475175649              -0.415429644               0.000000000              -0.500000000              -0.437500000               0.000000000              -0.094045202              -0.094045202               0.000000000              -0.119417377              -0.119417377               0.000000000              -0.144789552              -0.144789552               0.000000000              -0.170161727              -0.170161727               0.000000000              -0.195533901              -0.195533901               0.000000000              -0.220906076              -0.220906076               0.000000000              -0.246278251              -0.246278251               0.000000000              -0.271650426              -0.271650426               0.000000000              -0.297022601              -0.297022601               0.000000000              -0.322394776              -0.322394776               0.000000000              -0.347766951              -0.347766951               0.000000000              -0.373139126              -0.373139126               0.000000000              -0.398511300              -0.398511300               0.000000000              -0.423883475              -0.423883475               0.000000000              -0.449255650              -0.449255650               0.000000000              -0.474627825              -0.474627825               0.000000000              -0.500000000              -0.500000000               0.000000000              -0.084374307              -0.102810390               0.000000000              -0.106444663              -0.127634741               0.000000000              -0.128515018              -0.152459092               0.000000000              -0.150585374              -0.177283442               0.000000000              -0.172655730              -0.202107793               0.000000000              -0.194726086              -0.226932143               0.000000000              -0.216796442              -0.251756494               0.000000000              -0.238866798              -0.276580845               0.000000000              -0.260937153              -0.301405195               0.000000000              -0.283007509              -0.326229546               0.000000000              -0.305077865              -0.351053896               0.000000000              -0.327148221              -0.375878247               0.000000000              -0.349218577              -0.400702598               0.000000000              -0.371288933              -0.425526948               0.000000000              -0.393359288              -0.450351299               0.000000000              -0.415429644              -0.475175649               0.000000000              -0.437500000              -0.500000000               0.000000000              -0.073890841              -0.110585458               0.000000000              -0.092710163              -0.134923867               0.000000000              -0.111529486              -0.159262276               0.000000000              -0.130348808              -0.183600685               0.000000000              -0.149168131              -0.207939094               0.000000000              -0.167987453              -0.232277503               0.000000000              -0.186806776              -0.256615912               0.000000000              -0.205626098              -0.280954320               0.000000000              -0.224445420              -0.305292729               0.000000000              -0.243264743              -0.329631138               0.000000000              -0.262084065              -0.353969547               0.000000000              -0.280903388              -0.378307956               0.000000000              -0.299722710              -0.402646365               0.000000000              -0.318542033              -0.426984773               0.000000000              -0.337361355              -0.451323182               0.000000000              -0.356180678              -0.475661591               0.000000000              -0.375000000              -0.500000000               0.000000000              -0.062695766              -0.117295528               0.000000000              -0.078308531              -0.141214558               0.000000000              -0.093921295              -0.165133587               0.000000000              -0.109534060              -0.189052617               0.000000000              -0.125146824              -0.212971646               0.000000000              -0.140759589              -0.236890676               0.000000000              -0.156372354              -0.260809705               0.000000000              -0.171985118              -0.284728735               0.000000000              -0.187597883              -0.308647764               0.000000000              -0.203210648              -0.332566794               0.000000000              -0.218823412              -0.356485823               0.000000000              -0.234436177              -0.380404853               0.000000000              -0.250048941              -0.404323882               0.000000000              -0.265661706              -0.428242912               0.000000000              -0.281274471              -0.452161941               0.000000000              -0.296887235              -0.476080971               0.000000000              -0.312500000              -0.500000000               0.000000000              -0.050896897              -0.122875978               0.000000000              -0.063340840              -0.146446229               0.000000000              -0.075784784              -0.170016481               0.000000000              -0.088228728              -0.193586732               0.000000000              -0.100672672              -0.217156983               0.000000000              -0.113116616              -0.240727235               0.000000000              -0.125560560              -0.264297486               0.000000000              -0.138004504              -0.287867738               0.000000000              -0.150448448              -0.311437989               0.000000000              -0.162892392              -0.335008240               0.000000000              -0.175336336              -0.358578492               0.000000000              -0.187780280              -0.382148743               0.000000000              -0.200224224              -0.405718994               0.000000000              -0.212668168              -0.429289246               0.000000000              -0.225112112              -0.452859497               0.000000000              -0.237556056              -0.476429749               0.000000000              -0.250000000              -0.500000000               0.000000000              -0.038607862              -0.127273065               0.000000000              -0.047913621              -0.150568498               0.000000000              -0.057219379              -0.173863932               0.000000000              -0.066525138              -0.197159365               0.000000000              -0.075830897              -0.220454798               0.000000000              -0.085136655              -0.243750232               0.000000000              -0.094442414              -0.267045665               0.000000000              -0.103748172              -0.290341099               0.000000000              -0.113053931              -0.313636532               0.000000000              -0.122359690              -0.336931966               0.000000000              -0.131665448              -0.360227399               0.000000000              -0.140971207              -0.383522833               0.000000000              -0.150276966              -0.406818266               0.000000000              -0.159582724              -0.430113700               0.000000000              -0.168888483              -0.453409133               0.000000000              -0.178194241              -0.476704567               0.000000000              -0.187500000              -0.500000000               0.000000000              -0.025947013              -0.130444442               0.000000000              -0.032137825              -0.153541665               0.000000000              -0.038328636              -0.176638887               0.000000000              -0.044519448              -0.199736109               0.000000000              -0.050710260              -0.222833332               0.000000000              -0.056901071              -0.245930554               0.000000000              -0.063091883              -0.269027776               0.000000000              -0.069282695              -0.292124999               0.000000000              -0.075473506              -0.315222221               0.000000000              -0.081664318              -0.338319444               0.000000000              -0.087855130              -0.361416666               0.000000000              -0.094045942              -0.384513888               0.000000000              -0.100236753              -0.407611111               0.000000000              -0.106427565              -0.430708333               0.000000000              -0.112618377              -0.453805555               0.000000000              -0.118809188              -0.476902778               0.000000000              -0.125000000              -0.500000000               0.000000000              -0.013036280              -0.132359569               0.000000000              -0.016127762              -0.155337096               0.000000000              -0.019219245              -0.178314623               0.000000000              -0.022310727              -0.201292150               0.000000000              -0.025402210              -0.224269676               0.000000000              -0.028493692              -0.247247203               0.000000000              -0.031585175              -0.270224730               0.000000000              -0.034676657              -0.293202257               0.000000000              -0.037768140              -0.316179784               0.000000000              -0.040859622              -0.339157311               0.000000000              -0.043951105              -0.362134838               0.000000000              -0.047042587              -0.385112365               0.000000000              -0.050134070              -0.408089892               0.000000000              -0.053225552              -0.431067419               0.000000000              -0.056317035              -0.454044946               0.000000000              -0.059408517              -0.477022473               0.000000000              -0.062500000              -0.500000000               0.000000000               0.000000000              -0.133000000               0.000000000               0.000000000              -0.155937500               0.000000000               0.000000000              -0.178875000               0.000000000               0.000000000              -0.201812500               0.000000000               0.000000000              -0.224750000               0.000000000               0.000000000              -0.247687500               0.000000000               0.000000000              -0.270625000               0.000000000               0.000000000              -0.293562500               0.000000000               0.000000000              -0.316500000               0.000000000               0.000000000              -0.339437500               0.000000000               0.000000000              -0.362375000               0.000000000               0.000000000              -0.385312500               0.000000000               0.000000000              -0.408250000               0.000000000               0.000000000              -0.431187500               0.000000000               0.000000000              -0.454125000               0.000000000               0.000000000              -0.477062500               0.000000000               0.000000000              -0.500000000               0.000000000              -0.133000000               0.000000000               0.000000000              -0.155937500               0.000000000               0.000000000              -0.178875000               0.000000000               0.000000000              -0.201812500               0.000000000               0.000000000              -0.224750000               0.000000000               0.000000000              -0.247687500               0.000000000               0.000000000              -0.270625000               0.000000000               0.000000000              -0.293562500               0.000000000               0.000000000              -0.316500000               0.000000000               0.000000000              -0.339437500               0.000000000               0.000000000              -0.362375000               0.000000000               0.000000000              -0.385312500               0.000000000               0.000000000              -0.408250000               0.000000000               0.000000000              -0.431187500               0.000000000               0.000000000              -0.454125000               0.000000000               0.000000000              -0.477062500               0.000000000               0.000000000              -0.500000000               0.000000000               0.000000000              -0.132359569               0.013036280               0.000000000              -0.155337096               0.016127762               0.000000000              -0.178314623               0.019219245               0.000000000              -0.201292150               0.022310727               0.000000000              -0.224269676               0.025402210               0.000000000              -0.247247203               0.028493692               0.000000000              -0.270224730               0.031585175               0.000000000              -0.293202257               0.034676657               0.000000000              -0.316179784               0.037768140               0.000000000              -0.339157311               0.040859622               0.000000000              -0.362134838               0.043951105               0.000000000              -0.385112365               0.047042587               0.000000000              -0.408089892               0.050134070               0.000000000              -0.431067419               0.053225552               0.000000000              -0.454044946               0.056317035               0.000000000              -0.477022473               0.059408517               0.000000000              -0.500000000               0.062500000               0.000000000              -0.130444442               0.025947013               0.000000000              -0.153541665               0.032137825               0.000000000              -0.176638887               0.038328636               0.000000000              -0.199736109               0.044519448               0.000000000              -0.222833332               0.050710260               0.000000000              -0.245930554               0.056901071               0.000000000              -0.269027776               0.063091883               0.000000000              -0.292124999               0.069282695               0.000000000              -0.315222221               0.075473506               0.000000000              -0.338319444               0.081664318               0.000000000              -0.361416666               0.087855130               0.000000000              -0.384513888               0.094045942               0.000000000              -0.407611111               0.100236753               0.000000000              -0.430708333               0.106427565               0.000000000              -0.453805555               0.112618377               0.000000000              -0.476902778               0.118809188               0.000000000              -0.500000000               0.125000000               0.000000000              -0.127273065               0.038607862               0.000000000              -0.150568498               0.047913621               0.000000000              -0.173863932               0.057219379               0.000000000              -0.197159365               0.066525138               0.000000000              -0.220454798               0.075830897               0.000000000              -0.243750232               0.085136655               0.000000000              -0.267045665               0.094442414               0.000000000              -0.290341099               0.103748172               0.000000000              -0.313636532               0.113053931               0.000000000              -0.336931966               0.122359690               0.000000000              -0.360227399               0.131665448               0.000000000              -0.383522833               0.140971207               0.000000000              -0.406818266               0.150276966               0.000000000              -0.430113700               0.159582724               0.000000000              -0.453409133               0.168888483               0.000000000              -0.476704567               0.178194241               0.000000000              -0.500000000               0.187500000               0.000000000              -0.122875978               0.050896897               0.000000000              -0.146446229               0.063340840               0.000000000              -0.170016481               0.075784784               0.000000000              -0.193586732               0.088228728               0.000000000              -0.217156983               0.100672672               0.000000000              -0.240727235               0.113116616               0.000000000              -0.264297486               0.125560560               0.000000000              -0.287867738               0.138004504               0.000000000              -0.311437989               0.150448448               0.000000000              -0.335008240               0.162892392               0.000000000              -0.358578492               0.175336336               0.000000000              -0.382148743               0.187780280               0.000000000              -0.405718994               0.200224224               0.000000000              -0.429289246               0.212668168               0.000000000              -0.452859497               0.225112112               0.000000000              -0.476429749               0.237556056               0.000000000              -0.500000000               0.250000000               0.000000000              -0.117295528               0.062695766               0.000000000              -0.141214558               0.078308531               0.000000000              -0.165133587               0.093921295               0.000000000              -0.189052617               0.109534060               0.000000000              -0.212971646               0.125146824               0.000000000              -0.236890676               0.140759589               0.000000000              -0.260809705               0.156372354               0.000000000              -0.284728735               0.171985118               0.000000000              -0.308647764               0.187597883               0.000000000              -0.332566794               0.203210648               0.000000000              -0.356485823               0.218823412               0.000000000              -0.380404853               0.234436177               0.000000000              -0.404323882               0.250048941               0.000000000              -0.428242912               0.265661706               0.000000000              -0.452161941               0.281274471               0.000000000              -0.476080971               0.296887235               0.000000000              -0.500000000               0.312500000               0.000000000              -0.110585458               0.073890841               0.000000000              -0.134923867               0.092710163               0.000000000              -0.159262276               0.111529486               0.000000000              -0.183600685               0.130348808               0.000000000              -0.207939094               0.149168131               0.000000000              -0.232277503               0.167987453               0.000000000              -0.256615912               0.186806776               0.000000000              -0.280954320               0.205626098               0.000000000              -0.305292729               0.224445420               0.000000000              -0.329631138               0.243264743               0.000000000              -0.353969547               0.262084065               0.000000000              -0.378307956               0.280903388               0.000000000              -0.402646365               0.299722710               0.000000000              -0.426984773               0.318542033               0.000000000              -0.451323182               0.337361355               0.000000000              -0.475661591               0.356180678               0.000000000              -0.500000000               0.375000000               0.000000000              -0.102810390               0.084374307               0.000000000              -0.127634741               0.106444663               0.000000000              -0.152459092               0.128515018               0.000000000              -0.177283442               0.150585374               0.000000000              -0.202107793               0.172655730               0.000000000              -0.226932143               0.194726086               0.000000000              -0.251756494               0.216796442               0.000000000              -0.276580845               0.238866798               0.000000000              -0.301405195               0.260937153               0.000000000              -0.326229546               0.283007509               0.000000000              -0.351053896               0.305077865               0.000000000              -0.375878247               0.327148221               0.000000000              -0.400702598               0.349218577               0.000000000              -0.425526948               0.371288933               0.000000000              -0.450351299               0.393359288               0.000000000              -0.475175649               0.415429644               0.000000000              -0.500000000               0.437500000               0.000000000              -0.094045202               0.094045202               0.000000000              -0.119417377               0.119417377               0.000000000              -0.144789552               0.144789552               0.000000000              -0.170161727               0.170161727               0.000000000              -0.195533901               0.195533901               0.000000000              -0.220906076               0.220906076               0.000000000              -0.246278251               0.246278251               0.000000000              -0.271650426               0.271650426               0.000000000              -0.297022601               0.297022601               0.000000000              -0.322394776               0.322394776               0.000000000              -0.347766951               0.347766951               0.000000000              -0.373139126               0.373139126               0.000000000              -0.398511300               0.398511300               0.000000000              -0.423883475               0.423883475               0.000000000              -0.449255650               0.449255650               0.000000000              -0.474627825               0.474627825               0.000000000              -0.500000000               0.500000000               0.000000000              -0.084374307               0.102810390               0.000000000              -0.106444663               0.127634741               0.000000000              -0.128515018               0.152459092               0.000000000              -0.150585374               0.177283442               0.000000000              -0.172655730               0.202107793               0.000000000              -0.194726086               0.226932143               0.000000000              -0.216796442               0.251756494               0.000000000              -0.238866798               0.276580845               0.000000000              -0.260937153               0.301405195               0.000000000              -0.283007509               0.326229546               0.000000000              -0.305077865               0.351053896               0.000000000              -0.327148221               0.375878247               0.000000000              -0.349218577               0.400702598               0.000000000              -0.371288933               0.425526948               0.000000000              -0.393359288               0.450351299               0.000000000              -0.415429644               0.475175649               0.000000000              -0.437500000               0.500000000               0.000000000              -0.073890841               0.110585458               0.000000000              -0.092710163               0.134923867               0.000000000              -0.111529486               0.159262276               0.000000000              -0.130348808               0.183600685               0.000000000              -0.149168131               0.207939094               0.000000000              -0.167987453               0.232277503               0.000000000              -0.186806776               0.256615912               0.000000000              -0.205626098               0.280954320               0.000000000              -0.224445420               0.305292729               0.000000000              -0.243264743               0.329631138               0.000000000              -0.262084065               0.353969547               0.000000000              -0.280903388               0.378307956               0.000000000              -0.299722710               0.402646365               0.000000000              -0.318542033               0.426984773               0.000000000              -0.337361355               0.451323182               0.000000000              -0.356180678               0.475661591               0.000000000              -0.375000000               0.500000000               0.000000000              -0.062695766               0.117295528               0.000000000              -0.078308531               0.141214558               0.000000000              -0.093921295               0.165133587               0.000000000              -0.109534060               0.189052617               0.000000000              -0.125146824               0.212971646               0.000000000              -0.140759589               0.236890676               0.000000000              -0.156372354               0.260809705               0.000000000              -0.171985118               0.284728735               0.000000000              -0.187597883               0.308647764               0.000000000              -0.203210648               0.332566794               0.000000000              -0.218823412               0.356485823               0.000000000              -0.234436177               0.380404853               0.000000000              -0.250048941               0.404323882               0.000000000              -0.265661706               0.428242912               0.000000000              -0.281274471               0.452161941               0.000000000              -0.296887235               0.476080971               0.000000000              -0.312500000               0.500000000               0.000000000              -0.050896897               0.122875978               0.000000000              -0.063340840               0.146446229               0.000000000              -0.075784784               0.170016481               0.000000000              -0.088228728               0.193586732               0.000000000              -0.100672672               0.217156983               0.000000000              -0.113116616               0.240727235               0.000000000              -0.125560560               0.264297486               0.000000000              -0.138004504               0.287867738               0.000000000              -0.150448448               0.311437989               0.000000000              -0.162892392               0.335008240               0.000000000              -0.175336336               0.358578492               0.000000000              -0.187780280               0.382148743               0.000000000              -0.200224224               0.405718994               0.000000000              -0.212668168               0.429289246               0.000000000              -0.225112112               0.452859497               0.000000000              -0.237556056               0.476429749               0.000000000              -0.250000000               0.500000000               0.000000000              -0.038607862               0.127273065               0.000000000              -0.047913621               0.150568498               0.000000000              -0.057219379               0.173863932               0.000000000              -0.066525138               0.197159365               0.000000000              -0.075830897               0.220454798               0.000000000              -0.085136655               0.243750232               0.000000000              -0.094442414               0.267045665               0.000000000              -0.103748172               0.290341099               0.000000000              -0.113053931               0.313636532               0.000000000              -0.122359690               0.336931966               0.000000000              -0.131665448               0.360227399               0.000000000              -0.140971207               0.383522833               0.000000000              -0.150276966               0.406818266               0.000000000              -0.159582724               0.430113700               0.000000000              -0.168888483               0.453409133               0.000000000              -0.178194241               0.476704567               0.000000000              -0.187500000               0.500000000               0.000000000              -0.025947013               0.130444442               0.000000000              -0.032137825               0.153541665               0.000000000              -0.038328636               0.176638887               0.000000000              -0.044519448               0.199736109               0.000000000              -0.050710260               0.222833332               0.000000000              -0.056901071               0.245930554               0.000000000              -0.063091883               0.269027776               0.000000000              -0.069282695               0.292124999               0.000000000              -0.075473506               0.315222221               0.000000000              -0.081664318               0.338319444               0.000000000              -0.087855130               0.361416666               0.000000000              -0.094045942               0.384513888               0.000000000              -0.100236753               0.407611111               0.000000000              -0.106427565               0.430708333               0.000000000              -0.112618377               0.453805555               0.000000000              -0.118809188               0.476902778               0.000000000              -0.125000000               0.500000000               0.000000000              -0.013036280               0.132359569               0.000000000              -0.016127762               0.155337096               0.000000000              -0.019219245               0.178314623               0.000000000              -0.022310727               0.201292150               0.000000000              -0.025402210               0.224269676               0.000000000              -0.028493692               0.247247203               0.000000000              -0.031585175               0.270224730               0.000000000              -0.034676657               0.293202257               0.000000000              -0.037768140               0.316179784               0.000000000              -0.040859622               0.339157311               0.000000000              -0.043951105               0.362134838               0.000000000              -0.047042587               0.385112365               0.000000000              -0.050134070               0.408089892               0.000000000              -0.053225552               0.431067419               0.000000000              -0.056317035               0.454044946               0.000000000              -0.059408517               0.477022473               0.000000000              -0.062500000               0.500000000               0.000000000               0.000000000               0.133000000               0.000000000               0.000000000               0.155937500               0.000000000               0.000000000               0.178875000               0.000000000               0.000000000               0.201812500               0.000000000               0.000000000               0.224750000               0.000000000               0.000000000               0.247687500               0.000000000               0.000000000               0.270625000               0.000000000               0.000000000               0.293562500               0.000000000               0.000000000               0.316500000               0.000000000               0.000000000               0.339437500               0.000000000               0.000000000               0.362375000               0.000000000               0.000000000               0.385312500               0.000000000               0.000000000               0.408250000               0.000000000               0.000000000               0.431187500               0.000000000               0.000000000               0.454125000               0.000000000               0.000000000               0.477062500               0.000000000               0.000000000               0.500000000               0.000000000 </DataArray>
</Points>
<Cells>
<DataArray type="Int32"                                    Name="connectivity"                                                      NumberOfComponents=" 1" format="ascii">
         0          1         18         17          1          2         19         18          2          3         20         19          3          4         21         20          4          5         22         21          5          6         23         22          6          7         24         23          7          8         25         24          8          9         26         25          9         10         27         26         10         11         28         27         11         12         29         28         12         13         30         29         13         14         31         30         14         15         32         31         15         16         33         32         17         18         35         34         18         19         36         35         19         20         37         36         20         21         38         37         21         22         39         38         22         23         40         39         23         24         41         40         24         25         42         41         25         26         43         42         26         27         44         43         27         28         45         44         28         29         46         45         29         30         47         46         30         31         48         47         31         32         49         48         32         33         50         49         34         35         52         51         35         36         53         52         36         37         54         53         37         38         55         54         38         39         56         55         39         40         57         56         40         41         58         57         41         42         59         58         42         43         60         59         43         44         61         60         44         45         62         61         45         46         63         62         46         47         64         63         47         48         65         64         48         49         66         65         49         50         67         66         51         52         69         68         52         53         70         69         53         54         71         70         54         55         72         71         55         56         73         72         56         57         74         73         57         58         75         74         58         59         76         75         59         60         77         76         60         61         78         77         61         62         79         78         62         63         80         79         63         64         81         80         64         65         82         81         65         66         83         82         66         67         84         83         68         69         86         85         69         70         87         86         70         71         88         87         71         72         89         88         72         73         90         89         73         74         91         90         74         75         92         91         75         76         93         92         76         77         94         93         77         78         95         94         78         79         96         95         79         80         97         96         80         81         98         97         81         82         99         98         82         83        100         99         83         84        101        100         85         86        103        102         86         87        104        103         87         88        105        104         88         89        106        105         89         90        107        106         90         91        108        107         91         92        109        108         92         93        110        109         93         94        111        110         94         95        112        111         95         96        113        112         96         97        114        113         97         98        115        114         98         99        116        115         99        100        117        116        100        101        118        117        102        103        120        119        103        104        121        120        104        105        122        121        105        106        123        122        106        107        124        123        107        108        125        124        108        109        126        125        109        110        127        126        110        111        128        127        111        112        129        128        112        113        130        129        113        114        131        130        114        115        132        131        115        116        133        132        116        117        134        133        117        118        135        134        119        120        137        136        120        121        138        137        121        122        139        138        122        123        140        139        123        124        141        140        124        125        142        141        125        126        143        142        126        127        144        143        127        128        145        144        128        129        146        145        129        130        147        146        130        131        148        147        131        132        149        148        132        133        150        149        133        134        151        150        134        135        152        151        136        137        154        153        137        138        155        154        138        139        156        155        139        140        157        156        140        141        158        157        141        142        159        158        142        143        160        159        143        144        161        160        144        145        162        161        145        146        163        162        146        147        164        163        147        148        165        164        148        149        166        165        149        150        167        166        150        151        168        167        151        152        169        168        153        154        171        170        154        155        172        171        155        156        173        172        156        157        174        173        157        158        175        174        158        159        176        175        159        160        177        176        160        161        178        177        161        162        179        178        162        163        180        179        163        164        181        180        164        165        182        181        165        166        183        182        166        167        184        183        167        168        185        184        168        169        186        185        170        171        188        187        171        172        189        188        172        173        190        189        173        174        191        190        174        175        192        191        175        176        193        192        176        177        194        193        177        178        195        194        178        179        196        195        179        180        197        196        180        181        198        197        181        182        199        198        182        183        200        199        183        184        201        200        184        185        202        201        185        186        203        202        187        188        205        204        188        189        206        205        189        190        207        206        190        191        208        207        191        192        209        208        192        193        210        209        193        194        211        210        194        195        212        211        195        196        213        212        196        197        214        213        197        198        215        214        198        199        216        215        199        200        217        216        200        201        218        217        201        202        219        218        202        203        220        219        204        205        222        221        205        206        223        222        206        207        224        223        207        208        225        224        208        209        226        225        209        210        227        226        210        211        228        227        211        212        229        228        212        213        230        229        213        214        231        230        214        215        232        231        215        216        233        232        216        217        234        233        217        218        235        234        218        219        236        235        219        220        237        236        221        222        239        238        222        223        240        239        223        224        241        240        224        225        242        241        225        226        243        242        226        227        244        243        227        228        245        244        228        229        246        245        229        230        247        246        230        231        248        247        231        232        249        248        232        233        250        249        233        234        251        250        234        235        252        251        235        236        253        252        236        237        254        253        238        239        256        255        239        240        257        256        240        241        258        257        241        242        259        258        242        243        260        259        243        244        261        260        244        245        262        261        245        246        263        262        246        247        264        263        247        248        265        264        248        249        266        265        249        250        267        266        250        251        268        267        251        252        269        268        252        253        270        269        253        254        271        270        255        256        273        272        256        257        274        273        257        258        275        274        258        259        276        275        259        260        277        276        260        261        278        277        261        262        279        278        262        263        280        279        263        264        281        280        264        265        282        281        265        266        283        282        266        267        284        283        267        268        285        284        268        269        286        285        269        270        287        286        270        271        288        287        306        307          1          0        307        308          2          1        308        309          3          2        309        310          4          3        310        311          5          4        311        312          6          5        312        313          7          6        313        314          8          7        314        315          9          8        315        316         10          9        316        317         11         10        317        318         12         11        318        319         13         12        319        320         14         13        320        321         15         14        321        322         16         15        323        324        307        306        324        325        308        307        325        326        309        308        326        327        310        309        327        328        311        310        328        329        312        311        329        330        313        312        330        331        314        313        331        332        315        314        332        333        316        315        333        334        317        316        334        335        318        317        335        336        319        318        336        337        320        319        337        338        321        320        338        339        322        321        340        341        324        323        341        342        325        324        342        343        326        325        343        344        327        326        344        345        328        327        345        346        329        328        346        347        330        329        347        348        331        330        348        349        332        331        349        350        333        332        350        351        334        333        351        352        335        334        352        353        336        335        353        354        337        336        354        355        338        337        355        356        339        338        357        358        341        340        358        359        342        341        359        360        343        342        360        361        344        343        361        362        345        344        362        363        346        345        363        364        347        346        364        365        348        347        365        366        349        348        366        367        350        349        367        368        351        350        368        369        352        351        369        370        353        352        370        371        354        353        371        372        355        354        372        373        356        355        374        375        358        357        375        376        359        358        376        377        360        359        377        378        361        360        378        379        362        361        379        380        363        362        380        381        364        363        381        382        365        364        382        383        366        365        383        384        367        366        384        385        368        367        385        386        369        368        386        387        370        369        387        388        371        370        388        389        372        371        389        390        373        372        391        392        375        374        392        393        376        375        393        394        377        376        394        395        378        377        395        396        379        378        396        397        380        379        397        398        381        380        398        399        382        381        399        400        383        382        400        401        384        383        401        402        385        384        402        403        386        385        403        404        387        386        404        405        388        387        405        406        389        388        406        407        390        389        408        409        392        391        409        410        393        392        410        411        394        393        411        412        395        394        412        413        396        395        413        414        397        396        414        415        398        397        415        416        399        398        416        417        400        399        417        418        401        400        418        419        402        401        419        420        403        402        420        421        404        403        421        422        405        404        422        423        406        405        423        424        407        406        425        426        409        408        426        427        410        409        427        428        411        410        428        429        412        411        429        430        413        412        430        431        414        413        431        432        415        414        432        433        416        415        433        434        417        416        434        435        418        417        435        436        419        418        436        437        420        419        437        438        421        420        438        439        422        421        439        440        423        422        440        441        424        423        442        443        426        425        443        444        427        426        444        445        428        427        445        446        429        428        446        447        430        429        447        448        431        430        448        449        432        431        449        450        433        432        450        451        434        433        451        452        435        434        452        453        436        435        453        454        437        436        454        455        438        437        455        456        439        438        456        457        440        439        457        458        441        440        459        460        443        442        460        461        444        443        461        462        445        444        462        463        446        445        463        464        447        446        464        465        448        447        465        466        449        448        466        467        450        449        467        468        451        450        468        469        452        451        469        470        453        452        470        471        454        453        471        472        455        454        472        473        456        455        473        474        457        456        474        475        458        457        476        477        460        459        477        478        461        460        478        479        462        461        479        480        463        462        480        481        464        463        481        482        465        464        482        483        466        465        483        484        467        466        484        485        468        467        485        486        469        468        486        487        470        469        487        488        471        470        488        489        472        471        489        490        473        472        490        491        474        473        491        492        475        474        493        494        477        476        494        495        478        477        495        496        479        478        496        497        480        479        497        498        481        480        498        499        482        481        499        500        483        482        500        501        484        483        501        502        485        484        502        503        486        485        503        504        487        486        504        505        488        487        505        506        489        488        506        507        490        489        507        508        491        490        508        509        492        491        510        511        494        493        511        512        495        494        512        513        496        495        513        514        497        496        514        515        498        497        515        516        499        498        516        517        500        499        517        518        501        500        518        519        502        501        519        520        503        502        520        521        504        503        521        522        505        504        522        523        506        505        523        524        507        506        524        525        508        507        525        526        509        508        527        528        511        510        528        529        512        511        529        530        513        512        530        531        514        513        531        532        515        514        532        533        516        515        533        534        517        516        534        535        518        517        535        536        519        518        536        537        520        519        537        538        521        520        538        539        522        521        539        540        523        522        540        541        524        523        541        542        525        524        542        543        526        525        544        545        528        527        545        546        529        528        546        547        530        529        547        548        531        530        548        549        532        531        549        550        533        532        550        551        534        533        551        552        535        534        552        553        536        535        553        554        537        536        554        555        538        537        555        556        539        538        556        557        540        539        557        558        541        540        558        559        542        541        559        560        543        542        561        562        545        544        562        563        546        545        563        564        547        546        564        565        548        547        565        566        549        548        566        567        550        549        567        568        551        550        568        569        552        551        569        570        553        552        570        571        554        553        571        572        555        554        572        573        556        555        573        574        557        556        574        575        558        557        575        576        559        558        576        577        560        559        578        579        596        595        579        580        597        596        580        581        598        597        581        582        599        598        582        583        600        599        583        584        601        600        584        585        602        601        585        586        603        602        586        587        604        603        587        588        605        604        588        589        606        605        589        590        607        606        590        591        608        607        591        592        609        608        592        593        610        609        593        594        611        610        595        596        613        612        596        597        614        613        597        598        615        614        598        599        616        615        599        600        617        616        600        601        618        617        601        602        619        618        602        603        620        619        603        604        621        620        604        605        622        621        605        606        623        622        606        607        624        623        607        608        625        624        608        609        626        625        609        610        627        626        610        611        628        627        612        613        630        629        613        614        631        630        614        615        632        631        615        616        633        632        616        617        634        633        617        618        635        634        618        619        636        635        619        620        637        636        620        621        638        637        621        622        639        638        622        623        640        639        623        624        641        640        624        625        642        641        625        626        643        642        626        627        644        643        627        628        645        644        629        630        647        646        630        631        648        647        631        632        649        648        632        633        650        649        633        634        651        650        634        635        652        651        635        636        653        652        636        637        654        653        637        638        655        654        638        639        656        655        639        640        657        656        640        641        658        657        641        642        659        658        642        643        660        659        643        644        661        660        644        645        662        661        646        647        664        663        647        648        665        664        648        649        666        665        649        650        667        666        650        651        668        667        651        652        669        668        652        653        670        669        653        654        671        670        654        655        672        671        655        656        673        672        656        657        674        673        657        658        675        674        658        659        676        675        659        660        677        676        660        661        678        677        661        662        679        678        663        664        681        680        664        665        682        681        665        666        683        682        666        667        684        683        667        668        685        684        668        669        686        685        669        670        687        686        670        671        688        687        671        672        689        688        672        673        690        689        673        674        691        690        674        675        692        691        675        676        693        692        676        677        694        693        677        678        695        694        678        679        696        695        680        681        698        697        681        682        699        698        682        683        700        699        683        684        701        700        684        685        702        701        685        686        703        702        686        687        704        703        687        688        705        704        688        689        706        705        689        690        707        706        690        691        708        707        691        692        709        708        692        693        710        709        693        694        711        710        694        695        712        711        695        696        713        712        697        698        715        714        698        699        716        715        699        700        717        716        700        701        718        717        701        702        719        718        702        703        720        719        703        704        721        720        704        705        722        721        705        706        723        722        706        707        724        723        707        708        725        724        708        709        726        725        709        710        727        726        710        711        728        727        711        712        729        728        712        713        730        729        714        715        732        731        715        716        733        732        716        717        734        733        717        718        735        734        718        719        736        735        719        720        737        736        720        721        738        737        721        722        739        738        722        723        740        739        723        724        741        740        724        725        742        741        725        726        743        742        726        727        744        743        727        728        745        744        728        729        746        745        729        730        747        746        731        732        749        748        732        733        750        749        733        734        751        750        734        735        752        751        735        736        753        752        736        737        754        753        737        738        755        754        738        739        756        755        739        740        757        756        740        741        758        757        741        742        759        758        742        743        760        759        743        744        761        760        744        745        762        761        745        746        763        762        746        747        764        763        748        749        766        765        749        750        767        766        750        751        768        767        751        752        769        768        752        753        770        769        753        754        771        770        754        755        772        771        755        756        773        772        756        757        774        773        757        758        775        774        758        759        776        775        759        760        777        776        760        761        778        777        761        762        779        778        762        763        780        779        763        764        781        780        765        766        783        782        766        767        784        783        767        768        785        784        768        769        786        785        769        770        787        786        770        771        788        787        771        772        789        788        772        773        790        789        773        774        791        790        774        775        792        791        775        776        793        792        776        777        794        793        777        778        795        794        778        779        796        795        779        780        797        796        780        781        798        797        782        783        800        799        783        784        801        800        784        785        802        801        785        786        803        802        786        787        804        803        787        788        805        804        788        789        806        805        789        790        807        806        790        791        808        807        791        792        809        808        792        793        810        809        793        794        811        810        794        795        812        811        795        796        813        812        796        797        814        813        797        798        815        814        799        800        817        816        800        801        818        817        801        802        819        818        802        803        820        819        803        804        821        820        804        805        822        821        805        806        823        822        806        807        824        823        807        808        825        824        808        809        826        825        809        810        827        826        810        811        828        827        811        812        829        828        812        813        830        829        813        814        831        830        814        815        832        831        816        817        834        833        817        818        835        834        818        819        836        835        819        820        837        836        820        821        838        837        821        822        839        838        822        823        840        839        823        824        841        840        824        825        842        841        825        826        843        842        826        827        844        843        827        828        845        844        828        829        846        845        829        830        847        846        830        831        848        847        831        832        849        848        833        834        562        561        834        835        563        562        835        836        564        563        836        837        565        564        837        838        566        565        838        839        567        566        839        840        568        567        840        841        569        568        841        842        570        569        842        843        571        570        843        844        572        571        844        845        573        572        845        846        574        573        846        847        575        574        847        848        576        575        848        849        577        576        884        885        579        578        885        886        580        579        886        887        581        580        887        888        582        581        888        889        583        582        889        890        584        583        890        891        585        584        891        892        586        585        892        893        587        586        893        894        588        587        894        895        589        588        895        896        590        589        896        897        591        590        897        898        592        591        898        899        593        592        899        900        594        593        901        902        885        884        902        903        886        885        903        904        887        886        904        905        888        887        905        906        889        888        906        907        890        889        907        908        891        890        908        909        892        891        909        910        893        892        910        911        894        893        911        912        895        894        912        913        896        895        913        914        897        896        914        915        898        897        915        916        899        898        916        917        900        899        918        919        902        901        919        920        903        902        920        921        904        903        921        922        905        904        922        923        906        905        923        924        907        906        924        925        908        907        925        926        909        908        926        927        910        909        927        928        911        910        928        929        912        911        929        930        913        912        930        931        914        913        931        932        915        914        932        933        916        915        933        934        917        916        935        936        919        918        936        937        920        919        937        938        921        920        938        939        922        921        939        940        923        922        940        941        924        923        941        942        925        924        942        943        926        925        943        944        927        926        944        945        928        927        945        946        929        928        946        947        930        929        947        948        931        930        948        949        932        931        949        950        933        932        950        951        934        933        952        953        936        935        953        954        937        936        954        955        938        937        955        956        939        938        956        957        940        939        957        958        941        940        958        959        942        941        959        960        943        942        960        961        944        943        961        962        945        944        962        963        946        945        963        964        947        946        964        965        948        947        965        966        949        948        966        967        950        949        967        968        951        950        969        970        953        952        970        971        954        953        971        972        955        954        972        973        956        955        973        974        957        956        974        975        958        957        975        976        959        958        976        977        960        959        977        978        961        960        978        979        962        961        979        980        963        962        980        981        964        963        981        982        965        964        982        983        966        965        983        984        967        966        984        985        968        967        986        987        970        969        987        988        971        970        988        989        972        971        989        990        973        972        990        991        974        973        991        992        975        974        992        993        976        975        993        994        977        976        994        995        978        977        995        996        979        978        996        997        980        979        997        998        981        980        998        999        982        981        999       1000        983        982       1000       1001        984        983       1001       1002        985        984       1003       1004        987        986       1004       1005        988        987       1005       1006        989        988       1006       1007        990        989       1007       1008        991        990       1008       1009        992        991       1009       1010        993        992       1010       1011        994        993       1011       1012        995        994       1012       1013        996        995       1013       1014        997        996       1014       1015        998        997       1015       1016        999        998       1016       1017       1000        999       1017       1018       1001       1000       1018       1019       1002       1001       1020       1021       1004       1003       1021       1022       1005       1004       1022       1023       1006       1005       1023       1024       1007       1006       1024       1025       1008       1007       1025       1026       1009       1008       1026       1027       1010       1009       1027       1028       1011       1010       1028       1029       1012       1011       1029       1030       1013       1012       1030       1031       1014       1013       1031       1032       1015       1014       1032       1033       1016       1015       1033       1034       1017       1016       1034       1035       1018       1017       1035       1036       1019       1018       1037       1038       1021       1020       1038       1039       1022       1021       1039       1040       1023       1022       1040       1041       1024       1023       1041       1042       1025       1024       1042       1043       1026       1025       1043       1044       1027       1026       1044       1045       1028       1027       1045       1046       1029       1028       1046       1047       1030       1029       1047       1048       1031       1030       1048       1049       1032       1031       1049       1050       1033       1032       1050       1051       1034       1033       1051       1052       1035       1034       1052       1053       1036       1035       1054       1055       1038       1037       1055       1056       1039       1038       1056       1057       1040       1039       1057       1058       1041       1040       1058       1059       1042       1041       1059       1060       1043       1042       1060       1061       1044       1043       1061       1062       1045       1044       1062       1063       1046       1045       1063       1064       1047       1046       1064       1065       1048       1047       1065       1066       1049       1048       1066       1067       1050       1049       1067       1068       1051       1050       1068       1069       1052       1051       1069       1070       1053       1052       1071       1072       1055       1054       1072       1073       1056       1055       1073       1074       1057       1056       1074       1075       1058       1057       1075       1076       1059       1058       1076       1077       1060       1059       1077       1078       1061       1060       1078       1079       1062       1061       1079       1080       1063       1062       1080       1081       1064       1063       1081       1082       1065       1064       1082       1083       1066       1065       1083       1084       1067       1066       1084       1085       1068       1067       1085       1086       1069       1068       1086       1087       1070       1069       1088       1089       1072       1071       1089       1090       1073       1072       1090       1091       1074       1073       1091       1092       1075       1074       1092       1093       1076       1075       1093       1094       1077       1076       1094       1095       1078       1077       1095       1096       1079       1078       1096       1097       1080       1079       1097       1098       1081       1080       1098       1099       1082       1081       1099       1100       1083       1082       1100       1101       1084       1083       1101       1102       1085       1084       1102       1103       1086       1085       1103       1104       1087       1086       1105       1106       1089       1088       1106       1107       1090       1089       1107       1108       1091       1090       1108       1109       1092       1091       1109       1110       1093       1092       1110       1111       1094       1093       1111       1112       1095       1094       1112       1113       1096       1095       1113       1114       1097       1096       1114       1115       1098       1097       1115       1116       1099       1098       1116       1117       1100       1099       1117       1118       1101       1100       1118       1119       1102       1101       1119       1120       1103       1102       1120       1121       1104       1103       1122       1123       1106       1105       1123       1124       1107       1106       1124       1125       1108       1107       1125       1126       1109       1108       1126       1127       1110       1109       1127       1128       1111       1110       1128       1129       1112       1111       1129       1130       1113       1112       1130       1131       1114       1113       1131       1132       1115       1114       1132       1133       1116       1115       1133       1134       1117       1116       1134       1135       1118       1117       1135       1136       1119       1118       1136       1137       1120       1119       1137       1138       1121       1120        272        273       1123       1122        273        274       1124       1123        274        275       1125       1124        275        276       1126       1125        276        277       1127       1126        277        278       1128       1127        278        279       1129       1128        279        280       1130       1129        280        281       1131       1130        281        282       1132       1131        282        283       1133       1132        283        284       1134       1133        284        285       1135       1134        285        286       1136       1135        286        287       1137       1136        287        288       1138       1137 </DataArray>
<DataArray type="Int32"                                    Name="offsets"                                                      NumberOfComponents=" 1" format="ascii">
         4          8         12         16         20         24         28         32         36         40         44         48         52         56         60         64         68         72         76         80         84         88         92         96        100        104        108        112        116        120        124        128        132        136        140        144        148        152        156        160        164        168        172        176        180        184        188        192        196        200        204        208        212        216        220        224        228        232        236        240        244        248        252        256        260        264        268        272        276        280        284        288        292        296        300        304        308        312        316        320        324        328        332        336        340        344        348        352        356        360        364        368        372        376        380        384        388        392        396        400        404        408        412        416        420        424        428        432        436        440        444        448        452        456        460        464        468        472        476        480        484        488        492        496        500        504        508        512        516        520        524        528        532        536        540        544        548        552        556        560        564        568        572        576        580        584        588        592        596        600        604        608        612        616        620        624        628        632        636        640        644        648        652        656        660        664        668        672        676        680        684        688        692        696        700        704        708        712        716        720        724        728        732        736        740        744        748        752        756        760        764        768        772        776        780        784        788        792        796        800        804        808        812        816        820        824        828        832        836        840        844        848        852        856        860        864        868        872        876        880        884        888        892        896        900        904        908        912        916        920        924        928        932        936        940        944        948        952        956        960        964        968        972        976        980        984        988        992        996       1000       1004       1008       1012       1016       1020       1024       1028       1032       1036       1040       1044       1048       1052       1056       1060       1064       1068       1072       1076       1080       1084       1088       1092       1096       1100       1104       1108       1112       1116       1120       1124       1128       1132       1136       1140       1144       1148       1152       1156       1160       1164       1168       1172       1176       1180       1184       1188       1192       1196       1200       1204       1208       1212       1216       1220       1224       1228       1232       1236       1240       1244       1248       1252       1256       1260       1264       1268       1272       1276       1280       1284       1288       1292       1296       1300       1304       1308       1312       1316       1320       1324       1328       1332       1336       1340       1344       1348       1352       1356       1360       1364       1368       1372       1376       1380       1384       1388       1392       1396       1400       1404       1408       1412       1416       1420       1424       1428       1432       1436       1440       1444       1448       1452       1456       1460       1464       1468       1472       1476       1480       1484       1488       1492       1496       1500       1504       1508       1512       1516       1520       1524       1528       1532       1536       1540       1544       1548       1552       1556       1560       1564       1568       1572       1576       1580       1584       1588       1592       1596       1600       1604       1608       1612       1616       1620       1624       1628       1632       1636       1640       1644       1648       1652       1656       1660       1664       1668       1672       1676       1680       1684       1688       1692       1696       1700       1704       1708       1712       1716       1720       1724       1728       1732       1736       1740       1744       1748       1752       1756       1760       1764       1768       1772       1776       1780       1784       1788       1792       1796       1800       1804       1808       1812       1816       1820       1824       1828       1832       1836       1840       1844       1848       1852       1856       1860       1864       1868       1872       1876       1880       1884       1888       1892       1896       1900       1904       1908       1912       1916       1920       1924       1928       1932       1936       1940       1944       1948       1952       1956       1960       1964       1968       1972       1976       1980       1984       1988       1992       1996       2000       2004       2008       2012       2016       2020       2024       2028       2032       2036       2040       2044       2048       2052       2056       2060       2064       2068       2072       2076       2080       2084       2088       2092       2096       2100       2104       2108       2112       2116       2120       2124       2128       2132       2136       2140       2144       2148       2152       2156       2160       2164       2168       2172       2176       2180       2184       2188       2192       2196       2200       2204       2208       2212       2216       2220       2224       2228       2232       2236       2240       2244       2248       2252       2256       2260       2264       2268       2272       2276       2280       2284       2288       2292       2296       2300       2304       2308       2312       2316       2320       2324       2328       2332       2336       2340       2344       2348       2352       2356       2360       2364       2368       2372       2376       2380       2384       2388       2392       2396       2400       2404       2408       2412       2416       2420       2424       2428       2432       2436       2440       2444       2448       2452       2456       2460       2464       2468       2472       2476       2480       2484       2488       2492       2496       2500       2504       2508       2512       2516       2520       2524       2528       2532       2536       2540       2544       2548       2552       2556       2560       2564       2568       2572       2576       2580       2584       2588       2592       2596       2600       2604       2608       2612       2616       2620       2624       2628       2632       2636       2640       2644       2648       2652       2656       2660       2664       2668       2672       2676       2680       2684       2688       2692       2696       2700       2704       2708       2712       2716       2720       2724       2728       2732       2736       2740       2744       2748       2752       2756       2760       2764       2768       2772       2776       2780       2784       2788       2792       2796       2800       2804       2808       2812       2816       2820       2824       2828       2832       2836       2840       2844       2848       2852       2856       2860       2864       2868       2872       2876       2880       2884       2888       2892       2896       2900       2904       2908       2912       2916       2920       2924       2928       2932       2936       2940       2944       2948       2952       2956       2960       2964       2968       2972       2976       2980       2984       2988       2992       2996       3000       3004       3008       3012       3016       3020       3024       3028       3032       3036       3040       3044       3048       3052       3056       3060       3064       3068       3072       3076       3080       3084       3088       3092       3096       3100       3104       3108       3112       3116       3120       3124       3128       3132       3136       3140       3144       3148       3152       3156       3160       3164       3168       3172       3176       3180       3184       3188       3192       3196       3200       3204       3208       3212       3216       3220       3224       3228       3232       3236       3240       3244       3248       3252       3256       3260       3264       3268       3272       3276       3280       3284       3288       3292       3296       3300       3304       3308       3312       3316       3320       3324       3328       3332       3336       3340       3344       3348       3352       3356       3360       3364       3368       3372       3376       3380       3384       3388       3392       3396       3400       3404       3408       3412       3416       3420       3424       3428       3432       3436       3440       3444       3448       3452       3456       3460       3464       3468       3472       3476       3480       3484       3488       3492       3496       3500       3504       3508       3512       3516       3520       3524       3528       3532       3536       3540       3544       3548       3552       3556       3560       3564       3568       3572       3576       3580       3584       3588       3592       3596       3600       3604       3608       3612       3616       3620       3624       3628       3632       3636       3640       3644       3648       3652       3656       3660       3664       3668       3672       3676       3680       3684       3688       3692       3696       3700       3704       3708       3712       3716       3720       3724       3728       3732       3736       3740       3744       3748       3752       3756       3760       3764       3768       3772       3776       3780       3784       3788       3792       3796       3800       3804       3808       3812       3816       3820       3824       3828       3832       3836       3840       3844       3848       3852       3856       3860       3864       3868       3872       3876       3880       3884       3888       3892       3896       3900       3904       3908       3912       3916       3920       3924       3928       3932       3936       3940       3944       3948       3952       3956       3960       3964       3968       3972       3976       3980       3984       3988       3992       3996       4000       4004       4008       4012       4016       4020       4024       4028       4032       4036       4040       4044       4048       4052       4056       4060       4064       4068       4072       4076       4080       4084       4088       4092       4096 </DataArray>
<DataArray type="UInt8"                                    Name="types"                                                      NumberOfComponents=" 1" format="ascii">
         9          9          9          9          9          9          9          9          9          9          9          9          9          9          9          9          9          9          9          9          9          9          9          9          9          9          9          9          9          9          9          9          9          9          9          9          9          9          9          9          9          9          9          9          9          9          9          9          9          9          9          9          9          9          9          9          9          9          9          9          9          9          9          9          9          9          9          9          9          9          9          9          9          9          9          9          9          9          9          9          9          9          9          9          9          9          9          9          9          9          9          9          9          9          9          9          9          9          9          9          9          9          9          9          9          9          9          9          9          9          9          9          9          9          9          9          9          9          9          9          9          9          9          9          9          9          9          9          9          9          9          9          9          9          9          9          9          9          9          9          9          9          9          9          9          9          9          9          9          9          9          9          9          9          9          9          9          9          9          9          9          9          9          9          9          9          9          9          9          9          9          9          9          9          9          9          9          9          9          9          9          9          9          9          9          9          9          9          9          9          9          9          9          9          9          9          9          9          9          9          9          9          9          9          9          9          9          9          9          9          9          9          9          9          9          9          9          9          9          9          9          9          9          9          9          9          9          9          9          9          9          9          9          9          9          9          9          9          9          9          9          9          9          9          9          9          9          9          9          9          9          9          9          9          9          9          9          9          9          9          9          9          9          9          9          9          9          9          9          9          9          9          9          9          9          9          9          9          9          9          9          9          9          9          9          9          9          9          9          9          9          9          9          9          9          9          9          9          9          9          9          9          9          9          9          9          9          9          9          9          9          9          9          9          9          9          9          9          9          9          9          9          9          9          9          9          9          9          9          9          9          9          9          9          9          9          9          9          9          9          9          9          9          9          9          9          9          9          9          9          9          9          9          9          9          9          9          9          9          9          9          9          9          9          9          9          9          9          9          9          9          9          9          9          9          9          9          9          9          9          9          9          9          9          9          9          9          9          9          9          9          9          9          9          9          9          9          9          9          9          9          9          9          9          9          9          9          9          9          9          9          9          9          9          9          9          9          9          9          9          9          9          9          9          9          9          9          9          9          9          9          9          9          9          9          9          9          9          9          9          9          9          9          9          9          9          9          9          9          9          9          9          9          9          9          9          9          9          9          9          9          9          9          9          9          9          9          9          9          9          9          9          9          9          9          9          9          9          9          9          9          9          9          9          9          9          9          9          9          9          9          9          9          9          9          9          9          9          9          9          9          9          9          9          9          9          9          9          9          9          9          9          9          9          9          9          9          9          9          9          9          9          9          9          9          9          9          9          9          9          9          9          9          9          9          9          9          9          9          9          9          9          9          9          9          9          9          9          9          9          9          9          9          9          9          9          9          9          9          9          9          9          9          9          9          9          9          9          9          9          9          9          9          9          9          9          9          9          9          9          9          9          9          9          9          9          9          9          9          9          9          9          9          9          9          9          9          9          9          9          9          9          9          9          9          9          9          9          9          9          9          9          9          9          9          9          9          9          9          9          9          9          9          9          9          9          9          9          9          9          9          9          9          9          9          9          9          9          9          9          9          9          9          9          9          9          9          9          9          9          9          9          9          9          9          9          9          9          9          9          9          9          9          9          9          9          9          9          9          9          9          9          9          9          9          9          9          9          9          9          9          9          9          9          9          9          9          9          9          9          9          9          9          9          9          9          9          9          9          9          9          9          9          9          9          9          9          9          9          9          9          9          9          9          9          9          9          9          9          9          9          9          9          9          9          9          9          9          9          9          9          9          9          9          9          9          9          9          9          9          9          9          9          9          9          9          9          9          9          9          9          9          9          9          9          9          9          9          9          9          9          9          9          9          9          9          9          9          9          9          9          9          9          9          9          9          9          9          9          9          9          9          9          9          9          9          9          9          9          9          9          9          9          9          9          9          9          9          9          9          9          9          9          9          9          9          9          9          9          9          9          9          9          9          9          9          9          9          9          9          9          9          9          9          9          9          9          9          9          9          9          9          9          9          9          9          9          9          9          9          9          9          9          9          9          9          9          9          9          9          9          9          9          9          9          9          9          9          9          9          9          9          9          9          9          9          9          9          9          9          9          9          9          9          9          9          9          9          9          9          9          9          9          9          9          9          9          9          9          9          9          9          9          9          9          9          9          9          9          9          9          9          9          9          9          9          9          9          9          9          9          9          9          9          9          9          9          9          9          9          9          9          9          9          9          9          9          9          9          9          9          9          9          9          9          9          9          9          9          9          9          9          9          9          9          9          9          9          9          9          9          9          9          9          9          9          9          9          9          9          9          9          9          9          9          9          9          9          9          9          9          9          9          9          9          9          9          9          9          9          9          9          9          9          9          9          9          9          9          9          9          9          9          9          9          9          9          9          9          9          9          9          9          9          9          9          9          9          9          9          9          9          9          9          9          9          9          9          9          9          9          9          9          9 </DataArray>
</Cells>
<CellData>
<DataArray type="Int32"                                    Name="material"                                                      NumberOfComponents=" 1" format="ascii">
         1          1          1          1          1          1          1          1          1          1          1          1          1          1          1          1          1          1          1          1          1          1          1          1          1          1          1          1          1          1          1          1          1          1          1          1          1          1          1          1          1          1          1          1          1          1          1          1          1          1          1          1          1          1          1          1          1          1          1          1          1          1          1          1          1          1          1          1          1          1          1          1          1          1          1          1          1          1          1          1          1          1          1          1          1          1          1          1          1          1          1          1          1          1          1          1          1          1          1          1          1          1          1          1          1          1          1          1          1          1          1          1          1          1          1          1          1          1          1          1          1          1          1          1          1          1          1          1          1          1          1          1          1          1          1          1          1          1          1          1          1          1          1          1          1          1          1          1          1          1          1          1          1          1          1          1          1          1          1          1          1          1          1          1          1          1          1          1          1          1          1          1          1          1          1          1          1          1          1          1          1          1          1          1          1          1          1          1          1          1          1          1          1          1          1          1          1          1          1          1          1          1          1          1          1          1          1          1          1          1          1          1          1          1          1          1          1          1          1          1          1          1          1          1          1          1          1          1          1          1          1          1          1          1          1          1          1          1          1          1          1          1          1          1          1          1          1          1          1          1          1          1          1          1          1          1          1          1          1          1          1          1          1          1          1          1          1          1          1          1          1          1          1          1          1          1          1          1          1          1          1          1          1          1          1          1          1          1          1          1          1          1          1          1          1          1          1          1          1          1          1          1          1          1          1          1          1          1          1          1          1          1          1          1          1          1          1          1          1          1          1          1          1          1          1          1          1          1          1          1          1          1          1          1          1          1          1          1          1          1          1          1          1          1          1          1          1          1          1          1          1          1          1          1          1          1          1          1          1          1          1          1          1          1          1          1          1          1          1          1          1          1          1          1          1          1          1          1          1          1          1          1          1          1          1          1          1          1          1          1          1          1          1          1          1          1          1          1          1          1          1          1          1          1          1          1          1          1          1          1          1          1          1          1          1          1          1          1          1          1          1          1          1          1          1          1          1          1          1          1          1          1          1          1          1          1          1          1          1          1          1          1          1          1          1          1          1          1          1          1          1          1          1          1          1          1          1          1          1          1          1          1          1          1          1          1          1          1          1          1          1          1          1          1          1          1          1          1          1          1          1          1          1          1          1          1          1          1          1          1          1          1          1          1          1          1          1          1          1          1          1          1          1          1          1          1          1          1          1          1          1          1          1          1          1          1          1          1          1          1          1          1          1          1          1          1          1          1          1          1          1          1          1          1          1          1          1          1          1          1          1          1          1          1          1          1          1          1          1          1          1          1          1          1          1          1          1          1          1          1          1          1          1          1          1          1          1          1          1          1          1          1          1          1          1          1          1          1          1          1          1          1          1          1          1          1          1          1          1          1          1          1          1          1          1          1          1          1          1          1          1          1          1          1          1          1          1          1          1          1          1          1          1          1          1          1          1          1          1          1          1          1          1          1          1          1          1          1          1          1          1          1          1          1          1          1          1          1          1          1          1          1          1          1          1          1          1          1          1          1          1          1          1          1          1          1          1          1          1          1          1          1          1          1          1          1          1          1          1          1          1          1          1          1          1          1          1          1          1          1          1          1          1          1          1          1          1          1          1          1          1          1          1          1          1          1          1          1          1          1          1          1          1          1          1          1          1          1          1          1          1          1          1          1          1          1          1          1          1          1          1          1          1          1          1          1          1          1          1          1          1          1          1          1          1          1          1          1          1          1          1          1          1          1          1          1          1          1          1          1          1          1          1          1          1          1          1          1          1          1          1          1          1          1          1          1          1          1          1          1          1          1          1          1          1          1          1          1          1          1          1          1          1          1          1          1          1          1          1          1          1          1          1          1          1          1          1          1          1          1          1          1          1          1          1          1          1          1          1          1          1          1          1          1          1          1          1          1          1          1          1          1          1          1          1          1          1          1          1          1          1          1          1          1          1          1          1          1          1          1          1          1          1          1          1          1          1          1          1          1          1          1          1          1          1          1          1          1          1          1          1          1          1          1          1          1          1          1          1          1          1          1          1          1          1          1          1          1          1          1          1          1          1          1          1          1          1          1          1          1          1          1          1          1          1          1          1          1          1          1          1          1          1          1          1          1          1          1          1          1          1          1          1          1          1          1          1          1          1          1          1          1          1          1          1          1          1          1          1          1          1          1          1          1          1          1          1          1          1          1          1          1          1          1          1          1          1          1          1          1          1          1          1          1          1          1          1          1          1          1          1          1          1          1          1          1          1          1          1          1          1          1          1          1          1          1          1          1          1          1          1          1          1          1          1          1          1          1          1          1          1          1          1          1          1          1          1          1          1          1          1          1          1          1          1          1          1          1          1          1          1          1          1          1          1          1          1          1          1          1          1          1          1          1 </DataArray>
</CellData>
<PointData>
<DataArray type="Float64"                                    Name="u"                                                      NumberOfComponents=" 3" format="ascii">
             -0.000304209               0.000000000               0.999999987              -0.000340674               0.000000000               0.999999987              -0.000357404              -0.000000000               0.999999987              -0.000367014               0.000000000               0.999999987              -0.000374463               0.000000000               0.999999987              -0.000382005               0.000000000               0.999999987              -0.000390674               0.000000000               0.999999987              -0.000400677               0.000000000               0.999999987              -0.000411955               0.000000000               0.999999987              -0.000424357               0.000000000               0.999999987              -0.000437703               0.000000000               0.999999987              -0.000451824               0.000000000               0.999999987              -0.000466686              -0.000000000               0.999999987              -0.000482152               0.000000000               0.999999987              -0.000497916               0.000000000               0.999999987              -0.000513591               0.000000000               0.999999987              -0.000528800               0.000000000               0.999999987              -0.000302442               0.000092374               0.999999987              -0.000336756               0.000078212               0.999999987              -0.000352173               0.000072892               0.999999987              -0.000360994               0.000072201               0.999999987              -0.000368043               0.000074126               0.999999987              -0.000375390               0.000077814               0.999999987              -0.000383851               0.000082637               0.999999987              -0.000393655               0.000087951               0.999999987              -0.000404726               0.000093438               0.999999987              -0.000416872               0.000098946               0.999999987              -0.000429963               0.000104164               0.999999987              -0.000443813               0.000109004               0.999999987              -0.000458289               0.000113546               0.999999987              -0.000473138               0.000117561               0.999999987              -0.000488091               0.000120554               0.999999987              -0.000503002               0.000122149               0.999999987              -0.000517541               0.000121649               0.999999987              -0.000297318               0.000183757               0.999999987              -0.000325286               0.000155749               0.999999987              -0.000336935               0.000145746               0.999999987              -0.000343720               0.000144932               0.999999987              -0.000349780               0.000149250               0.999999987              -0.000356601               0.000156872               0.999999987              -0.000364784               0.000166521               0.999999987              -0.000374320               0.000177125               0.999999987              -0.000385002               0.000188017               0.999999987              -0.000396637               0.000198842               0.999999987              -0.000408963               0.000209331               0.999999987              -0.000421871               0.000219321               0.999999987              -0.000435249               0.000228522               0.999999987              -0.000448777               0.000236531               0.999999987              -0.000462200               0.000242885               0.999999987              -0.000475315               0.000247143               0.999999987              -0.000488016               0.000248470               0.999999987              -0.000289024               0.000273203               0.999999987              -0.000306946               0.000232032               0.999999987              -0.000313238               0.000218467               0.999999987              -0.000317381               0.000218474               0.999999987              -0.000322252               0.000225896               0.999999987              -0.000328716               0.000237796               0.999999987              -0.000336766               0.000252390               0.999999987              -0.000346091               0.000268212               0.999999987              -0.000356417               0.000284310               0.999999987              -0.000367472               0.000300377               0.999999987              -0.000379103               0.000316104               0.999999987              -0.000391044               0.000331160               0.999999987              -0.000403088               0.000344916               0.999999987              -0.000414944               0.000357100               0.999999987              -0.000426452               0.000367276               0.999999987              -0.000437453               0.000375097               0.999999987              -0.000447792               0.000380034               0.999999987              -0.000277701               0.000359850               0.999999987              -0.000282703               0.000306679               0.999999987              -0.000283015               0.000290996               0.999999987              -0.000284708               0.000292924               0.999999987              -0.000288922               0.000304050               0.999999987              -0.000295412               0.000320524               0.999999987              -0.000303599               0.000340035               0.999999987              -0.000313016               0.000360883               0.999999987              -0.000323207               0.000382051               0.999999987              -0.000333902               0.000403261               0.999999987              -0.000344726               0.000423995               0.999999987              -0.000355372               0.000443702               0.999999987              -0.000365635               0.000461930               0.999999987              -0.000375343               0.000478424               0.999999987              -0.000384369               0.000492985               0.999999987              -0.000392673               0.000505348               0.999999987              -0.000400347               0.000515241               0.999999987              -0.000263461               0.000442937               0.999999987              -0.000253789               0.000379489               0.999999987              -0.000248644               0.000363168               0.999999987              -0.000248823               0.000367878               0.999999987              -0.000253164               0.000383110               0.999999987              -0.000260318               0.000404249               0.999999987              -0.000269255               0.000428432               0.999999987              -0.000279164               0.000454024               0.999999987              -0.000289379               0.000479994               0.999999987              -0.000299598               0.000505911               0.999999987              -0.000309403               0.000531139               0.999999987              -0.000318518               0.000555144               0.999999987              -0.000326777               0.000577637               0.999999987              -0.000334127               0.000598486               0.999999987              -0.000340640               0.000617640               0.999999987              -0.000346482               0.000634834               0.999999987              -0.000351763               0.000650490               0.999999987              -0.000246521               0.000521643               0.999999987              -0.000221630               0.000450424               0.999999987              -0.000212427               0.000434762               0.999999987              -0.000212510               0.000442613               0.999999987              -0.000218053               0.000462044               0.999999987              -0.000226685               0.000487528               0.999999987              -0.000236662               0.000516172               0.999999987              -0.000247061               0.000546180               0.999999987              -0.000257273               0.000576481               0.999999987              -0.000266863               0.000606580               0.999999987              -0.000275538               0.000635828               0.999999987              -0.000282965               0.000663732               0.999999987              -0.000289219               0.000690125               0.999999987              -0.000294489               0.000714984               0.999999987              -0.000298844               0.000738196               0.999999987              -0.000302353               0.000759903               0.999999987              -0.000305213               0.000780532               0.999999987              -0.000227241               0.000595065               0.999999987              -0.000187993               0.000519306               0.999999987              -0.000176711               0.000505110               0.999999987              -0.000178273               0.000516066               0.999999987              -0.000185983               0.000539356               0.999999987              -0.000196249               0.000568999               0.999999987              -0.000207210               0.000601809               0.999999987              -0.000217904               0.000635800               0.999999987              -0.000227834               0.000670082               0.999999987              -0.000236524               0.000704075               0.999999987              -0.000243724               0.000736974               0.999999987              -0.000249389               0.000768363               0.999999987              -0.000253713               0.000798151               0.999999987              -0.000256715               0.000826471               0.999999987              -0.000258564               0.000853355               0.999999987              -0.000259382               0.000879001               0.999999987              -0.000259538               0.000903858               0.999999987              -0.000206501               0.000661898               0.999999987              -0.000154302               0.000585955               0.999999987              -0.000143654               0.000573267               0.999999987              -0.000147789               0.000586999               0.999999987              -0.000157882               0.000613909               0.999999987              -0.000169723               0.000647375               0.999999987              -0.000181441               0.000683988               0.999999987              -0.000192153               0.000721745               0.999999987              -0.000201381               0.000759792               0.999999987              -0.000208714               0.000797309               0.999999987              -0.000214076               0.000833443               0.999999987              -0.000217620               0.000867948               0.999999987              -0.000219447               0.000900876               0.999999987              -0.000219723               0.000932421               0.999999987              -0.000218686               0.000962826               0.999999987              -0.000216904               0.000992317               0.999999987              -0.000214819               0.001021260               0.999999987              -0.000185643               0.000724556               0.999999987              -0.000127361               0.000657765               0.999999987              -0.000113822               0.000640476               0.999999987              -0.000116335               0.000648405               0.999999987              -0.000125144               0.000669875               0.999999987              -0.000136103               0.000698836               0.999999987              -0.000147242               0.000731709               0.999999987              -0.000157386               0.000766645               0.999999987              -0.000166003               0.000802592               0.999999987              -0.000173112               0.000838710               0.999999987              -0.000178397               0.000874290               0.999999987              -0.000181753               0.000908840               0.999999987              -0.000183349               0.000942224               0.999999987              -0.000183143               0.000974518               0.999999987              -0.000181374               0.001005868               0.999999987              -0.000178288               0.001036396               0.999999987              -0.000174597               0.001066325               0.999999987              -0.000162689               0.000781220               0.999999987              -0.000103014               0.000726618               0.999999987              -0.000086676               0.000708753               0.999999987              -0.000086905               0.000712539               0.999999987              -0.000093993               0.000729439               0.999999987              -0.000103695               0.000754229               0.999999987              -0.000113850               0.000783649               0.999999987              -0.000123255               0.000815794               0.999999987              -0.000131270               0.000849503               0.999999987              -0.000137797               0.000883928               0.999999987              -0.000142749               0.000918443               0.999999987              -0.000145780               0.000952563               0.999999987              -0.000146976               0.000985884               0.999999987              -0.000146268               0.001018488               0.999999987              -0.000143578               0.001050397               0.999999987              -0.000139106               0.001081730               0.999999987              -0.000133448               0.001112686               0.999999987              -0.000138162               0.000830724               0.999999987              -0.000081140               0.000790686               0.999999987              -0.000063099               0.000775254               0.999999987              -0.000060953               0.000777112               0.999999987              -0.000065921               0.000790797               0.999999987              -0.000073931               0.000812251               0.999999987              -0.000082694               0.000838717               0.999999987              -0.000091024               0.000868448               0.999999987              -0.000098257               0.000900218               0.999999987              -0.000103990               0.000933093               0.999999987              -0.000108230               0.000966510               0.999999987              -0.000110864               0.000999897               0.999999987              -0.000111477               0.001032943               0.999999987              -0.000109914               0.001065607               0.999999987              -0.000106190               0.001097854               0.999999987              -0.000100156               0.001129712               0.999999987              -0.000091975               0.001161419               0.999999987              -0.000112205               0.000872287               0.999999987              -0.000061684               0.000847501               0.999999987              -0.000043585               0.000836747               0.999999987              -0.000039612               0.000838836               0.999999987              -0.000042378               0.000850840               0.999999987              -0.000048282               0.000870118               0.999999987              -0.000055381               0.000894457               0.999999987              -0.000062308               0.000922312               0.999999987              -0.000068410               0.000952630               0.999999987              -0.000073343               0.000984450               0.999999987              -0.000076901               0.001016999               0.999999987              -0.000078931               0.001049888               0.999999987              -0.000078949               0.001082821               0.999999987              -0.000076620               0.001115563               0.999999987              -0.000071666               0.001148218               0.999999987              -0.000063902               0.001180745               0.999999987              -0.000052884               0.001213249               0.999999987              -0.000085089               0.000905178               0.999999987              -0.000044381               0.000894515               0.999999987              -0.000028205               0.000889598               0.999999987              -0.000023462               0.000893466               0.999999987              -0.000024355               0.000905262               0.999999987              -0.000028246               0.000923520               0.999999987              -0.000033446               0.000946663               0.999999987              -0.000038721               0.000973411               0.999999987              -0.000043517               0.001002760               0.999999987              -0.000047566               0.001033986               0.999999987              -0.000050435               0.001066339               0.999999987              -0.000051812               0.001099343               0.999999987              -0.000051348               0.001132677               0.999999987              -0.000048618               0.001166114               0.999999987              -0.000043063               0.001199559               0.999999987              -0.000034032               0.001232964               0.999999987              -0.000020723               0.001266405               0.999999987              -0.000057133               0.000928908               0.999999987              -0.000028754               0.000929558               0.999999987              -0.000016553               0.000930231               0.999999987              -0.000012290               0.000936531               0.999999987              -0.000012151               0.000948992               0.999999987              -0.000014304               0.000967044               0.999999987              -0.000017572               0.000989697               0.999999987              -0.000021217               0.001016022               0.999999987              -0.000024529               0.001045145               0.999999987              -0.000027388               0.001076357               0.999999987              -0.000029393               0.001109100               0.999999987              -0.000030229               0.001142875               0.999999987              -0.000029592               0.001177347               0.999999987              -0.000027142               0.001212262               0.999999987              -0.000022153               0.001247341               0.999999987              -0.000013683               0.001282347               0.999999987              -0.000000415               0.001317184               0.999999987              -0.000028685               0.000943113               0.999999987              -0.000014173               0.000951084               0.999999987              -0.000007594               0.000955832               0.999999987              -0.000005042               0.000964127               0.999999987              -0.000004712               0.000977396               0.999999987              -0.000005567               0.000995548               0.999999987              -0.000007165               0.001018086               0.999999987              -0.000009025               0.001044324               0.999999987              -0.000010774               0.001073520               0.999999987              -0.000012200               0.001105085               0.999999987              -0.000013256               0.001138488               0.999999987              -0.000013633               0.001173280               0.999999987              -0.000013259               0.001209115               0.999999987              -0.000011744               0.001245664               0.999999987              -0.000008719               0.001282613               0.999999987              -0.000003464               0.001319545               0.999999987               0.000005045               0.001356021               0.999999987               0.000000000               0.000947824               0.999999987              -0.000000000               0.000958334               0.999999987              -0.000000000               0.000964558               0.999999987               0.000000000               0.000973569               0.999999987               0.000000000               0.000987215               0.999999987              -0.000000000               0.001005477               0.999999987              -0.000000000               0.001027932               0.999999987              -0.000000000               0.001054116               0.999999987               0.000000000               0.001083440               0.999999987              -0.000000000               0.001115176               0.999999987              -0.000000000               0.001148845               0.999999987              -0.000000000               0.001184063               0.999999987              -0.000000000               0.001220567               0.999999987              -0.000000000               0.001257922               0.999999987              -0.000000000               0.001295740               0.999999987              -0.000000000               0.001333603               0.999999987              -0.000000000               0.001370838               0.999999987              -0.000304209               0.000000000               0.999999987              -0.000340674               0.000000000               0.999999987              -0.000357404              -0.000000000               0.999999987              -0.000367014               0.000000000               0.999999987              -0.000374463               0.000000000               0.999999987              -0.000382005               0.000000000               0.999999987              -0.000390674               0.000000000               0.999999987              -0.000400677               0.000000000               0.999999987              -0.000411955               0.000000000               0.999999987              -0.000424357               0.000000000               0.999999987              -0.000437703               0.000000000               0.999999987              -0.000451824               0.000000000               0.999999987              -0.000466686              -0.000000000               0.999999987              -0.000482152               0.000000000               0.999999987              -0.000497916               0.000000000               0.999999987              -0.000513591               0.000000000               0.999999987              -0.000528800               0.000000000               0.999999987              -0.000302442              -0.000092374               0.999999987              -0.000336756              -0.000078212               0.999999987              -0.000352173              -0.000072892               0.999999987              -0.000360994              -0.000072201               0.999999987              -0.000368043              -0.000074126               0.999999987              -0.000375390              -0.000077814               0.999999987              -0.000383851              -0.000082637               0.999999987              -0.000393655              -0.000087951               0.999999987              -0.000404726              -0.000093438               0.999999987              -0.000416872              -0.000098946               0.999999987              -0.000429963              -0.000104164               0.999999987              -0.000443813              -0.000109004               0.999999987              -0.000458289              -0.000113546               0.999999987              -0.000473138              -0.000117561               0.999999987              -0.000488091              -0.000120554               0.999999987              -0.000503002              -0.000122149               0.999999987              -0.000517541              -0.000121649               0.999999987              -0.000297318              -0.000183757               0.999999987              -0.000325286              -0.000155749               0.999999987              -0.000336935              -0.000145746               0.999999987              -0.000343720              -0.000144932               0.999999987              -0.000349780              -0.000149250               0.999999987              -0.000356601              -0.000156872               0.999999987              -0.000364784              -0.000166521               0.999999987              -0.000374320              -0.000177125               0.999999987              -0.000385002              -0.000188017               0.999999987              -0.000396637              -0.000198842               0.999999987              -0.000408963              -0.000209331               0.999999987              -0.000421871              -0.000219321               0.999999987              -0.000435249              -0.000228522               0.999999987              -0.000448777              -0.000236531               0.999999987              -0.000462200              -0.000242885               0.999999987              -0.000475315              -0.000247143               0.999999987              -0.000488016              -0.000248470               0.999999987              -0.000289024              -0.000273203               0.999999987              -0.000306946              -0.000232032               0.999999987              -0.000313238              -0.000218467               0.999999987              -0.000317381              -0.000218474               0.999999987              -0.000322252              -0.000225896               0.999999987              -0.000328716              -0.000237796               0.999999987              -0.000336766              -0.000252390               0.999999987              -0.000346091              -0.000268212               0.999999987              -0.000356417              -0.000284310               0.999999987              -0.000367472              -0.000300377               0.999999987              -0.000379103              -0.000316104               0.999999987              -0.000391044              -0.000331160               0.999999987              -0.000403088              -0.000344916               0.999999987              -0.000414944              -0.000357100               0.999999987              -0.000426452              -0.000367276               0.999999987              -0.000437453              -0.000375097               0.999999987              -0.000447792              -0.000380034               0.999999987              -0.000277701              -0.000359850               0.999999987              -0.000282703              -0.000306679               0.999999987              -0.000283015              -0.000290996               0.999999987              -0.000284708              -0.000292924               0.999999987              -0.000288922              -0.000304050               0.999999987              -0.000295412              -0.000320524               0.999999987              -0.000303599              -0.000340035               0.999999987              -0.000313016              -0.000360883               0.999999987              -0.000323207              -0.000382051               0.999999987              -0.000333902              -0.000403261               0.999999987              -0.000344726              -0.000423995               0.999999987              -0.000355372              -0.000443702               0.999999987              -0.000365635              -0.000461930               0.999999987              -0.000375343              -0.000478424               0.999999987              -0.000384369              -0.000492985               0.999999987              -0.000392673              -0.000505348               0.999999987              -0.000400347              -0.000515241               0.999999987              -0.000263461              -0.000442937               0.999999987              -0.000253789              -0.000379489               0.999999987              -0.000248644              -0.000363168               0.999999987              -0.000248823              -0.000367878               0.999999987              -0.000253164              -0.000383110               0.999999987              -0.000260318              -0.000404249               0.999999987              -0.000269255              -0.000428432               0.999999987              -0.000279164              -0.000454024               0.999999987              -0.000289379              -0.000479994               0.999999987              -0.000299598              -0.000505911               0.999999987              -0.000309403              -0.000531139               0.999999987              -0.000318518              -0.000555144               0.999999987              -0.000326777              -0.000577637               0.999999987              -0.000334127              -0.000598486               0.999999987              -0.000340640              -0.000617640               0.999999987              -0.000346482              -0.000634834               0.999999987              -0.000351763              -0.000650490               0.999999987              -0.000246521              -0.000521643               0.999999987              -0.000221630              -0.000450424               0.999999987              -0.000212427              -0.000434762               0.999999987              -0.000212510              -0.000442613               0.999999987              -0.000218053              -0.000462044               0.999999987              -0.000226685              -0.000487528               0.999999987              -0.000236662              -0.000516172               0.999999987              -0.000247061              -0.000546180               0.999999987              -0.000257273              -0.000576481               0.999999987              -0.000266863              -0.000606580               0.999999987              -0.000275538              -0.000635828               0.999999987              -0.000282965              -0.000663732               0.999999987              -0.000289219              -0.000690125               0.999999987              -0.000294489              -0.000714984               0.999999987              -0.000298844              -0.000738196               0.999999987              -0.000302353              -0.000759903               0.999999987              -0.000305213              -0.000780532               0.999999987              -0.000227241              -0.000595065               0.999999987              -0.000187993              -0.000519306               0.999999987              -0.000176711              -0.000505110               0.999999987              -0.000178273              -0.000516066               0.999999987              -0.000185983              -0.000539356               0.999999987              -0.000196249              -0.000568999               0.999999987              -0.000207210              -0.000601809               0.999999987              -0.000217904              -0.000635800               0.999999987              -0.000227834              -0.000670082               0.999999987              -0.000236524              -0.000704075               0.999999987              -0.000243724              -0.000736974               0.999999987              -0.000249389              -0.000768363               0.999999987              -0.000253713              -0.000798151               0.999999987              -0.000256715              -0.000826471               0.999999987              -0.000258564              -0.000853355               0.999999987              -0.000259382              -0.000879001               0.999999987              -0.000259538              -0.000903858               0.999999987              -0.000206501              -0.000661898               0.999999987              -0.000154302              -0.000585955               0.999999987              -0.000143654              -0.000573267               0.999999987              -0.000147789              -0.000586999               0.999999987              -0.000157882              -0.000613909               0.999999987              -0.000169723              -0.000647375               0.999999987              -0.000181441              -0.000683988               0.999999987              -0.000192153              -0.000721745               0.999999987              -0.000201381              -0.000759792               0.999999987              -0.000208714              -0.000797309               0.999999987              -0.000214076              -0.000833443               0.999999987              -0.000217620              -0.000867948               0.999999987              -0.000219447              -0.000900876               0.999999987              -0.000219723              -0.000932421               0.999999987              -0.000218686              -0.000962826               0.999999987              -0.000216904              -0.000992317               0.999999987              -0.000214819              -0.001021260               0.999999987              -0.000185643              -0.000724556               0.999999987              -0.000127361              -0.000657765               0.999999987              -0.000113822              -0.000640476               0.999999987              -0.000116335              -0.000648405               0.999999987              -0.000125144              -0.000669875               0.999999987              -0.000136103              -0.000698836               0.999999987              -0.000147242              -0.000731709               0.999999987              -0.000157386              -0.000766645               0.999999987              -0.000166003              -0.000802592               0.999999987              -0.000173112              -0.000838710               0.999999987              -0.000178397              -0.000874290               0.999999987              -0.000181753              -0.000908840               0.999999987              -0.000183349              -0.000942224               0.999999987              -0.000183143              -0.000974518               0.999999987              -0.000181374              -0.001005868               0.999999987              -0.000178288              -0.001036396               0.999999987              -0.000174597              -0.001066325               0.999999987              -0.000162689              -0.000781220               0.999999987              -0.000103014              -0.000726618               0.999999987              -0.000086676              -0.000708753               0.999999987              -0.000086905              -0.000712539               0.999999987              -0.000093993              -0.000729439               0.999999987              -0.000103695              -0.000754229               0.999999987              -0.000113850              -0.000783649               0.999999987              -0.000123255              -0.000815794               0.999999987              -0.000131270              -0.000849503               0.999999987              -0.000137797              -0.000883928               0.999999987              -0.000142749              -0.000918443               0.999999987              -0.000145780              -0.000952563               0.999999987              -0.000146976              -0.000985884               0.999999987              -0.000146268              -0.001018488               0.999999987              -0.000143578              -0.001050397               0.999999987              -0.000139106              -0.001081730               0.999999987              -0.000133448              -0.001112686               0.999999987              -0.000138162              -0.000830724               0.999999987              -0.000081140              -0.000790686               0.999999987              -0.000063099              -0.000775254               0.999999987              -0.000060953              -0.000777112               0.999999987              -0.000065921              -0.000790797               0.999999987              -0.000073931              -0.000812251               0.999999987              -0.000082694              -0.000838717               0.999999987              -0.000091024              -0.000868448               0.999999987              -0.000098257              -0.000900218               0.999999987              -0.000103990              -0.000933093               0.999999987              -0.000108230              -0.000966510               0.999999987              -0.000110864              -0.000999897               0.999999987              -0.000111477              -0.001032943               0.999999987              -0.000109914              -0.001065607               0.999999987              -0.000106190              -0.001097854               0.999999987              -0.000100156              -0.001129712               0.999999987              -0.000091975              -0.001161419               0.999999987              -0.000112205              -0.000872287               0.999999987              -0.000061684              -0.000847501               0.999999987              -0.000043585              -0.000836747               0.999999987              -0.000039612              -0.000838836               0.999999987              -0.000042378              -0.000850840               0.999999987              -0.000048282              -0.000870118               0.999999987              -0.000055381              -0.000894457               0.999999987              -0.000062308              -0.000922312               0.999999987              -0.000068410              -0.000952630               0.999999987              -0.000073343              -0.000984450               0.999999987              -0.000076901              -0.001016999               0.999999987              -0.000078931              -0.001049888               0.999999987              -0.000078949              -0.001082821               0.999999987              -0.000076620              -0.001115563               0.999999987              -0.000071666              -0.001148218               0.999999987              -0.000063902              -0.001180745               0.999999987              -0.000052884              -0.001213249               0.999999987              -0.000085089              -0.000905178               0.999999987              -0.000044381              -0.000894515               0.999999987              -0.000028205              -0.000889598               0.999999987              -0.000023462              -0.000893466               0.999999987              -0.000024355              -0.000905262               0.999999987              -0.000028246              -0.000923520               0.999999987              -0.000033446              -0.000946663               0.999999987              -0.000038721              -0.000973411               0.999999987              -0.000043517              -0.001002760               0.999999987              -0.000047566              -0.001033986               0.999999987              -0.000050435              -0.001066339               0.999999987              -0.000051812              -0.001099343               0.999999987              -0.000051348              -0.001132677               0.999999987              -0.000048618              -0.001166114               0.999999987              -0.000043063              -0.001199559               0.999999987              -0.000034032              -0.001232964               0.999999987              -0.000020723              -0.001266405               0.999999987              -0.000057133              -0.000928908               0.999999987              -0.000028754              -0.000929558               0.999999987              -0.000016553              -0.000930231               0.999999987              -0.000012290              -0.000936531               0.999999987              -0.000012151              -0.000948992               0.999999987              -0.000014304              -0.000967044               0.999999987              -0.000017572              -0.000989697               0.999999987              -0.000021217              -0.001016022               0.999999987              -0.000024529              -0.001045145               0.999999987              -0.000027388              -0.001076357               0.999999987              -0.000029393              -0.001109100               0.999999987              -0.000030229              -0.001142875               0.999999987              -0.000029592              -0.001177347               0.999999987              -0.000027142              -0.001212262               0.999999987              -0.000022153              -0.001247341               0.999999987              -0.000013683              -0.001282347               0.999999987              -0.000000415              -0.001317184               0.999999987              -0.000028685              -0.000943113               0.999999987              -0.000014173              -0.000951084               0.999999987              -0.000007594              -0.000955832               0.999999987              -0.000005042              -0.000964127               0.999999987              -0.000004712              -0.000977396               0.999999987              -0.000005567              -0.000995548               0.999999987              -0.000007165              -0.001018086               0.999999987              -0.000009025              -0.001044324               0.999999987              -0.000010774              -0.001073520               0.999999987              -0.000012200              -0.001105085               0.999999987              -0.000013256              -0.001138488               0.999999987              -0.000013633              -0.001173280               0.999999987              -0.000013259              -0.001209115               0.999999987              -0.000011744              -0.001245664               0.999999987              -0.000008719              -0.001282613               0.999999987              -0.000003464              -0.001319545               0.999999987               0.000005045              -0.001356021               0.999999987              -0.000000000              -0.000947824               0.999999987              -0.000000000              -0.000958334               0.999999987              -0.000000000              -0.000964558               0.999999987               0.000000000              -0.000973569               0.999999987               0.000000000              -0.000987215               0.999999987               0.000000000              -0.001005477               0.999999987               0.000000000              -0.001027932               0.999999987               0.000000000              -0.001054116               0.999999987              -0.000000000              -0.001083440               0.999999987               0.000000000              -0.001115176               0.999999987              -0.000000000              -0.001148845               0.999999987               0.000000000              -0.001184063               0.999999987              -0.000000000              -0.001220567               0.999999987              -0.000000000              -0.001257922               0.999999987               0.000000000              -0.001295740               0.999999987              -0.000000000              -0.001333603               0.999999987              -0.000000000              -0.001370838               0.999999987               0.000304209              -0.000000000               0.999999987               0.000340674               0.000000000               0.999999987               0.000357404              -0.000000000               0.999999987               0.000367014               0.000000000               0.999999987               0.000374463               0.000000000               0.999999987               0.000382005               0.000000000               0.999999987               0.000390674              -0.000000000               0.999999987               0.000400677              -0.000000000               0.999999987               0.000411955               0.000000000               0.999999987               0.000424357               0.000000000               0.999999987               0.000437703              -0.000000000               0.999999987               0.000451824              -0.000000000               0.999999987               0.000466686               0.000000000               0.999999987               0.000482152               0.000000000               0.999999987               0.000497916              -0.000000000               0.999999987               0.000513591               0.000000000               0.999999987               0.000528800               0.000000000               0.999999987               0.000302442              -0.000092374               0.999999987               0.000336756              -0.000078212               0.999999987               0.000352173              -0.000072892               0.999999987               0.000360994              -0.000072201               0.999999987               0.000368043              -0.000074126               0.999999987               0.000375390              -0.000077814               0.999999987               0.000383851              -0.000082637               0.999999987               0.000393655              -0.000087951               0.999999987               0.000404726              -0.000093438               0.999999987               0.000416872              -0.000098946               0.999999987               0.000429963              -0.000104164               0.999999987               0.000443813              -0.000109004               0.999999987               0.000458289              -0.000113546               0.999999987               0.000473138              -0.000117561               0.999999987               0.000488091              -0.000120554               0.999999987               0.000503002              -0.000122149               0.999999987               0.000517541              -0.000121649               0.999999987               0.000297318              -0.000183757               0.999999987               0.000325286              -0.000155749               0.999999987               0.000336935              -0.000145746               0.999999987               0.000343720              -0.000144932               0.999999987               0.000349780              -0.000149250               0.999999987               0.000356601              -0.000156872               0.999999987               0.000364784              -0.000166521               0.999999987               0.000374320              -0.000177125               0.999999987               0.000385002              -0.000188017               0.999999987               0.000396637              -0.000198842               0.999999987               0.000408963              -0.000209331               0.999999987               0.000421871              -0.000219321               0.999999987               0.000435249              -0.000228522               0.999999987               0.000448777              -0.000236531               0.999999987               0.000462200              -0.000242885               0.999999987               0.000475315              -0.000247143               0.999999987               0.000488016              -0.000248470               0.999999987               0.000289024              -0.000273203               0.999999987               0.000306946              -0.000232032               0.999999987               0.000313238              -0.000218467               0.999999987               0.000317381              -0.000218474               0.999999987               0.000322252              -0.000225896               0.999999987               0.000328716              -0.000237796               0.999999987               0.000336766              -0.000252390               0.999999987               0.000346091              -0.000268212               0.999999987               0.000356417              -0.000284310               0.999999987               0.000367472              -0.000300377               0.999999987               0.000379103              -0.000316104               0.999999987               0.000391044              -0.000331160               0.999999987               0.000403088              -0.000344916               0.999999987               0.000414944              -0.000357100               0.999999987               0.000426452              -0.000367276               0.999999987               0.000437453              -0.000375097               0.999999987               0.000447792              -0.000380034               0.999999987               0.000277701              -0.000359850               0.999999987               0.000282703              -0.000306679               0.999999987               0.000283015              -0.000290996               0.999999987               0.000284708              -0.000292924               0.999999987               0.000288922              -0.000304050               0.999999987               0.000295412              -0.000320524               0.999999987               0.000303599              -0.000340035               0.999999987               0.000313016              -0.000360883               0.999999987               0.000323207              -0.000382051               0.999999987               0.000333902              -0.000403261               0.999999987               0.000344726              -0.000423995               0.999999987               0.000355372              -0.000443702               0.999999987               0.000365635              -0.000461930               0.999999987               0.000375343              -0.000478424               0.999999987               0.000384369              -0.000492985               0.999999987               0.000392673              -0.000505348               0.999999987               0.000400347              -0.000515241               0.999999987               0.000263461              -0.000442937               0.999999987               0.000253789              -0.000379489               0.999999987               0.000248644              -0.000363168               0.999999987               0.000248823              -0.000367878               0.999999987               0.000253164              -0.000383110               0.999999987               0.000260318              -0.000404249               0.999999987               0.000269255              -0.000428432               0.999999987               0.000279164              -0.000454024               0.999999987               0.000289379              -0.000479994               0.999999987               0.000299598              -0.000505911               0.999999987               0.000309403              -0.000531139               0.999999987               0.000318518              -0.000555144               0.999999987               0.000326777              -0.000577637               0.999999987               0.000334127              -0.000598486               0.999999987               0.000340640              -0.000617640               0.999999987               0.000346482              -0.000634834               0.999999987               0.000351763              -0.000650490               0.999999987               0.000246521              -0.000521643               0.999999987               0.000221630              -0.000450424               0.999999987               0.000212427              -0.000434762               0.999999987               0.000212510              -0.000442613               0.999999987               0.000218053              -0.000462044               0.999999987               0.000226685              -0.000487528               0.999999987               0.000236662              -0.000516172               0.999999987               0.000247061              -0.000546180               0.999999987               0.000257273              -0.000576481               0.999999987               0.000266863              -0.000606580               0.999999987               0.000275538              -0.000635828               0.999999987               0.000282965              -0.000663732               0.999999987               0.000289219              -0.000690125               0.999999987               0.000294489              -0.000714984               0.999999987               0.000298844              -0.000738196               0.999999987               0.000302353              -0.000759903               0.999999987               0.000305213              -0.000780532               0.999999987               0.000227241              -0.000595065               0.999999987               0.000187993              -0.000519306               0.999999987               0.000176711              -0.000505110               0.999999987               0.000178273              -0.000516066               0.999999987               0.000185983              -0.000539356               0.999999987               0.000196249              -0.000568999               0.999999987               0.000207210              -0.000601809               0.999999987               0.000217904              -0.000635800               0.999999987               0.000227834              -0.000670082               0.999999987               0.000236524              -0.000704075               0.999999987               0.000243724              -0.000736974               0.999999987               0.000249389              -0.000768363               0.999999987               0.000253713              -0.000798151               0.999999987               0.000256715              -0.000826471               0.999999987               0.000258564              -0.000853355               0.999999987               0.000259382              -0.000879001               0.999999987               0.000259538              -0.000903858               0.999999987               0.000206501              -0.000661898               0.999999987               0.000154302              -0.000585955               0.999999987               0.000143654              -0.000573267               0.999999987               0.000147789              -0.000586999               0.999999987               0.000157882              -0.000613909               0.999999987               0.000169723              -0.000647375               0.999999987               0.000181441              -0.000683988               0.999999987               0.000192153              -0.000721745               0.999999987               0.000201381              -0.000759792               0.999999987               0.000208714              -0.000797309               0.999999987               0.000214076              -0.000833443               0.999999987               0.000217620              -0.000867948               0.999999987               0.000219447              -0.000900876               0.999999987               0.000219723              -0.000932421               0.999999987               0.000218686              -0.000962826               0.999999987               0.000216904              -0.000992317               0.999999987               0.000214819              -0.001021260               0.999999987               0.000185643              -0.000724556               0.999999987               0.000127361              -0.000657765               0.999999987               0.000113822              -0.000640476               0.999999987               0.000116335              -0.000648405               0.999999987               0.000125144              -0.000669875               0.999999987               0.000136103              -0.000698836               0.999999987               0.000147242              -0.000731709               0.999999987               0.000157386              -0.000766645               0.999999987               0.000166003              -0.000802592               0.999999987               0.000173112              -0.000838710               0.999999987               0.000178397              -0.000874290               0.999999987               0.000181753              -0.000908840               0.999999987               0.000183349              -0.000942224               0.999999987               0.000183143              -0.000974518               0.999999987               0.000181374              -0.001005868               0.999999987               0.000178288              -0.001036396               0.999999987               0.000174597              -0.001066325               0.999999987               0.000162689              -0.000781220               0.999999987               0.000103014              -0.000726618               0.999999987               0.000086676              -0.000708753               0.999999987               0.000086905              -0.000712539               0.999999987               0.000093993              -0.000729439               0.999999987               0.000103695              -0.000754229               0.999999987               0.000113850              -0.000783649               0.999999987               0.000123255              -0.000815794               0.999999987               0.000131270              -0.000849503               0.999999987               0.000137797              -0.000883928               0.999999987               0.000142749              -0.000918443               0.999999987               0.000145780              -0.000952563               0.999999987               0.000146976              -0.000985884               0.999999987               0.000146268              -0.001018488               0.999999987               0.000143578              -0.001050397               0.999999987               0.000139106              -0.001081730               0.999999987               0.000133448              -0.001112686               0.999999987               0.000138162              -0.000830724               0.999999987               0.000081140              -0.000790686               0.999999987               0.000063099              -0.000775254               0.999999987               0.000060953              -0.000777112               0.999999987               0.000065921              -0.000790797               0.999999987               0.000073931              -0.000812251               0.999999987               0.000082694              -0.000838717               0.999999987               0.000091024              -0.000868448               0.999999987               0.000098257              -0.000900218               0.999999987               0.000103990              -0.000933093               0.999999987               0.000108230              -0.000966510               0.999999987               0.000110864              -0.000999897               0.999999987               0.000111477              -0.001032943               0.999999987               0.000109914              -0.001065607               0.999999987               0.000106190              -0.001097854               0.999999987               0.000100156              -0.001129712               0.999999987               0.000091975              -0.001161419               0.999999987               0.000112205              -0.000872287               0.999999987               0.000061684              -0.000847501               0.999999987               0.000043585              -0.000836747               0.999999987               0.000039612              -0.000838836               0.999999987               0.000042378              -0.000850840               0.999999987               0.000048282              -0.000870118               0.999999987               0.000055381              -0.000894457               0.999999987               0.000062308              -0.000922312               0.999999987               0.000068410              -0.000952630               0.999999987               0.000073343              -0.000984450               0.999999987               0.000076901              -0.001016999               0.999999987               0.000078931              -0.001049888               0.999999987               0.000078949              -0.001082821               0.999999987               0.000076620              -0.001115563               0.999999987               0.000071666              -0.001148218               0.999999987               0.000063902              -0.001180745               0.999999987               0.000052884              -0.001213249               0.999999987               0.000085089              -0.000905178               0.999999987               0.000044381              -0.000894515               0.999999987               0.000028205              -0.000889598               0.999999987               0.000023462              -0.000893466               0.999999987               0.000024355              -0.000905262               0.999999987               0.000028246              -0.000923520               0.999999987               0.000033446              -0.000946663               0.999999987               0.000038721              -0.000973411               0.999999987               0.000043517              -0.001002760               0.999999987               0.000047566              -0.001033986               0.999999987               0.000050435              -0.001066339               0.999999987               0.000051812              -0.001099343               0.999999987               0.000051348              -0.001132677               0.999999987               0.000048618              -0.001166114               0.999999987               0.000043063              -0.001199559               0.999999987               0.000034032              -0.001232964               0.999999987               0.000020723              -0.001266405               0.999999987               0.000057133              -0.000928908               0.999999987               0.000028754              -0.000929558               0.999999987               0.000016553              -0.000930231               0.999999987               0.000012290              -0.000936531               0.999999987               0.000012151              -0.000948992               0.999999987               0.000014304              -0.000967044               0.999999987               0.000017572              -0.000989697               0.999999987               0.000021217              -0.001016022               0.999999987               0.000024529              -0.001045145               0.999999987               0.000027388              -0.001076357               0.999999987               0.000029393              -0.001109100               0.999999987               0.000030229              -0.001142875               0.999999987               0.000029592              -0.001177347               0.999999987               0.000027142              -0.001212262               0.999999987               0.000022153              -0.001247341               0.999999987               0.000013683              -0.001282347               0.999999987               0.000000415              -0.001317184               0.999999987               0.000028685              -0.000943113               0.999999987               0.000014173              -0.000951084               0.999999987               0.000007594              -0.000955832               0.999999987               0.000005042              -0.000964127               0.999999987               0.000004712              -0.000977396               0.999999987               0.000005567              -0.000995548               0.999999987               0.000007165              -0.001018086               0.999999987               0.000009025              -0.001044324               0.999999987               0.000010774              -0.001073520               0.999999987               0.000012200              -0.001105085               0.999999987               0.000013256              -0.001138488               0.999999987               0.000013633              -0.001173280               0.999999987               0.000013259              -0.001209115               0.999999987               0.000011744              -0.001245664               0.999999987               0.000008719              -0.001282613               0.999999987               0.000003464              -0.001319545               0.999999987              -0.000005045              -0.001356021               0.999999987              -0.000000000              -0.000947824               0.999999987              -0.000000000              -0.000958334               0.999999987              -0.000000000              -0.000964558               0.999999987               0.000000000              -0.000973569               0.999999987               0.000000000              -0.000987215               0.999999987               0.000000000              -0.001005477               0.999999987               0.000000000              -0.001027932               0.999999987               0.000000000              -0.001054116               0.999999987              -0.000000000              -0.001083440               0.999999987               0.000000000              -0.001115176               0.999999987              -0.000000000              -0.001148845               0.999999987               0.000000000              -0.001184063               0.999999987              -0.000000000              -0.001220567               0.999999987              -0.000000000              -0.001257922               0.999999987               0.000000000              -0.001295740               0.999999987              -0.000000000              -0.001333603               0.999999987              -0.000000000              -0.001370838               0.999999987               0.000304209              -0.000000000               0.999999987               0.000340674               0.000000000               0.999999987               0.000357404              -0.000000000               0.999999987               0.000367014               0.000000000               0.999999987               0.000374463               0.000000000               0.999999987               0.000382005               0.000000000               0.999999987               0.000390674              -0.000000000               0.999999987               0.000400677              -0.000000000               0.999999987               0.000411955               0.000000000               0.999999987               0.000424357               0.000000000               0.999999987               0.000437703              -0.000000000               0.999999987               0.000451824              -0.000000000               0.999999987               0.000466686               0.000000000               0.999999987               0.000482152               0.000000000               0.999999987               0.000497916              -0.000000000               0.999999987               0.000513591               0.000000000               0.999999987               0.000528800               0.000000000               0.999999987               0.000302442               0.000092374               0.999999987               0.000336756               0.000078212               0.999999987               0.000352173               0.000072892               0.999999987               0.000360994               0.000072201               0.999999987               0.000368043               0.000074126               0.999999987               0.000375390               0.000077814               0.999999987               0.000383851               0.000082637               0.999999987               0.000393655               0.000087951               0.999999987               0.000404726               0.000093438               0.999999987               0.000416872               0.000098946               0.999999987               0.000429963               0.000104164               0.999999987               0.000443813               0.000109004               0.999999987               0.000458289               0.000113546               0.999999987               0.000473138               0.000117561               0.999999987               0.000488091               0.000120554               0.999999987               0.000503002               0.000122149               0.999999987               0.000517541               0.000121649               0.999999987               0.000297318               0.000183757               0.999999987               0.000325286               0.000155749               0.999999987               0.000336935               0.000145746               0.999999987               0.000343720               0.000144932               0.999999987               0.000349780               0.000149250               0.999999987               0.000356601               0.000156872               0.999999987               0.000364784               0.000166521               0.999999987               0.000374320               0.000177125               0.999999987               0.000385002               0.000188017               0.999999987               0.000396637               0.000198842               0.999999987               0.000408963               0.000209331               0.999999987               0.000421871               0.000219321               0.999999987               0.000435249               0.000228522               0.999999987               0.000448777               0.000236531               0.999999987               0.000462200               0.000242885               0.999999987               0.000475315               0.000247143               0.999999987               0.000488016               0.000248470               0.999999987               0.000289024               0.000273203               0.999999987               0.000306946               0.000232032               0.999999987               0.000313238               0.000218467               0.999999987               0.000317381               0.000218474               0.999999987               0.000322252               0.000225896               0.999999987               0.000328716               0.000237796               0.999999987               0.000336766               0.000252390               0.999999987               0.000346091               0.000268212               0.999999987               0.000356417               0.000284310               0.999999987               0.000367472               0.000300377               0.999999987               0.000379103               0.000316104               0.999999987               0.000391044               0.000331160               0.999999987               0.000403088               0.000344916               0.999999987               0.000414944               0.000357100               0.999999987               0.000426452               0.000367276               0.999999987               0.000437453               0.000375097               0.999999987               0.000447792               0.000380034               0.999999987               0.000277701               0.000359850               0.999999987               0.000282703               0.000306679               0.999999987               0.000283015               0.000290996               0.999999987               0.000284708               0.000292924               0.999999987               0.000288922               0.000304050               0.999999987               0.000295412               0.000320524               0.999999987               0.000303599               0.000340035               0.999999987               0.000313016               0.000360883               0.999999987               0.000323207               0.000382051               0.999999987               0.000333902               0.000403261               0.999999987               0.000344726               0.000423995               0.999999987               0.000355372               0.000443702               0.999999987               0.000365635               0.000461930               0.999999987               0.000375343               0.000478424               0.999999987               0.000384369               0.000492985               0.999999987               0.000392673               0.000505348               0.999999987               0.000400347               0.000515241               0.999999987               0.000263461               0.000442937               0.999999987               0.000253789               0.000379489               0.999999987               0.000248644               0.000363168               0.999999987               0.000248823               0.000367878               0.999999987               0.000253164               0.000383110               0.999999987               0.000260318               0.000404249               0.999999987               0.000269255               0.000428432               0.999999987               0.000279164               0.000454024               0.999999987               0.000289379               0.000479994               0.999999987               0.000299598               0.000505911               0.999999987               0.000309403               0.000531139               0.999999987               0.000318518               0.000555144               0.999999987               0.000326777               0.000577637               0.999999987               0.000334127               0.000598486               0.999999987               0.000340640               0.000617640               0.999999987               0.000346482               0.000634834               0.999999987               0.000351763               0.000650490               0.999999987               0.000246521               0.000521643               0.999999987               0.000221630               0.000450424               0.999999987               0.000212427               0.000434762               0.999999987               0.000212510               0.000442613               0.999999987               0.000218053               0.000462044               0.999999987               0.000226685               0.000487528               0.999999987               0.000236662               0.000516172               0.999999987               0.000247061               0.000546180               0.999999987               0.000257273               0.000576481               0.999999987               0.000266863               0.000606580               0.999999987               0.000275538               0.000635828               0.999999987               0.000282965               0.000663732               0.999999987               0.000289219               0.000690125               0.999999987               0.000294489               0.000714984               0.999999987               0.000298844               0.000738196               0.999999987               0.000302353               0.000759903               0.999999987               0.000305213               0.000780532               0.999999987               0.000227241               0.000595065               0.999999987               0.000187993               0.000519306               0.999999987               0.000176711               0.000505110               0.999999987               0.000178273               0.000516066               0.999999987               0.000185983               0.000539356               0.999999987               0.000196249               0.000568999               0.999999987               0.000207210               0.000601809               0.999999987               0.000217904               0.000635800               0.999999987               0.000227834               0.000670082               0.999999987               0.000236524               0.000704075               0.999999987               0.000243724               0.000736974               0.999999987               0.000249389               0.000768363               0.999999987               0.000253713               0.000798151               0.999999987               0.000256715               0.000826471               0.999999987               0.000258564               0.000853355               0.999999987               0.000259382               0.000879001               0.999999987               0.000259538               0.000903858               0.999999987               0.000206501               0.000661898               0.999999987               0.000154302               0.000585955               0.999999987               0.000143654               0.000573267               0.999999987               0.000147789               0.000586999               0.999999987               0.000157882               0.000613909               0.999999987               0.000169723               0.000647375               0.999999987               0.000181441               0.000683988               0.999999987               0.000192153               0.000721745               0.999999987               0.000201381               0.000759792               0.999999987               0.000208714               0.000797309               0.999999987               0.000214076               0.000833443               0.999999987               0.000217620               0.000867948               0.999999987               0.000219447               0.000900876               0.999999987               0.000219723               0.000932421               0.999999987               0.000218686               0.000962826               0.999999987               0.000216904               0.000992317               0.999999987               0.000214819               0.001021260               0.999999987               0.000185643               0.000724556               0.999999987               0.000127361               0.000657765               0.999999987               0.000113822               0.000640476               0.999999987               0.000116335               0.000648405               0.999999987               0.000125144               0.000669875               0.999999987               0.000136103               0.000698836               0.999999987               0.000147242               0.000731709               0.999999987               0.000157386               0.000766645               0.999999987               0.000166003               0.000802592               0.999999987               0.000173112               0.000838710               0.999999987               0.000178397               0.000874290               0.999999987               0.000181753               0.000908840               0.999999987               0.000183349               0.000942224               0.999999987               0.000183143               0.000974518               0.999999987               0.000181374               0.001005868               0.999999987               0.000178288               0.001036396               0.999999987               0.000174597               0.001066325               0.999999987               0.000162689               0.000781220               0.999999987               0.000103014               0.000726618               0.999999987               0.000086676               0.000708753               0.999999987               0.000086905               0.000712539               0.999999987               0.000093993               0.000729439               0.999999987               0.000103695               0.000754229               0.999999987               0.000113850               0.000783649               0.999999987               0.000123255               0.000815794               0.999999987               0.000131270               0.000849503               0.999999987               0.000137797               0.000883928               0.999999987               0.000142749               0.000918443               0.999999987               0.000145780               0.000952563               0.999999987               0.000146976               0.000985884               0.999999987               0.000146268               0.001018488               0.999999987               0.000143578               0.001050397               0.999999987               0.000139106               0.001081730               0.999999987               0.000133448               0.001112686               0.999999987               0.000138162               0.000830724               0.999999987               0.000081140               0.000790686               0.999999987               0.000063099               0.000775254               0.999999987               0.000060953               0.000777112               0.999999987               0.000065921               0.000790797               0.999999987               0.000073931               0.000812251               0.999999987               0.000082694               0.000838717               0.999999987               0.000091024               0.000868448               0.999999987               0.000098257               0.000900218               0.999999987               0.000103990               0.000933093               0.999999987               0.000108230               0.000966510               0.999999987               0.000110864               0.000999897               0.999999987               0.000111477               0.001032943               0.999999987               0.000109914               0.001065607               0.999999987               0.000106190               0.001097854               0.999999987               0.000100156               0.001129712               0.999999987               0.000091975               0.001161419               0.999999987               0.000112205               0.000872287               0.999999987               0.000061684               0.000847501               0.999999987               0.000043585               0.000836747               0.999999987               0.000039612               0.000838836               0.999999987               0.000042378               0.000850840               0.999999987               0.000048282               0.000870118               0.999999987               0.000055381               0.000894457               0.999999987               0.000062308               0.000922312               0.999999987               0.000068410               0.000952630               0.999999987               0.000073343               0.000984450               0.999999987               0.000076901               0.001016999               0.999999987               0.000078931               0.001049888               0.999999987               0.000078949               0.001082821               0.999999987               0.000076620               0.001115563               0.999999987               0.000071666               0.001148218               0.999999987               0.000063902               0.001180745               0.999999987               0.000052884               0.001213249               0.999999987               0.000085089               0.000905178               0.999999987               0.000044381               0.000894515               0.999999987               0.000028205               0.000889598               0.999999987               0.000023462               0.000893466               0.999999987               0.000024355               0.000905262               0.999999987               0.000028246               0.000923520               0.999999987               0.000033446               0.000946663               0.999999987               0.000038721               0.000973411               0.999999987               0.000043517               0.001002760               0.999999987               0.000047566               0.001033986               0.999999987               0.000050435               0.001066339               0.999999987               0.000051812               0.001099343               0.999999987               0.000051348               0.001132677               0.999999987               0.000048618               0.001166114               0.999999987               0.000043063               0.001199559               0.999999987               0.000034032               0.001232964               0.999999987               0.000020723               0.001266405               0.999999987               0.000057133               0.000928908               0.999999987               0.000028754               0.000929558               0.999999987               0.000016553               0.000930231               0.999999987               0.000012290               0.000936531               0.999999987               0.000012151               0.000948992               0.999999987               0.000014304               0.000967044               0.999999987               0.000017572               0.000989697               0.999999987               0.000021217               0.001016022               0.999999987               0.000024529               0.001045145               0.999999987               0.000027388               0.001076357               0.999999987               0.000029393               0.001109100               0.999999987               0.000030229               0.001142875               0.999999987               0.000029592               0.001177347               0.999999987               0.000027142               0.001212262               0.999999987               0.000022153               0.001247341               0.999999987               0.000013683               0.001282347               0.999999987               0.000000415               0.001317184               0.999999987               0.000028685               0.000943113               0.999999987               0.000014173               0.000951084               0.999999987               0.000007594               0.000955832               0.999999987               0.000005042               0.000964127               0.999999987               0.000004712               0.000977396               0.999999987               0.000005567               0.000995548               0.999999987               0.000007165               0.001018086               0.999999987               0.000009025               0.001044324               0.999999987               0.000010774               0.001073520               0.999999987               0.000012200               0.001105085               0.999999987               0.000013256               0.001138488               0.999999987               0.000013633               0.001173280               0.999999987               0.000013259               0.001209115               0.999999987               0.000011744               0.001245664               0.999999987               0.000008719               0.001282613               0.999999987               0.000003464               0.001319545               0.999999987              -0.000005045               0.001356021               0.999999987               0.000000000               0.000947824               0.999999987              -0.000000000               0.000958334               0.999999987              -0.000000000               0.000964558               0.999999987               0.000000000               0.000973569               0.999999987               0.000000000               0.000987215               0.999999987              -0.000000000               0.001005477               0.999999987              -0.000000000               0.001027932               0.999999987              -0.000000000               0.001054116               0.999999987               0.000000000               0.001083440               0.999999987              -0.000000000               0.001115176               0.999999987              -0.000000000               0.001148845               0.999999987              -0.000000000               0.001184063               0.999999987              -0.000000000               0.001220567               0.999999987              -0.000000000               0.001257922               0.999999987              -0.000000000               0.001295740               0.999999987              -0.000000000               0.001333603               0.999999987              -0.000000000               0.001370838               0.999999987 </DataArray>
<DataArray type="Float64"                                    Name="defo"                                                      NumberOfComponents=" 3" format="ascii">
             -0.000304209               0.000000000               0.999999987              -0.000340674               0.000000000               0.999999987              -0.000357404              -0.000000000               0.999999987              -0.000367014               0.000000000               0.999999987              -0.000374463               0.000000000               0.999999987              -0.000382005               0.000000000               0.999999987              -0.000390674               0.000000000               0.999999987              -0.000400677               0.000000000               0.999999987              -0.000411955               0.000000000               0.999999987              -0.000424357               0.000000000               0.999999987              -0.000437703               0.000000000               0.999999987              -0.000451824               0.000000000               0.999999987              -0.000466686              -0.000000000               0.999999987              -0.000482152               0.000000000               0.999999987              -0.000497916               0.000000000               0.999999987              -0.000513591               0.000000000               0.999999987              -0.000528800               0.000000000               0.999999987              -0.000302442               0.000092374               0.999999987              -0.000336756               0.000078212               0.999999987              -0.000352173               0.000072892               0.999999987              -0.000360994               0.000072201               0.999999987              -0.000368043               0.000074126               0.999999987              -0.000375390               0.000077814               0.999999987              -0.000383851               0.000082637               0.999999987              -0.000393655               0.000087951               0.999999987              -0.000404726               0.000093438               0.999999987              -0.000416872               0.000098946               0.999999987              -0.000429963               0.000104164               0.999999987              -0.000443813               0.000109004               0.999999987              -0.000458289               0.000113546               0.999999987              -0.000473138               0.000117561               0.999999987              -0.000488091               0.000120554               0.999999987              -0.000503002               0.000122149               0.999999987              -0.000517541               0.000121649               0.999999987              -0.000297318               0.000183757               0.999999987              -0.000325286               0.000155749               0.999999987              -0.000336935               0.000145746               0.999999987              -0.000343720               0.000144932               0.999999987              -0.000349780               0.000149250               0.999999987              -0.000356601               0.000156872               0.999999987              -0.000364784               0.000166521               0.999999987              -0.000374320               0.000177125               0.999999987              -0.000385002               0.000188017               0.999999987              -0.000396637               0.000198842               0.999999987              -0.000408963               0.000209331               0.999999987              -0.000421871               0.000219321               0.999999987              -0.000435249               0.000228522               0.999999987              -0.000448777               0.000236531               0.999999987              -0.000462200               0.000242885               0.999999987              -0.000475315               0.000247143               0.999999987              -0.000488016               0.000248470               0.999999987              -0.000289024               0.000273203               0.999999987              -0.000306946               0.000232032               0.999999987              -0.000313238               0.000218467               0.999999987              -0.000317381               0.000218474               0.999999987              -0.000322252               0.000225896               0.999999987              -0.000328716               0.000237796               0.999999987              -0.000336766               0.000252390               0.999999987              -0.000346091               0.000268212               0.999999987              -0.000356417               0.000284310               0.999999987              -0.000367472               0.000300377               0.999999987              -0.000379103               0.000316104               0.999999987              -0.000391044               0.000331160               0.999999987              -0.000403088               0.000344916               0.999999987              -0.000414944               0.000357100               0.999999987              -0.000426452               0.000367276               0.999999987              -0.000437453               0.000375097               0.999999987              -0.000447792               0.000380034               0.999999987              -0.000277701               0.000359850               0.999999987              -0.000282703               0.000306679               0.999999987              -0.000283015               0.000290996               0.999999987              -0.000284708               0.000292924               0.999999987              -0.000288922               0.000304050               0.999999987              -0.000295412               0.000320524               0.999999987              -0.000303599               0.000340035               0.999999987              -0.000313016               0.000360883               0.999999987              -0.000323207               0.000382051               0.999999987              -0.000333902               0.000403261               0.999999987              -0.000344726               0.000423995               0.999999987              -0.000355372               0.000443702               0.999999987              -0.000365635               0.000461930               0.999999987              -0.000375343               0.000478424               0.999999987              -0.000384369               0.000492985               0.999999987              -0.000392673               0.000505348               0.999999987              -0.000400347               0.000515241               0.999999987              -0.000263461               0.000442937               0.999999987              -0.000253789               0.000379489               0.999999987              -0.000248644               0.000363168               0.999999987              -0.000248823               0.000367878               0.999999987              -0.000253164               0.000383110               0.999999987              -0.000260318               0.000404249               0.999999987              -0.000269255               0.000428432               0.999999987              -0.000279164               0.000454024               0.999999987              -0.000289379               0.000479994               0.999999987              -0.000299598               0.000505911               0.999999987              -0.000309403               0.000531139               0.999999987              -0.000318518               0.000555144               0.999999987              -0.000326777               0.000577637               0.999999987              -0.000334127               0.000598486               0.999999987              -0.000340640               0.000617640               0.999999987              -0.000346482               0.000634834               0.999999987              -0.000351763               0.000650490               0.999999987              -0.000246521               0.000521643               0.999999987              -0.000221630               0.000450424               0.999999987              -0.000212427               0.000434762               0.999999987              -0.000212510               0.000442613               0.999999987              -0.000218053               0.000462044               0.999999987              -0.000226685               0.000487528               0.999999987              -0.000236662               0.000516172               0.999999987              -0.000247061               0.000546180               0.999999987              -0.000257273               0.000576481               0.999999987              -0.000266863               0.000606580               0.999999987              -0.000275538               0.000635828               0.999999987              -0.000282965               0.000663732               0.999999987              -0.000289219               0.000690125               0.999999987              -0.000294489               0.000714984               0.999999987              -0.000298844               0.000738196               0.999999987              -0.000302353               0.000759903               0.999999987              -0.000305213               0.000780532               0.999999987              -0.000227241               0.000595065               0.999999987              -0.000187993               0.000519306               0.999999987              -0.000176711               0.000505110               0.999999987              -0.000178273               0.000516066               0.999999987              -0.000185983               0.000539356               0.999999987              -0.000196249               0.000568999               0.999999987              -0.000207210               0.000601809               0.999999987              -0.000217904               0.000635800               0.999999987              -0.000227834               0.000670082               0.999999987              -0.000236524               0.000704075               0.999999987              -0.000243724               0.000736974               0.999999987              -0.000249389               0.000768363               0.999999987              -0.000253713               0.000798151               0.999999987              -0.000256715               0.000826471               0.999999987              -0.000258564               0.000853355               0.999999987              -0.000259382               0.000879001               0.999999987              -0.000259538               0.000903858               0.999999987              -0.000206501               0.000661898               0.999999987              -0.000154302               0.000585955               0.999999987              -0.000143654               0.000573267               0.999999987              -0.000147789               0.000586999               0.999999987              -0.000157882               0.000613909               0.999999987              -0.000169723               0.000647375               0.999999987              -0.000181441               0.000683988               0.999999987              -0.000192153               0.000721745               0.999999987              -0.000201381               0.000759792               0.999999987              -0.000208714               0.000797309               0.999999987              -0.000214076               0.000833443               0.999999987              -0.000217620               0.000867948               0.999999987              -0.000219447               0.000900876               0.999999987              -0.000219723               0.000932421               0.999999987              -0.000218686               0.000962826               0.999999987              -0.000216904               0.000992317               0.999999987              -0.000214819               0.001021260               0.999999987              -0.000185643               0.000724556               0.999999987              -0.000127361               0.000657765               0.999999987              -0.000113822               0.000640476               0.999999987              -0.000116335               0.000648405               0.999999987              -0.000125144               0.000669875               0.999999987              -0.000136103               0.000698836               0.999999987              -0.000147242               0.000731709               0.999999987              -0.000157386               0.000766645               0.999999987              -0.000166003               0.000802592               0.999999987              -0.000173112               0.000838710               0.999999987              -0.000178397               0.000874290               0.999999987              -0.000181753               0.000908840               0.999999987              -0.000183349               0.000942224               0.999999987              -0.000183143               0.000974518               0.999999987              -0.000181374               0.001005868               0.999999987              -0.000178288               0.001036396               0.999999987              -0.000174597               0.001066325               0.999999987              -0.000162689               0.000781220               0.999999987              -0.000103014               0.000726618               0.999999987              -0.000086676               0.000708753               0.999999987              -0.000086905               0.000712539               0.999999987              -0.000093993               0.000729439               0.999999987              -0.000103695               0.000754229               0.999999987              -0.000113850               0.000783649               0.999999987              -0.000123255               0.000815794               0.999999987              -0.000131270               0.000849503               0.999999987              -0.000137797               0.000883928               0.999999987              -0.000142749               0.000918443               0.999999987              -0.000145780               0.000952563               0.999999987              -0.000146976               0.000985884               0.999999987              -0.000146268               0.001018488               0.999999987              -0.000143578               0.001050397               0.999999987              -0.000139106               0.001081730               0.999999987              -0.000133448               0.001112686               0.999999987              -0.000138162               0.000830724               0.999999987              -0.000081140               0.000790686               0.999999987              -0.000063099               0.000775254               0.999999987              -0.000060953               0.000777112               0.999999987              -0.000065921               0.000790797               0.999999987              -0.000073931               0.000812251               0.999999987              -0.000082694               0.000838717               0.999999987              -0.000091024               0.000868448               0.999999987              -0.000098257               0.000900218               0.999999987              -0.000103990               0.000933093               0.999999987              -0.000108230               0.000966510               0.999999987              -0.000110864               0.000999897               0.999999987              -0.000111477               0.001032943               0.999999987              -0.000109914               0.001065607               0.999999987              -0.000106190               0.001097854               0.999999987              -0.000100156               0.001129712               0.999999987              -0.000091975               0.001161419               0.999999987              -0.000112205               0.000872287               0.999999987              -0.000061684               0.000847501               0.999999987              -0.000043585               0.000836747               0.999999987              -0.000039612               0.000838836               0.999999987              -0.000042378               0.000850840               0.999999987              -0.000048282               0.000870118               0.999999987              -0.000055381               0.000894457               0.999999987              -0.000062308               0.000922312               0.999999987              -0.000068410               0.000952630               0.999999987              -0.000073343               0.000984450               0.999999987              -0.000076901               0.001016999               0.999999987              -0.000078931               0.001049888               0.999999987              -0.000078949               0.001082821               0.999999987              -0.000076620               0.001115563               0.999999987              -0.000071666               0.001148218               0.999999987              -0.000063902               0.001180745               0.999999987              -0.000052884               0.001213249               0.999999987              -0.000085089               0.000905178               0.999999987              -0.000044381               0.000894515               0.999999987              -0.000028205               0.000889598               0.999999987              -0.000023462               0.000893466               0.999999987              -0.000024355               0.000905262               0.999999987              -0.000028246               0.000923520               0.999999987              -0.000033446               0.000946663               0.999999987              -0.000038721               0.000973411               0.999999987              -0.000043517               0.001002760               0.999999987              -0.000047566               0.001033986               0.999999987              -0.000050435               0.001066339               0.999999987              -0.000051812               0.001099343               0.999999987              -0.000051348               0.001132677               0.999999987              -0.000048618               0.001166114               0.999999987              -0.000043063               0.001199559               0.999999987              -0.000034032               0.001232964               0.999999987              -0.000020723               0.001266405               0.999999987              -0.000057133               0.000928908               0.999999987              -0.000028754               0.000929558               0.999999987              -0.000016553               0.000930231               0.999999987              -0.000012290               0.000936531               0.999999987              -0.000012151               0.000948992               0.999999987              -0.000014304               0.000967044               0.999999987              -0.000017572               0.000989697               0.999999987              -0.000021217               0.001016022               0.999999987              -0.000024529               0.001045145               0.999999987              -0.000027388               0.001076357               0.999999987              -0.000029393               0.001109100               0.999999987              -0.000030229               0.001142875               0.999999987              -0.000029592               0.001177347               0.999999987              -0.000027142               0.001212262               0.999999987              -0.000022153               0.001247341               0.999999987              -0.000013683               0.001282347               0.999999987              -0.000000415               0.001317184               0.999999987              -0.000028685               0.000943113               0.999999987              -0.000014173               0.000951084               0.999999987              -0.000007594               0.000955832               0.999999987              -0.000005042               0.000964127               0.999999987              -0.000004712               0.000977396               0.999999987              -0.000005567               0.000995548               0.999999987              -0.000007165               0.001018086               0.999999987              -0.000009025               0.001044324               0.999999987              -0.000010774               0.001073520               0.999999987              -0.000012200               0.001105085               0.999999987              -0.000013256               0.001138488               0.999999987              -0.000013633               0.001173280               0.999999987              -0.000013259               0.001209115               0.999999987              -0.000011744               0.001245664               0.999999987              -0.000008719               0.001282613               0.999999987              -0.000003464               0.001319545               0.999999987               0.000005045               0.001356021               0.999999987               0.000000000               0.000947824               0.999999987              -0.000000000               0.000958334               0.999999987              -0.000000000               0.000964558               0.999999987               0.000000000               0.000973569               0.999999987               0.000000000               0.000987215               0.999999987              -0.000000000               0.001005477               0.999999987              -0.000000000               0.001027932               0.999999987              -0.000000000               0.001054116               0.999999987               0.000000000               0.001083440               0.999999987              -0.000000000               0.001115176               0.999999987              -0.000000000               0.001148845               0.999999987              -0.000000000               0.001184063               0.999999987              -0.000000000               0.001220567               0.999999987              -0.000000000               0.001257922               0.999999987              -0.000000000               0.001295740               0.999999987              -0.000000000               0.001333603               0.999999987              -0.000000000               0.001370838               0.999999987              -0.000304209               0.000000000               0.999999987              -0.000340674               0.000000000               0.999999987              -0.000357404              -0.000000000               0.999999987              -0.000367014               0.000000000               0.999999987              -0.000374463               0.000000000               0.999999987              -0.000382005               0.000000000               0.999999987              -0.000390674               0.000000000               0.999999987              -0.000400677               0.000000000               0.999999987              -0.000411955               0.000000000               0.999999987              -0.000424357               0.000000000               0.999999987              -0.000437703               0.000000000               0.999999987              -0.000451824               0.000000000               0.999999987              -0.000466686              -0.000000000               0.999999987              -0.000482152               0.000000000               0.999999987              -0.000497916               0.000000000               0.999999987              -0.000513591               0.000000000               0.999999987              -0.000528800               0.000000000               0.999999987              -0.000302442              -0.000092374               0.999999987              -0.000336756              -0.000078212               0.999999987              -0.000352173              -0.000072892               0.999999987              -0.000360994              -0.000072201               0.999999987              -0.000368043              -0.000074126               0.999999987              -0.000375390              -0.000077814               0.999999987              -0.000383851              -0.000082637               0.999999987              -0.000393655              -0.000087951               0.999999987              -0.000404726              -0.000093438               0.999999987              -0.000416872              -0.000098946               0.999999987              -0.000429963              -0.000104164               0.999999987              -0.000443813              -0.000109004               0.999999987              -0.000458289              -0.000113546               0.999999987              -0.000473138              -0.000117561               0.999999987              -0.000488091              -0.000120554               0.999999987              -0.000503002              -0.000122149               0.999999987              -0.000517541              -0.000121649               0.999999987              -0.000297318              -0.000183757               0.999999987              -0.000325286              -0.000155749               0.999999987              -0.000336935              -0.000145746               0.999999987              -0.000343720              -0.000144932               0.999999987              -0.000349780              -0.000149250               0.999999987              -0.000356601              -0.000156872               0.999999987              -0.000364784              -0.000166521               0.999999987              -0.000374320              -0.000177125               0.999999987              -0.000385002              -0.000188017               0.999999987              -0.000396637              -0.000198842               0.999999987              -0.000408963              -0.000209331               0.999999987              -0.000421871              -0.000219321               0.999999987              -0.000435249              -0.000228522               0.999999987              -0.000448777              -0.000236531               0.999999987              -0.000462200              -0.000242885               0.999999987              -0.000475315              -0.000247143               0.999999987              -0.000488016              -0.000248470               0.999999987              -0.000289024              -0.000273203               0.999999987              -0.000306946              -0.000232032               0.999999987              -0.000313238              -0.000218467               0.999999987              -0.000317381              -0.000218474               0.999999987              -0.000322252              -0.000225896               0.999999987              -0.000328716              -0.000237796               0.999999987              -0.000336766              -0.000252390               0.999999987              -0.000346091              -0.000268212               0.999999987              -0.000356417              -0.000284310               0.999999987              -0.000367472              -0.000300377               0.999999987              -0.000379103              -0.000316104               0.999999987              -0.000391044              -0.000331160               0.999999987              -0.000403088              -0.000344916               0.999999987              -0.000414944              -0.000357100               0.999999987              -0.000426452              -0.000367276               0.999999987              -0.000437453              -0.000375097               0.999999987              -0.000447792              -0.000380034               0.999999987              -0.000277701              -0.000359850               0.999999987              -0.000282703              -0.000306679               0.999999987              -0.000283015              -0.000290996               0.999999987              -0.000284708              -0.000292924               0.999999987              -0.000288922              -0.000304050               0.999999987              -0.000295412              -0.000320524               0.999999987              -0.000303599              -0.000340035               0.999999987              -0.000313016              -0.000360883               0.999999987              -0.000323207              -0.000382051               0.999999987              -0.000333902              -0.000403261               0.999999987              -0.000344726              -0.000423995               0.999999987              -0.000355372              -0.000443702               0.999999987              -0.000365635              -0.000461930               0.999999987              -0.000375343              -0.000478424               0.999999987              -0.000384369              -0.000492985               0.999999987              -0.000392673              -0.000505348               0.999999987              -0.000400347              -0.000515241               0.999999987              -0.000263461              -0.000442937               0.999999987              -0.000253789              -0.000379489               0.999999987              -0.000248644              -0.000363168               0.999999987              -0.000248823              -0.000367878               0.999999987              -0.000253164              -0.000383110               0.999999987              -0.000260318              -0.000404249               0.999999987              -0.000269255              -0.000428432               0.999999987              -0.000279164              -0.000454024               0.999999987              -0.000289379              -0.000479994               0.999999987              -0.000299598              -0.000505911               0.999999987              -0.000309403              -0.000531139               0.999999987              -0.000318518              -0.000555144               0.999999987              -0.000326777              -0.000577637               0.999999987              -0.000334127              -0.000598486               0.999999987              -0.000340640              -0.000617640               0.999999987              -0.000346482              -0.000634834               0.999999987              -0.000351763              -0.000650490               0.999999987              -0.000246521              -0.000521643               0.999999987              -0.000221630              -0.000450424               0.999999987              -0.000212427              -0.000434762               0.999999987              -0.000212510              -0.000442613               0.999999987              -0.000218053              -0.000462044               0.999999987              -0.000226685              -0.000487528               0.999999987              -0.000236662              -0.000516172               0.999999987              -0.000247061              -0.000546180               0.999999987              -0.000257273              -0.000576481               0.999999987              -0.000266863              -0.000606580               0.999999987              -0.000275538              -0.000635828               0.999999987              -0.000282965              -0.000663732               0.999999987              -0.000289219              -0.000690125               0.999999987              -0.000294489              -0.000714984               0.999999987              -0.000298844              -0.000738196               0.999999987              -0.000302353              -0.000759903               0.999999987              -0.000305213              -0.000780532               0.999999987              -0.000227241              -0.000595065               0.999999987              -0.000187993              -0.000519306               0.999999987              -0.000176711              -0.000505110               0.999999987              -0.000178273              -0.000516066               0.999999987              -0.000185983              -0.000539356               0.999999987              -0.000196249              -0.000568999               0.999999987              -0.000207210              -0.000601809               0.999999987              -0.000217904              -0.000635800               0.999999987              -0.000227834              -0.000670082               0.999999987              -0.000236524              -0.000704075               0.999999987              -0.000243724              -0.000736974               0.999999987              -0.000249389              -0.000768363               0.999999987              -0.000253713              -0.000798151               0.999999987              -0.000256715              -0.000826471               0.999999987              -0.000258564              -0.000853355               0.999999987              -0.000259382              -0.000879001               0.999999987              -0.000259538              -0.000903858               0.999999987              -0.000206501              -0.000661898               0.999999987              -0.000154302              -0.000585955               0.999999987              -0.000143654              -0.000573267               0.999999987              -0.000147789              -0.000586999               0.999999987              -0.000157882              -0.000613909               0.999999987              -0.000169723              -0.000647375               0.999999987              -0.000181441              -0.000683988               0.999999987              -0.000192153              -0.000721745               0.999999987              -0.000201381              -0.000759792               0.999999987              -0.000208714              -0.000797309               0.999999987              -0.000214076              -0.000833443               0.999999987              -0.000217620              -0.000867948               0.999999987              -0.000219447              -0.000900876               0.999999987              -0.000219723              -0.000932421               0.999999987              -0.000218686              -0.000962826               0.999999987              -0.000216904              -0.000992317               0.999999987              -0.000214819              -0.001021260               0.999999987              -0.000185643              -0.000724556               0.999999987              -0.000127361              -0.000657765               0.999999987              -0.000113822              -0.000640476               0.999999987              -0.000116335              -0.000648405               0.999999987              -0.000125144              -0.000669875               0.999999987              -0.000136103              -0.000698836               0.999999987              -0.000147242              -0.000731709               0.999999987              -0.000157386              -0.000766645               0.999999987              -0.000166003              -0.000802592               0.999999987              -0.000173112              -0.000838710               0.999999987              -0.000178397              -0.000874290               0.999999987              -0.000181753              -0.000908840               0.999999987              -0.000183349              -0.000942224               0.999999987              -0.000183143              -0.000974518               0.999999987              -0.000181374              -0.001005868               0.999999987              -0.000178288              -0.001036396               0.999999987              -0.000174597              -0.001066325               0.999999987              -0.000162689              -0.000781220               0.999999987              -0.000103014              -0.000726618               0.999999987              -0.000086676              -0.000708753               0.999999987              -0.000086905              -0.000712539               0.999999987              -0.000093993              -0.000729439               0.999999987              -0.000103695              -0.000754229               0.999999987              -0.000113850              -0.000783649               0.999999987              -0.000123255              -0.000815794               0.999999987              -0.000131270              -0.000849503               0.999999987              -0.000137797              -0.000883928               0.999999987              -0.000142749              -0.000918443               0.999999987              -0.000145780              -0.000952563               0.999999987              -0.000146976              -0.000985884               0.999999987              -0.000146268              -0.001018488               0.999999987              -0.000143578              -0.001050397               0.999999987              -0.000139106              -0.001081730               0.999999987              -0.000133448              -0.001112686               0.999999987              -0.000138162              -0.000830724               0.999999987              -0.000081140              -0.000790686               0.999999987              -0.000063099              -0.000775254               0.999999987              -0.000060953              -0.000777112               0.999999987              -0.000065921              -0.000790797               0.999999987              -0.000073931              -0.000812251               0.999999987              -0.000082694              -0.000838717               0.999999987              -0.000091024              -0.000868448               0.999999987              -0.000098257              -0.000900218               0.999999987              -0.000103990              -0.000933093               0.999999987              -0.000108230              -0.000966510               0.999999987              -0.000110864              -0.000999897               0.999999987              -0.000111477              -0.001032943               0.999999987              -0.000109914              -0.001065607               0.999999987              -0.000106190              -0.001097854               0.999999987              -0.000100156              -0.001129712               0.999999987              -0.000091975              -0.001161419               0.999999987              -0.000112205              -0.000872287               0.999999987              -0.000061684              -0.000847501               0.999999987              -0.000043585              -0.000836747               0.999999987              -0.000039612              -0.000838836               0.999999987              -0.000042378              -0.000850840               0.999999987              -0.000048282              -0.000870118               0.999999987              -0.000055381              -0.000894457               0.999999987              -0.000062308              -0.000922312               0.999999987              -0.000068410              -0.000952630               0.999999987              -0.000073343              -0.000984450               0.999999987              -0.000076901              -0.001016999               0.999999987              -0.000078931              -0.001049888               0.999999987              -0.000078949              -0.001082821               0.999999987              -0.000076620              -0.001115563               0.999999987              -0.000071666              -0.001148218               0.999999987              -0.000063902              -0.001180745               0.999999987              -0.000052884              -0.001213249               0.999999987              -0.000085089              -0.000905178               0.999999987              -0.000044381              -0.000894515               0.999999987              -0.000028205              -0.000889598               0.999999987              -0.000023462              -0.000893466               0.999999987              -0.000024355              -0.000905262               0.999999987              -0.000028246              -0.000923520               0.999999987              -0.000033446              -0.000946663               0.999999987              -0.000038721              -0.000973411               0.999999987              -0.000043517              -0.001002760               0.999999987              -0.000047566              -0.001033986               0.999999987              -0.000050435              -0.001066339               0.999999987              -0.000051812              -0.001099343               0.999999987              -0.000051348              -0.001132677               0.999999987              -0.000048618              -0.001166114               0.999999987              -0.000043063              -0.001199559               0.999999987              -0.000034032              -0.001232964               0.999999987              -0.000020723              -0.001266405               0.999999987              -0.000057133              -0.000928908               0.999999987              -0.000028754              -0.000929558               0.999999987              -0.000016553              -0.000930231               0.999999987              -0.000012290              -0.000936531               0.999999987              -0.000012151              -0.000948992               0.999999987              -0.000014304              -0.000967044               0.999999987              -0.000017572              -0.000989697               0.999999987              -0.000021217              -0.001016022               0.999999987              -0.000024529              -0.001045145               0.999999987              -0.000027388              -0.001076357               0.999999987              -0.000029393              -0.001109100               0.999999987              -0.000030229              -0.001142875               0.999999987              -0.000029592              -0.001177347               0.999999987              -0.000027142              -0.001212262               0.999999987              -0.000022153              -0.001247341               0.999999987              -0.000013683              -0.001282347               0.999999987              -0.000000415              -0.001317184               0.999999987              -0.000028685              -0.000943113               0.999999987              -0.000014173              -0.000951084               0.999999987              -0.000007594              -0.000955832               0.999999987              -0.000005042              -0.000964127               0.999999987              -0.000004712              -0.000977396               0.999999987              -0.000005567              -0.000995548               0.999999987              -0.000007165              -0.001018086               0.999999987              -0.000009025              -0.001044324               0.999999987              -0.000010774              -0.001073520               0.999999987              -0.000012200              -0.001105085               0.999999987              -0.000013256              -0.001138488               0.999999987              -0.000013633              -0.001173280               0.999999987              -0.000013259              -0.001209115               0.999999987              -0.000011744              -0.001245664               0.999999987              -0.000008719              -0.001282613               0.999999987              -0.000003464              -0.001319545               0.999999987               0.000005045              -0.001356021               0.999999987              -0.000000000              -0.000947824               0.999999987              -0.000000000              -0.000958334               0.999999987              -0.000000000              -0.000964558               0.999999987               0.000000000              -0.000973569               0.999999987               0.000000000              -0.000987215               0.999999987               0.000000000              -0.001005477               0.999999987               0.000000000              -0.001027932               0.999999987               0.000000000              -0.001054116               0.999999987              -0.000000000              -0.001083440               0.999999987               0.000000000              -0.001115176               0.999999987              -0.000000000              -0.001148845               0.999999987               0.000000000              -0.001184063               0.999999987              -0.000000000              -0.001220567               0.999999987              -0.000000000              -0.001257922               0.999999987               0.000000000              -0.001295740               0.999999987              -0.000000000              -0.001333603               0.999999987              -0.000000000              -0.001370838               0.999999987               0.000304209              -0.000000000               0.999999987               0.000340674               0.000000000               0.999999987               0.000357404              -0.000000000               0.999999987               0.000367014               0.000000000               0.999999987               0.000374463               0.000000000               0.999999987               0.000382005               0.000000000               0.999999987               0.000390674              -0.000000000               0.999999987               0.000400677              -0.000000000               0.999999987               0.000411955               0.000000000               0.999999987               0.000424357               0.000000000               0.999999987               0.000437703              -0.000000000               0.999999987               0.000451824              -0.000000000               0.999999987               0.000466686               0.000000000               0.999999987               0.000482152               0.000000000               0.999999987               0.000497916              -0.000000000               0.999999987               0.000513591               0.000000000               0.999999987               0.000528800               0.000000000               0.999999987               0.000302442              -0.000092374               0.999999987               0.000336756              -0.000078212               0.999999987               0.000352173              -0.000072892               0.999999987               0.000360994              -0.000072201               0.999999987               0.000368043              -0.000074126               0.999999987               0.000375390              -0.000077814               0.999999987               0.000383851              -0.000082637               0.999999987               0.000393655              -0.000087951               0.999999987               0.000404726              -0.000093438               0.999999987               0.000416872              -0.000098946               0.999999987               0.000429963              -0.000104164               0.999999987               0.000443813              -0.000109004               0.999999987               0.000458289              -0.000113546               0.999999987               0.000473138              -0.000117561               0.999999987               0.000488091              -0.000120554               0.999999987               0.000503002              -0.000122149               0.999999987               0.000517541              -0.000121649               0.999999987               0.000297318              -0.000183757               0.999999987               0.000325286              -0.000155749               0.999999987               0.000336935              -0.000145746               0.999999987               0.000343720              -0.000144932               0.999999987               0.000349780              -0.000149250               0.999999987               0.000356601              -0.000156872               0.999999987               0.000364784              -0.000166521               0.999999987               0.000374320              -0.000177125               0.999999987               0.000385002              -0.000188017               0.999999987               0.000396637              -0.000198842               0.999999987               0.000408963              -0.000209331               0.999999987               0.000421871              -0.000219321               0.999999987               0.000435249              -0.000228522               0.999999987               0.000448777              -0.000236531               0.999999987               0.000462200              -0.000242885               0.999999987               0.000475315              -0.000247143               0.999999987               0.000488016              -0.000248470               0.999999987               0.000289024              -0.000273203               0.999999987               0.000306946              -0.000232032               0.999999987               0.000313238              -0.000218467               0.999999987               0.000317381              -0.000218474               0.999999987               0.000322252              -0.000225896               0.999999987               0.000328716              -0.000237796               0.999999987               0.000336766              -0.000252390               0.999999987               0.000346091              -0.000268212               0.999999987               0.000356417              -0.000284310               0.999999987               0.000367472              -0.000300377               0.999999987               0.000379103              -0.000316104               0.999999987               0.000391044              -0.000331160               0.999999987               0.000403088              -0.000344916               0.999999987               0.000414944              -0.000357100               0.999999987               0.000426452              -0.000367276               0.999999987               0.000437453              -0.000375097               0.999999987               0.000447792              -0.000380034               0.999999987               0.000277701              -0.000359850               0.999999987               0.000282703              -0.000306679               0.999999987               0.000283015              -0.000290996               0.999999987               0.000284708              -0.000292924               0.999999987               0.000288922              -0.000304050               0.999999987               0.000295412              -0.000320524               0.999999987               0.000303599              -0.000340035               0.999999987               0.000313016              -0.000360883               0.999999987               0.000323207              -0.000382051               0.999999987               0.000333902              -0.000403261               0.999999987               0.000344726              -0.000423995               0.999999987               0.000355372              -0.000443702               0.999999987               0.000365635              -0.000461930               0.999999987               0.000375343              -0.000478424               0.999999987               0.000384369              -0.000492985               0.999999987               0.000392673              -0.000505348               0.999999987               0.000400347              -0.000515241               0.999999987               0.000263461              -0.000442937               0.999999987               0.000253789              -0.000379489               0.999999987               0.000248644              -0.000363168               0.999999987               0.000248823              -0.000367878               0.999999987               0.000253164              -0.000383110               0.999999987               0.000260318              -0.000404249               0.999999987               0.000269255              -0.000428432               0.999999987               0.000279164              -0.000454024               0.999999987               0.000289379              -0.000479994               0.999999987               0.000299598              -0.000505911               0.999999987               0.000309403              -0.000531139               0.999999987               0.000318518              -0.000555144               0.999999987               0.000326777              -0.000577637               0.999999987               0.000334127              -0.000598486               0.999999987               0.000340640              -0.000617640               0.999999987               0.000346482              -0.000634834               0.999999987               0.000351763              -0.000650490               0.999999987               0.000246521              -0.000521643               0.999999987               0.000221630              -0.000450424               0.999999987               0.000212427              -0.000434762               0.999999987               0.000212510              -0.000442613               0.999999987               0.000218053              -0.000462044               0.999999987               0.000226685              -0.000487528               0.999999987               0.000236662              -0.000516172               0.999999987               0.000247061              -0.000546180               0.999999987               0.000257273              -0.000576481               0.999999987               0.000266863              -0.000606580               0.999999987               0.000275538              -0.000635828               0.999999987               0.000282965              -0.000663732               0.999999987               0.000289219              -0.000690125               0.999999987               0.000294489              -0.000714984               0.999999987               0.000298844              -0.000738196               0.999999987               0.000302353              -0.000759903               0.999999987               0.000305213              -0.000780532               0.999999987               0.000227241              -0.000595065               0.999999987               0.000187993              -0.000519306               0.999999987               0.000176711              -0.000505110               0.999999987               0.000178273              -0.000516066               0.999999987               0.000185983              -0.000539356               0.999999987               0.000196249              -0.000568999               0.999999987               0.000207210              -0.000601809               0.999999987               0.000217904              -0.000635800               0.999999987               0.000227834              -0.000670082               0.999999987               0.000236524              -0.000704075               0.999999987               0.000243724              -0.000736974               0.999999987               0.000249389              -0.000768363               0.999999987               0.000253713              -0.000798151               0.999999987               0.000256715              -0.000826471               0.999999987               0.000258564              -0.000853355               0.999999987               0.000259382              -0.000879001               0.999999987               0.000259538              -0.000903858               0.999999987               0.000206501              -0.000661898               0.999999987               0.000154302              -0.000585955               0.999999987               0.000143654              -0.000573267               0.999999987               0.000147789              -0.000586999               0.999999987               0.000157882              -0.000613909               0.999999987               0.000169723              -0.000647375               0.999999987               0.000181441              -0.000683988               0.999999987               0.000192153              -0.000721745               0.999999987               0.000201381              -0.000759792               0.999999987               0.000208714              -0.000797309               0.999999987               0.000214076              -0.000833443               0.999999987               0.000217620              -0.000867948               0.999999987               0.000219447              -0.000900876               0.999999987               0.000219723              -0.000932421               0.999999987               0.000218686              -0.000962826               0.999999987               0.000216904              -0.000992317               0.999999987               0.000214819              -0.001021260               0.999999987               0.000185643              -0.000724556               0.999999987               0.000127361              -0.000657765               0.999999987               0.000113822              -0.000640476               0.999999987               0.000116335              -0.000648405               0.999999987               0.000125144              -0.000669875               0.999999987               0.000136103              -0.000698836               0.999999987               0.000147242              -0.000731709               0.999999987               0.000157386              -0.000766645               0.999999987               0.000166003              -0.000802592               0.999999987               0.000173112              -0.000838710               0.999999987               0.000178397              -0.000874290               0.999999987               0.000181753              -0.000908840               0.999999987               0.000183349              -0.000942224               0.999999987               0.000183143              -0.000974518               0.999999987               0.000181374              -0.001005868               0.999999987               0.000178288              -0.001036396               0.999999987               0.000174597              -0.001066325               0.999999987               0.000162689              -0.000781220               0.999999987               0.000103014              -0.000726618               0.999999987               0.000086676              -0.000708753               0.999999987               0.000086905              -0.000712539               0.999999987               0.000093993              -0.000729439               0.999999987               0.000103695              -0.000754229               0.999999987               0.000113850              -0.000783649               0.999999987               0.000123255              -0.000815794               0.999999987               0.000131270              -0.000849503               0.999999987               0.000137797              -0.000883928               0.999999987               0.000142749              -0.000918443               0.999999987               0.000145780              -0.000952563               0.999999987               0.000146976              -0.000985884               0.999999987               0.000146268              -0.001018488               0.999999987               0.000143578              -0.001050397               0.999999987               0.000139106              -0.001081730               0.999999987               0.000133448              -0.001112686               0.999999987               0.000138162              -0.000830724               0.999999987               0.000081140              -0.000790686               0.999999987               0.000063099              -0.000775254               0.999999987               0.000060953              -0.000777112               0.999999987               0.000065921              -0.000790797               0.999999987               0.000073931              -0.000812251               0.999999987               0.000082694              -0.000838717               0.999999987               0.000091024              -0.000868448               0.999999987               0.000098257              -0.000900218               0.999999987               0.000103990              -0.000933093               0.999999987               0.000108230              -0.000966510               0.999999987               0.000110864              -0.000999897               0.999999987               0.000111477              -0.001032943               0.999999987               0.000109914              -0.001065607               0.999999987               0.000106190              -0.001097854               0.999999987               0.000100156              -0.001129712               0.999999987               0.000091975              -0.001161419               0.999999987               0.000112205              -0.000872287               0.999999987               0.000061684              -0.000847501               0.999999987               0.000043585              -0.000836747               0.999999987               0.000039612              -0.000838836               0.999999987               0.000042378              -0.000850840               0.999999987               0.000048282              -0.000870118               0.999999987               0.000055381              -0.000894457               0.999999987               0.000062308              -0.000922312               0.999999987               0.000068410              -0.000952630               0.999999987               0.000073343              -0.000984450               0.999999987               0.000076901              -0.001016999               0.999999987               0.000078931              -0.001049888               0.999999987               0.000078949              -0.001082821               0.999999987               0.000076620              -0.001115563               0.999999987               0.000071666              -0.001148218               0.999999987               0.000063902              -0.001180745               0.999999987               0.000052884              -0.001213249               0.999999987               0.000085089              -0.000905178               0.999999987               0.000044381              -0.000894515               0.999999987               0.000028205              -0.000889598               0.999999987               0.000023462              -0.000893466               0.999999987               0.000024355              -0.000905262               0.999999987               0.000028246              -0.000923520               0.999999987               0.000033446              -0.000946663               0.999999987               0.000038721              -0.000973411               0.999999987               0.000043517              -0.001002760               0.999999987               0.000047566              -0.001033986               0.999999987               0.000050435              -0.001066339               0.999999987               0.000051812              -0.001099343               0.999999987               0.000051348              -0.001132677               0.999999987               0.000048618              -0.001166114               0.999999987               0.000043063              -0.001199559               0.999999987               0.000034032              -0.001232964               0.999999987               0.000020723              -0.001266405               0.999999987               0.000057133              -0.000928908               0.999999987               0.000028754              -0.000929558               0.999999987               0.000016553              -0.000930231               0.999999987               0.000012290              -0.000936531               0.999999987               0.000012151              -0.000948992               0.999999987               0.000014304              -0.000967044               0.999999987               0.000017572              -0.000989697               0.999999987               0.000021217              -0.001016022               0.999999987               0.000024529              -0.001045145               0.999999987               0.000027388              -0.001076357               0.999999987               0.000029393              -0.001109100               0.999999987               0.000030229              -0.001142875               0.999999987               0.000029592              -0.001177347               0.999999987               0.000027142              -0.001212262               0.999999987               0.000022153              -0.001247341               0.999999987               0.000013683              -0.001282347               0.999999987               0.000000415              -0.001317184               0.999999987               0.000028685              -0.000943113               0.999999987               0.000014173              -0.000951084               0.999999987               0.000007594              -0.000955832               0.999999987               0.000005042              -0.000964127               0.999999987               0.000004712              -0.000977396               0.999999987               0.000005567              -0.000995548               0.999999987               0.000007165              -0.001018086               0.999999987               0.000009025              -0.001044324               0.999999987               0.000010774              -0.001073520               0.999999987               0.000012200              -0.001105085               0.999999987               0.000013256              -0.001138488               0.999999987               0.000013633              -0.001173280               0.999999987               0.000013259              -0.001209115               0.999999987               0.000011744              -0.001245664               0.999999987               0.000008719              -0.001282613               0.999999987               0.000003464              -0.001319545               0.999999987              -0.000005045              -0.001356021               0.999999987              -0.000000000              -0.000947824               0.999999987              -0.000000000              -0.000958334               0.999999987              -0.000000000              -0.000964558               0.999999987               0.000000000              -0.000973569               0.999999987               0.000000000              -0.000987215               0.999999987               0.000000000              -0.001005477               0.999999987               0.000000000              -0.001027932               0.999999987               0.000000000              -0.001054116               0.999999987              -0.000000000              -0.001083440               0.999999987               0.000000000              -0.001115176               0.999999987              -0.000000000              -0.001148845               0.999999987               0.000000000              -0.001184063               0.999999987              -0.000000000              -0.001220567               0.999999987              -0.000000000              -0.001257922               0.999999987               0.000000000              -0.001295740               0.999999987              -0.000000000              -0.001333603               0.999999987              -0.000000000              -0.001370838               0.999999987               0.000304209              -0.000000000               0.999999987               0.000340674               0.000000000               0.999999987               0.000357404              -0.000000000               0.999999987               0.000367014               0.000000000               0.999999987               0.000374463               0.000000000               0.999999987               0.000382005               0.000000000               0.999999987               0.000390674              -0.000000000               0.999999987               0.000400677              -0.000000000               0.999999987               0.000411955               0.000000000               0.999999987               0.000424357               0.000000000               0.999999987               0.000437703              -0.000000000               0.999999987               0.000451824              -0.000000000               0.999999987               0.000466686               0.000000000               0.999999987               0.000482152               0.000000000               0.999999987               0.000497916              -0.000000000               0.999999987               0.000513591               0.000000000               0.999999987               0.000528800               0.000000000               0.999999987               0.000302442               0.000092374               0.999999987               0.000336756               0.000078212               0.999999987               0.000352173               0.000072892               0.999999987               0.000360994               0.000072201               0.999999987               0.000368043               0.000074126               0.999999987               0.000375390               0.000077814               0.999999987               0.000383851               0.000082637               0.999999987               0.000393655               0.000087951               0.999999987               0.000404726               0.000093438               0.999999987               0.000416872               0.000098946               0.999999987               0.000429963               0.000104164               0.999999987               0.000443813               0.000109004               0.999999987               0.000458289               0.000113546               0.999999987               0.000473138               0.000117561               0.999999987               0.000488091               0.000120554               0.999999987               0.000503002               0.000122149               0.999999987               0.000517541               0.000121649               0.999999987               0.000297318               0.000183757               0.999999987               0.000325286               0.000155749               0.999999987               0.000336935               0.000145746               0.999999987               0.000343720               0.000144932               0.999999987               0.000349780               0.000149250               0.999999987               0.000356601               0.000156872               0.999999987               0.000364784               0.000166521               0.999999987               0.000374320               0.000177125               0.999999987               0.000385002               0.000188017               0.999999987               0.000396637               0.000198842               0.999999987               0.000408963               0.000209331               0.999999987               0.000421871               0.000219321               0.999999987               0.000435249               0.000228522               0.999999987               0.000448777               0.000236531               0.999999987               0.000462200               0.000242885               0.999999987               0.000475315               0.000247143               0.999999987               0.000488016               0.000248470               0.999999987               0.000289024               0.000273203               0.999999987               0.000306946               0.000232032               0.999999987               0.000313238               0.000218467               0.999999987               0.000317381               0.000218474               0.999999987               0.000322252               0.000225896               0.999999987               0.000328716               0.000237796               0.999999987               0.000336766               0.000252390               0.999999987               0.000346091               0.000268212               0.999999987               0.000356417               0.000284310               0.999999987               0.000367472               0.000300377               0.999999987               0.000379103               0.000316104               0.999999987               0.000391044               0.000331160               0.999999987               0.000403088               0.000344916               0.999999987               0.000414944               0.000357100               0.999999987               0.000426452               0.000367276               0.999999987               0.000437453               0.000375097               0.999999987               0.000447792               0.000380034               0.999999987               0.000277701               0.000359850               0.999999987               0.000282703               0.000306679               0.999999987               0.000283015               0.000290996               0.999999987               0.000284708               0.000292924               0.999999987               0.000288922               0.000304050               0.999999987               0.000295412               0.000320524               0.999999987               0.000303599               0.000340035               0.999999987               0.000313016               0.000360883               0.999999987               0.000323207               0.000382051               0.999999987               0.000333902               0.000403261               0.999999987               0.000344726               0.000423995               0.999999987               0.000355372               0.000443702               0.999999987               0.000365635               0.000461930               0.999999987               0.000375343               0.000478424               0.999999987               0.000384369               0.000492985               0.999999987               0.000392673               0.000505348               0.999999987               0.000400347               0.000515241               0.999999987               0.000263461               0.000442937               0.999999987               0.000253789               0.000379489               0.999999987               0.000248644               0.000363168               0.999999987               0.000248823               0.000367878               0.999999987               0.000253164               0.000383110               0.999999987               0.000260318               0.000404249               0.999999987               0.000269255               0.000428432               0.999999987               0.000279164               0.000454024               0.999999987               0.000289379               0.000479994               0.999999987               0.000299598               0.000505911               0.999999987               0.000309403               0.000531139               0.999999987               0.000318518               0.000555144               0.999999987               0.000326777               0.000577637               0.999999987               0.000334127               0.000598486               0.999999987               0.000340640               0.000617640               0.999999987               0.000346482               0.000634834               0.999999987               0.000351763               0.000650490               0.999999987               0.000246521               0.000521643               0.999999987               0.000221630               0.000450424               0.999999987               0.000212427               0.000434762               0.999999987               0.000212510               0.000442613               0.999999987               0.000218053               0.000462044               0.999999987               0.000226685               0.000487528               0.999999987               0.000236662               0.000516172               0.999999987               0.000247061               0.000546180               0.999999987               0.000257273               0.000576481               0.999999987               0.000266863               0.000606580               0.999999987               0.000275538               0.000635828               0.999999987               0.000282965               0.000663732               0.999999987               0.000289219               0.000690125               0.999999987               0.000294489               0.000714984               0.999999987               0.000298844               0.000738196               0.999999987               0.000302353               0.000759903               0.999999987               0.000305213               0.000780532               0.999999987               0.000227241               0.000595065               0.999999987               0.000187993               0.000519306               0.999999987               0.000176711               0.000505110               0.999999987               0.000178273               0.000516066               0.999999987               0.000185983               0.000539356               0.999999987               0.000196249               0.000568999               0.999999987               0.000207210               0.000601809               0.999999987               0.000217904               0.000635800               0.999999987               0.000227834               0.000670082               0.999999987               0.000236524               0.000704075               0.999999987               0.000243724               0.000736974               0.999999987               0.000249389               0.000768363               0.999999987               0.000253713               0.000798151               0.999999987               0.000256715               0.000826471               0.999999987               0.000258564               0.000853355               0.999999987               0.000259382               0.000879001               0.999999987               0.000259538               0.000903858               0.999999987               0.000206501               0.000661898               0.999999987               0.000154302               0.000585955               0.999999987               0.000143654               0.000573267               0.999999987               0.000147789               0.000586999               0.999999987               0.000157882               0.000613909               0.999999987               0.000169723               0.000647375               0.999999987               0.000181441               0.000683988               0.999999987               0.000192153               0.000721745               0.999999987               0.000201381               0.000759792               0.999999987               0.000208714               0.000797309               0.999999987               0.000214076               0.000833443               0.999999987               0.000217620               0.000867948               0.999999987               0.000219447               0.000900876               0.999999987               0.000219723               0.000932421               0.999999987               0.000218686               0.000962826               0.999999987               0.000216904               0.000992317               0.999999987               0.000214819               0.001021260               0.999999987               0.000185643               0.000724556               0.999999987               0.000127361               0.000657765               0.999999987               0.000113822               0.000640476               0.999999987               0.000116335               0.000648405               0.999999987               0.000125144               0.000669875               0.999999987               0.000136103               0.000698836               0.999999987               0.000147242               0.000731709               0.999999987               0.000157386               0.000766645               0.999999987               0.000166003               0.000802592               0.999999987               0.000173112               0.000838710               0.999999987               0.000178397               0.000874290               0.999999987               0.000181753               0.000908840               0.999999987               0.000183349               0.000942224               0.999999987               0.000183143               0.000974518               0.999999987               0.000181374               0.001005868               0.999999987               0.000178288               0.001036396               0.999999987               0.000174597               0.001066325               0.999999987               0.000162689               0.000781220               0.999999987               0.000103014               0.000726618               0.999999987               0.000086676               0.000708753               0.999999987               0.000086905               0.000712539               0.999999987               0.000093993               0.000729439               0.999999987               0.000103695               0.000754229               0.999999987               0.000113850               0.000783649               0.999999987               0.000123255               0.000815794               0.999999987               0.000131270               0.000849503               0.999999987               0.000137797               0.000883928               0.999999987               0.000142749               0.000918443               0.999999987               0.000145780               0.000952563               0.999999987               0.000146976               0.000985884               0.999999987               0.000146268               0.001018488               0.999999987               0.000143578               0.001050397               0.999999987               0.000139106               0.001081730               0.999999987               0.000133448               0.001112686               0.999999987               0.000138162               0.000830724               0.999999987               0.000081140               0.000790686               0.999999987               0.000063099               0.000775254               0.999999987               0.000060953               0.000777112               0.999999987               0.000065921               0.000790797               0.999999987               0.000073931               0.000812251               0.999999987               0.000082694               0.000838717               0.999999987               0.000091024               0.000868448               0.999999987               0.000098257               0.000900218               0.999999987               0.000103990               0.000933093               0.999999987               0.000108230               0.000966510               0.999999987               0.000110864               0.000999897               0.999999987               0.000111477               0.001032943               0.999999987               0.000109914               0.001065607               0.999999987               0.000106190               0.001097854               0.999999987               0.000100156               0.001129712               0.999999987               0.000091975               0.001161419               0.999999987               0.000112205               0.000872287               0.999999987               0.000061684               0.000847501               0.999999987               0.000043585               0.000836747               0.999999987               0.000039612               0.000838836               0.999999987               0.000042378               0.000850840               0.999999987               0.000048282               0.000870118               0.999999987               0.000055381               0.000894457               0.999999987               0.000062308               0.000922312               0.999999987               0.000068410               0.000952630               0.999999987               0.000073343               0.000984450               0.999999987               0.000076901               0.001016999               0.999999987               0.000078931               0.001049888               0.999999987               0.000078949               0.001082821               0.999999987               0.000076620               0.001115563               0.999999987               0.000071666               0.001148218               0.999999987               0.000063902               0.001180745               0.999999987               0.000052884               0.001213249               0.999999987               0.000085089               0.000905178               0.999999987               0.000044381               0.000894515               0.999999987               0.000028205               0.000889598               0.999999987               0.000023462               0.000893466               0.999999987               0.000024355               0.000905262               0.999999987               0.000028246               0.000923520               0.999999987               0.000033446               0.000946663               0.999999987               0.000038721               0.000973411               0.999999987               0.000043517               0.001002760               0.999999987               0.000047566               0.001033986               0.999999987               0.000050435               0.001066339               0.999999987               0.000051812               0.001099343               0.999999987               0.000051348               0.001132677               0.999999987               0.000048618               0.001166114               0.999999987               0.000043063               0.001199559               0.999999987               0.000034032               0.001232964               0.999999987               0.000020723               0.001266405               0.999999987               0.000057133               0.000928908               0.999999987               0.000028754               0.000929558               0.999999987               0.000016553               0.000930231               0.999999987               0.000012290               0.000936531               0.999999987               0.000012151               0.000948992               0.999999987               0.000014304               0.000967044               0.999999987               0.000017572               0.000989697               0.999999987               0.000021217               0.001016022               0.999999987               0.000024529               0.001045145               0.999999987               0.000027388               0.001076357               0.999999987               0.000029393               0.001109100               0.999999987               0.000030229               0.001142875               0.999999987               0.000029592               0.001177347               0.999999987               0.000027142               0.001212262               0.999999987               0.000022153               0.001247341               0.999999987               0.000013683               0.001282347               0.999999987               0.000000415               0.001317184               0.999999987               0.000028685               0.000943113               0.999999987               0.000014173               0.000951084               0.999999987               0.000007594               0.000955832               0.999999987               0.000005042               0.000964127               0.999999987               0.000004712               0.000977396               0.999999987               0.000005567               0.000995548               0.999999987               0.000007165               0.001018086               0.999999987               0.000009025               0.001044324               0.999999987               0.000010774               0.001073520               0.999999987               0.000012200               0.001105085               0.999999987               0.000013256               0.001138488               0.999999987               0.000013633               0.001173280               0.999999987               0.000013259               0.001209115               0.999999987               0.000011744               0.001245664               0.999999987               0.000008719               0.001282613               0.999999987               0.000003464               0.001319545               0.999999987              -0.000005045               0.001356021               0.999999987               0.000000000               0.000947824               0.999999987              -0.000000000               0.000958334               0.999999987              -0.000000000               0.000964558               0.999999987               0.000000000               0.000973569               0.999999987               0.000000000               0.000987215               0.999999987              -0.000000000               0.001005477               0.999999987              -0.000000000               0.001027932               0.999999987              -0.000000000               0.001054116               0.999999987               0.000000000               0.001083440               0.999999987              -0.000000000               0.001115176               0.999999987              -0.000000000               0.001148845               0.999999987              -0.000000000               0.001184063               0.999999987              -0.000000000               0.001220567               0.999999987              -0.000000000               0.001257922               0.999999987              -0.000000000               0.001295740               0.999999987              -0.000000000               0.001333603               0.999999987              -0.000000000               0.001370838               0.999999987 </DataArray>
<DataArray type="Float64"                                    Name="stress"                                                      NumberOfComponents="10" format="ascii">
              0.001522488               0.017066671              -0.000000000              -0.001562397               0.006209632               0.004647235               0.000000000               0.000000000               0.000000000               0.000000000               0.001581458               0.013666892              -0.000000000              -0.001115312               0.004927356               0.003812044               0.000000000               0.000000000               0.000000000               0.000000000               0.002141310               0.010917882               0.000000000              -0.000561743               0.003826505               0.003264762               0.000000000               0.000000000               0.000000000               0.000000000               0.002134878               0.009385022               0.000000000              -0.000372547               0.003252492               0.002879945               0.000000000               0.000000000               0.000000000               0.000000000               0.001927760               0.008450523              -0.000000000              -0.000333405               0.002927948               0.002594543               0.000000000               0.000000000               0.000000000               0.000000000               0.001652735               0.007848636               0.000000000              -0.000361303               0.002736620               0.002375317               0.000000000               0.000000000               0.000000000               0.000000000               0.001375649               0.007440898              -0.000000000              -0.000414243               0.002618355               0.002204113               0.000000000               0.000000000               0.000000000               0.000000000               0.001125669               0.007140044              -0.000000000              -0.000470379               0.002536784               0.002066405               0.000000000               0.000000000               0.000000000               0.000000000               0.000909078               0.006899923              -0.000000000              -0.000521585               0.002473813               0.001952228               0.000000000               0.000000000               0.000000000               0.000000000               0.000722852               0.006694932              -0.000000000              -0.000565796               0.002420220               0.001854425               0.000000000               0.000000000               0.000000000               0.000000000               0.000560238               0.006502497               0.000000000              -0.000602721               0.002368384               0.001765663               0.000000000               0.000000000               0.000000000               0.000000000               0.000412341               0.006313289               0.000000000              -0.000634532               0.002315919               0.001681387               0.000000000               0.000000000               0.000000000               0.000000000               0.000279583               0.006127826               0.000000000              -0.000661133               0.002262966               0.001601833               0.000000000               0.000000000               0.000000000               0.000000000               0.000172528               0.005938711               0.000000000              -0.000677639               0.002205430               0.001527791               0.000000000               0.000000000               0.000000000               0.000000000               0.000092735               0.005728070               0.000000000              -0.000681231               0.002136415               0.001455183               0.000000000               0.000000000               0.000000000               0.000000000               0.000039482               0.005480305               0.000000000              -0.000670231               0.002050161               0.001379930               0.000000000               0.000000000               0.000000000               0.000000000              -0.000001308               0.005284161               0.000000000              -0.000661009               0.001981706               0.001320697               0.000000000               0.000000000               0.000000000               0.000000000               0.001590772               0.016738107              -0.001212599              -0.001495720               0.006077886               0.004582166               0.000000000               0.000000000               0.000000000               0.000000000               0.001573034               0.013447497              -0.000679283              -0.001091047               0.004846136               0.003755090               0.000000000               0.000000000               0.000000000               0.000000000               0.002050166               0.010814289              -0.000141186              -0.000582973               0.003799051               0.003216078               0.000000000               0.000000000               0.000000000               0.000000000               0.002008460               0.009343035               0.000094142              -0.000414706               0.003252549               0.002837843               0.000000000               0.000000000               0.000000000               0.000000000               0.001791902               0.008443012               0.000199957              -0.000383412               0.002942113               0.002558701               0.000000000               0.000000000               0.000000000               0.000000000               0.001523850               0.007857947               0.000248474              -0.000410799               0.002756222               0.002345424               0.000000000               0.000000000               0.000000000               0.000000000               0.001258658               0.007454049               0.000263861              -0.000459758               0.002637911               0.002178153               0.000000000               0.000000000               0.000000000               0.000000000               0.001020341               0.007152496               0.000260496              -0.000511433               0.002554619               0.002043186               0.000000000               0.000000000               0.000000000               0.000000000               0.000815088               0.006909409               0.000250864              -0.000558017               0.002489119               0.001931102               0.000000000               0.000000000               0.000000000               0.000000000               0.000638549               0.006700098               0.000236799              -0.000598055               0.002432695               0.001834640               0.000000000               0.000000000               0.000000000               0.000000000               0.000485202               0.006509764               0.000219900              -0.000631768               0.002380489               0.001748721               0.000000000               0.000000000               0.000000000               0.000000000               0.000349629               0.006328927               0.000204982              -0.000660003               0.002329622               0.001669619               0.000000000               0.000000000               0.000000000               0.000000000               0.000234097               0.006150017               0.000189513              -0.000680964               0.002276973               0.001596009               0.000000000               0.000000000               0.000000000               0.000000000               0.000145389               0.005966221               0.000165433              -0.000691255               0.002219139               0.001527884               0.000000000               0.000000000               0.000000000               0.000000000               0.000077320               0.005767255               0.000129775              -0.000691910               0.002153036               0.001461126               0.000000000               0.000000000               0.000000000               0.000000000               0.000029724               0.005545235               0.000076368              -0.000682006               0.002075729               0.001393722               0.000000000               0.000000000               0.000000000               0.000000000              -0.000004884               0.005378244               0.000046951              -0.000674110               0.002017433               0.001343323               0.000000000               0.000000000               0.000000000               0.000000000               0.001776092               0.015800119              -0.002278391              -0.001308978               0.005702980               0.004394001               0.000000000               0.000000000               0.000000000               0.000000000               0.001544852               0.012824181              -0.001280696              -0.001023701               0.004615918               0.003592217               0.000000000               0.000000000               0.000000000               0.000000000               0.001789394               0.010518311              -0.000282391              -0.000643765               0.003720657               0.003076892               0.000000000               0.000000000               0.000000000               0.000000000               0.001655008               0.009217228               0.000143159              -0.000531524               0.003249553               0.002718029               0.000000000               0.000000000               0.000000000               0.000000000               0.001420101               0.008410565               0.000330953              -0.000518782               0.002976421               0.002457639               0.000000000               0.000000000               0.000000000               0.000000000               0.001169504               0.007869441               0.000413011              -0.000545115               0.002804826               0.002259711               0.000000000               0.000000000               0.000000000               0.000000000               0.000935790               0.007479360               0.000437242              -0.000583997               0.002687761               0.002103763               0.000000000               0.000000000               0.000000000               0.000000000               0.000734644               0.007178355               0.000429955              -0.000621801               0.002600028               0.001978227               0.000000000               0.000000000               0.000000000               0.000000000               0.000564235               0.006929196               0.000410901              -0.000654560               0.002527895               0.001873336               0.000000000               0.000000000               0.000000000               0.000000000               0.000422318               0.006716326               0.000387356              -0.000681170               0.002465810               0.001784640               0.000000000               0.000000000               0.000000000               0.000000000               0.000304224               0.006531212               0.000361033              -0.000702316               0.002411154               0.001708838               0.000000000               0.000000000               0.000000000               0.000000000               0.000200654               0.006359236               0.000331832              -0.000719657               0.002359610               0.001639953               0.000000000               0.000000000               0.000000000               0.000000000               0.000116834               0.006186959               0.000296732              -0.000729556               0.002305484               0.001575929               0.000000000               0.000000000               0.000000000               0.000000000               0.000059908               0.006014810               0.000250801              -0.000729384               0.002248045               0.001518661               0.000000000               0.000000000               0.000000000               0.000000000               0.000024671               0.005843753               0.000190787              -0.000721216               0.002188303               0.001467088               0.000000000               0.000000000               0.000000000               0.000000000               0.000007260               0.005675113               0.000108772              -0.000706665               0.002127240               0.001420575               0.000000000               0.000000000               0.000000000               0.000000000              -0.000008633               0.005562009               0.000065164              -0.000698487               0.002086814               0.001388327               0.000000000               0.000000000               0.000000000               0.000000000               0.002009085               0.014377633              -0.003075276              -0.001043797               0.005140428               0.004096632               0.000000000               0.000000000               0.000000000               0.000000000               0.001471796               0.011887730              -0.001742898              -0.000934041               0.004273884               0.003339843               0.000000000               0.000000000               0.000000000               0.000000000               0.001388419               0.010075937              -0.000424037              -0.000738833               0.003604890               0.002866057               0.000000000               0.000000000               0.000000000               0.000000000               0.001146382               0.009021164               0.000117847              -0.000697750               0.003239608               0.002541858               0.000000000               0.000000000               0.000000000               0.000000000               0.000899197               0.008337728               0.000349333              -0.000705015               0.003014220               0.002309205               0.000000000               0.000000000               0.000000000               0.000000000               0.000681315               0.007854295               0.000447799              -0.000726292               0.002860169               0.002133877               0.000000000               0.000000000               0.000000000               0.000000000               0.000501349               0.007485636               0.000478233              -0.000747697               0.002744419               0.001996723               0.000000000               0.000000000               0.000000000               0.000000000               0.000356521               0.007186723               0.000469665              -0.000764643               0.002650431               0.001885788               0.000000000               0.000000000               0.000000000               0.000000000               0.000239677               0.006935793               0.000447400              -0.000777093               0.002570939               0.001793846               0.000000000               0.000000000               0.000000000               0.000000000               0.000146021               0.006723800               0.000421642              -0.000785715               0.002503149               0.001717434               0.000000000               0.000000000               0.000000000               0.000000000               0.000072336               0.006537253               0.000391797              -0.000790029               0.002442405               0.001652377               0.000000000               0.000000000               0.000000000               0.000000000               0.000014032               0.006362108               0.000354290              -0.000790000               0.002384015               0.001594015               0.000000000               0.000000000               0.000000000               0.000000000              -0.000026282               0.006194961               0.000309226              -0.000784224               0.002326374               0.001542150               0.000000000               0.000000000               0.000000000               0.000000000              -0.000045295               0.006040238               0.000256046              -0.000772014               0.002270730               0.001498717               0.000000000               0.000000000               0.000000000               0.000000000              -0.000046225               0.005901928               0.000190181              -0.000755073               0.002218981               0.001463907               0.000000000               0.000000000               0.000000000               0.000000000              -0.000028783               0.005784733               0.000105754              -0.000733884               0.002172853               0.001438969               0.000000000               0.000000000               0.000000000               0.000000000              -0.000022814               0.005716158               0.000061928              -0.000723073               0.002146391               0.001423318               0.000000000               0.000000000               0.000000000               0.000000000               0.002188590               0.012637696              -0.003540237              -0.000758992               0.004465520               0.003706528               0.000000000               0.000000000               0.000000000               0.000000000               0.001325722               0.010759472              -0.002040342              -0.000847787               0.003869050               0.003021263               0.000000000               0.000000000               0.000000000               0.000000000               0.000895093               0.009545107              -0.000571427              -0.000857476               0.003467496               0.002610019               0.000000000               0.000000000               0.000000000               0.000000000               0.000566431               0.008764543               0.000006017              -0.000883154               0.003215870               0.002332716               0.000000000               0.000000000               0.000000000               0.000000000               0.000334723               0.008209990               0.000247097              -0.000900726               0.003036878               0.002136152               0.000000000               0.000000000               0.000000000               0.000000000               0.000175372               0.007786372               0.000350677              -0.000907530               0.002897941               0.001990412               0.000000000               0.000000000               0.000000000               0.000000000               0.000063190               0.007436125               0.000385486              -0.000905817               0.002780622               0.001874805               0.000000000               0.000000000               0.000000000               0.000000000              -0.000014375               0.007140961               0.000382358              -0.000898009               0.002679633               0.001781624               0.000000000               0.000000000               0.000000000               0.000000000              -0.000069693               0.006891682               0.000368194              -0.000887593               0.002593069               0.001705476               0.000000000               0.000000000               0.000000000               0.000000000              -0.000106661               0.006677211               0.000351013              -0.000874647               0.002517264               0.001642616               0.000000000               0.000000000               0.000000000               0.000000000              -0.000125592               0.006483969               0.000327021              -0.000857591               0.002447165               0.001589574               0.000000000               0.000000000               0.000000000               0.000000000              -0.000132447               0.006304637               0.000295001              -0.000837745               0.002380773               0.001543028               0.000000000               0.000000000               0.000000000               0.000000000              -0.000127442               0.006144466               0.000256299              -0.000815847               0.002320084               0.001504237               0.000000000               0.000000000               0.000000000               0.000000000              -0.000109233               0.006007647               0.000211264              -0.000791916               0.002266501               0.001474585               0.000000000               0.000000000               0.000000000               0.000000000              -0.000079918               0.005897794               0.000154682              -0.000767192               0.002221642               0.001454451               0.000000000               0.000000000               0.000000000               0.000000000              -0.000043202               0.005816802               0.000083217              -0.000743299               0.002186681               0.001443382               0.000000000               0.000000000               0.000000000               0.000000000              -0.000026700               0.005778762               0.000046040              -0.000732356               0.002170354               0.001437997               0.000000000               0.000000000               0.000000000               0.000000000               0.002221431               0.010748512              -0.003673650              -0.000510530               0.003752977               0.003242447               0.000000000               0.000000000               0.000000000               0.000000000               0.001088107               0.009559449              -0.002185943              -0.000786891               0.003448747               0.002661857               0.000000000               0.000000000               0.000000000               0.000000000               0.000362857               0.008974066              -0.000739010              -0.000985685               0.003319887               0.002334202               0.000000000               0.000000000               0.000000000               0.000000000               0.000004116               0.008451916              -0.000188687              -0.001054944               0.003168925               0.002113982               0.000000000               0.000000000               0.000000000               0.000000000              -0.000174889               0.008014469               0.000042536              -0.001067389               0.003027260               0.001959870               0.000000000               0.000000000               0.000000000               0.000000000              -0.000258917               0.007639519               0.000146935              -0.001052031               0.002897158               0.001845127               0.000000000               0.000000000               0.000000000               0.000000000              -0.000295650               0.007309443               0.000191784              -0.001024547               0.002777972               0.001753425               0.000000000               0.000000000               0.000000000               0.000000000              -0.000301845               0.007022639               0.000207361              -0.000991019               0.002671196               0.001680177               0.000000000               0.000000000               0.000000000               0.000000000              -0.000292465               0.006773593               0.000213108              -0.000956371               0.002576632               0.001620261               0.000000000               0.000000000               0.000000000               0.000000000              -0.000274081               0.006551562               0.000213961              -0.000921723               0.002491073               0.001569350               0.000000000               0.000000000               0.000000000               0.000000000              -0.000241192               0.006351421               0.000204208              -0.000884372               0.002411910               0.001527538               0.000000000               0.000000000               0.000000000               0.000000000              -0.000201347               0.006171565               0.000186201              -0.000846949               0.002339484               0.001492535               0.000000000               0.000000000               0.000000000               0.000000000              -0.000158657               0.006015489               0.000161915              -0.000811430               0.002275620               0.001464189               0.000000000               0.000000000               0.000000000               0.000000000              -0.000114088               0.005885272               0.000130635              -0.000778440               0.002221218               0.001442778               0.000000000               0.000000000               0.000000000               0.000000000              -0.000072152               0.005779534               0.000088490              -0.000749497               0.002176325               0.001426827               0.000000000               0.000000000               0.000000000               0.000000000              -0.000033873               0.005703604               0.000041340              -0.000725651               0.002143066               0.001417415               0.000000000               0.000000000               0.000000000               0.000000000              -0.000018524               0.005668953               0.000020956              -0.000715564               0.002128154               0.001412590               0.000000000               0.000000000               0.000000000               0.000000000               0.002061621               0.008857342              -0.003520917              -0.000334063               0.003063771               0.002729708               0.000000000               0.000000000               0.000000000               0.000000000               0.000775281               0.008380055              -0.002216042              -0.000756776               0.003045582               0.002288805               0.000000000               0.000000000               0.000000000               0.000000000              -0.000145537               0.008384267              -0.000938294              -0.001102607               0.003162263               0.002059656               0.000000000               0.000000000               0.000000000               0.000000000              -0.000469578               0.008081248              -0.000449563              -0.001186245               0.003089137               0.001902893               0.000000000               0.000000000               0.000000000               0.000000000              -0.000565126               0.007739993              -0.000229207              -0.001179418               0.002973111               0.001793693               0.000000000               0.000000000               0.000000000               0.000000000              -0.000564770               0.007411901              -0.000111782              -0.001138274               0.002850033               0.001711760               0.000000000               0.000000000               0.000000000               0.000000000              -0.000525967               0.007108578              -0.000041877              -0.001085807               0.002731438               0.001645631               0.000000000               0.000000000               0.000000000               0.000000000              -0.000475906               0.006829848               0.000002683              -0.001032193               0.002620658               0.001588465               0.000000000               0.000000000               0.000000000               0.000000000              -0.000415718               0.006583129               0.000034946              -0.000978783               0.002520615               0.001541832               0.000000000               0.000000000               0.000000000               0.000000000              -0.000351283               0.006361617               0.000057391              -0.000926931               0.002429495               0.001502564               0.000000000               0.000000000               0.000000000               0.000000000              -0.000279488               0.006160255               0.000066171              -0.000874838               0.002345010               0.001470173               0.000000000               0.000000000               0.000000000               0.000000000              -0.000208192               0.005978636               0.000064993              -0.000825400               0.002267992               0.001442593               0.000000000               0.000000000               0.000000000               0.000000000              -0.000149001               0.005816542               0.000057606              -0.000782941               0.002199808               0.001416867               0.000000000               0.000000000               0.000000000               0.000000000              -0.000099181               0.005677050               0.000043449              -0.000746822               0.002141272               0.001394450               0.000000000               0.000000000               0.000000000               0.000000000              -0.000054801               0.005561890               0.000023590              -0.000715785               0.002092540               0.001376755               0.000000000               0.000000000               0.000000000               0.000000000              -0.000021107               0.005473017               0.000007056              -0.000692040               0.002055001               0.001362961               0.000000000               0.000000000               0.000000000               0.000000000              -0.000015347               0.005422590               0.000005543              -0.000683577               0.002035371               0.001351794               0.000000000               0.000000000               0.000000000               0.000000000               0.001723366               0.007077755              -0.003148486              -0.000238460               0.002438714               0.002200253               0.000000000               0.000000000               0.000000000               0.000000000               0.000417467               0.007278954              -0.002169655              -0.000753319               0.002677400               0.001924080               0.000000000               0.000000000               0.000000000               0.000000000              -0.000567292               0.007775587              -0.001170238              -0.001184680               0.002986730               0.001802049               0.000000000               0.000000000               0.000000000               0.000000000              -0.000804199               0.007652273              -0.000744127              -0.001258106               0.002970101               0.001711995               0.000000000               0.000000000               0.000000000               0.000000000              -0.000803487               0.007400293              -0.000514197              -0.001226341               0.002875520               0.001649179               0.000000000               0.000000000               0.000000000               0.000000000              -0.000724858               0.007121824              -0.000366721              -0.001162047               0.002761266               0.001599220               0.000000000               0.000000000               0.000000000               0.000000000              -0.000629002               0.006843322              -0.000264656              -0.001091288               0.002644847               0.001553559               0.000000000               0.000000000               0.000000000               0.000000000              -0.000537107               0.006579119              -0.000188636              -0.001023802               0.002534285               0.001510483               0.000000000               0.000000000               0.000000000               0.000000000              -0.000443548               0.006343320              -0.000127059              -0.000959243               0.002434167               0.001474923               0.000000000               0.000000000               0.000000000               0.000000000              -0.000350203               0.006126697              -0.000081729              -0.000897161               0.002341266               0.001444105               0.000000000               0.000000000               0.000000000               0.000000000              -0.000264156               0.005922189              -0.000053663              -0.000839330               0.002253820               0.001414490               0.000000000               0.000000000               0.000000000               0.000000000              -0.000189658               0.005734543              -0.000037105              -0.000787938               0.002174141               0.001386204               0.000000000               0.000000000               0.000000000               0.000000000              -0.000128036               0.005567666              -0.000024951              -0.000743970               0.002103860               0.001359890               0.000000000               0.000000000               0.000000000               0.000000000              -0.000077477               0.005424313              -0.000016072              -0.000707091               0.002043783               0.001336692               0.000000000               0.000000000               0.000000000               0.000000000              -0.000038475               0.005306834              -0.000011668              -0.000677781               0.001994854               0.001317073               0.000000000               0.000000000               0.000000000               0.000000000              -0.000014260               0.005212106              -0.000006529              -0.000656859               0.001956304               0.001299445               0.000000000               0.000000000               0.000000000               0.000000000              -0.000014437               0.005155644               0.000002059              -0.000649868               0.001935153               0.001285286               0.000000000               0.000000000               0.000000000               0.000000000               0.001282074               0.005543391              -0.002644774              -0.000212149               0.001918494               0.001706345               0.000000000               0.000000000               0.000000000               0.000000000               0.000085410               0.006283920              -0.002091540              -0.000753461               0.002345772               0.001592311               0.000000000               0.000000000               0.000000000               0.000000000              -0.000859247               0.007182915              -0.001440279              -0.001220080               0.002800974               0.001580895               0.000000000               0.000000000               0.000000000               0.000000000              -0.000996479               0.007248960              -0.001055443              -0.001279797               0.002842895               0.001563098               0.000000000               0.000000000               0.000000000               0.000000000              -0.000922129               0.007098509              -0.000800640              -0.001233109               0.002777182               0.001544073               0.000000000               0.000000000               0.000000000               0.000000000              -0.000787399               0.006874434              -0.000619069              -0.001154576               0.002676314               0.001521738               0.000000000               0.000000000               0.000000000               0.000000000              -0.000649150               0.006626092              -0.000483165              -0.001071690               0.002565905               0.001494215               0.000000000               0.000000000               0.000000000               0.000000000              -0.000524645               0.006388725              -0.000375169              -0.000995330               0.002461330               0.001466000               0.000000000               0.000000000               0.000000000               0.000000000              -0.000412728               0.006169508              -0.000285472              -0.000925959               0.002365135               0.001439176               0.000000000               0.000000000               0.000000000               0.000000000              -0.000309886               0.005953445              -0.000216642              -0.000860386               0.002271257               0.001410871               0.000000000               0.000000000               0.000000000               0.000000000              -0.000223483               0.005742628              -0.000166430              -0.000801632               0.002181401               0.001379768               0.000000000               0.000000000               0.000000000               0.000000000              -0.000154573               0.005549868              -0.000126867              -0.000751696               0.002100503               0.001348807               0.000000000               0.000000000               0.000000000               0.000000000              -0.000099554               0.005382571              -0.000091664              -0.000710152               0.002030890               0.001320738               0.000000000               0.000000000               0.000000000               0.000000000              -0.000058891               0.005241723              -0.000059165              -0.000677298               0.001972990               0.001295692               0.000000000               0.000000000               0.000000000               0.000000000              -0.000038221               0.005124635              -0.000033081              -0.000654911               0.001926498               0.001271588               0.000000000               0.000000000               0.000000000               0.000000000              -0.000038656               0.005029580              -0.000014365              -0.000643192               0.001890907               0.001247715               0.000000000               0.000000000               0.000000000               0.000000000              -0.000045693               0.004980214              -0.000004031              -0.000639660               0.001873275               0.001233615               0.000000000               0.000000000               0.000000000               0.000000000               0.000722372               0.004092478              -0.002092041              -0.000240672               0.001444369               0.001203697               0.000000000               0.000000000               0.000000000               0.000000000              -0.000167762               0.005135349              -0.001994641              -0.000704829               0.001946708               0.001241879               0.000000000               0.000000000               0.000000000               0.000000000              -0.000974594               0.006326725              -0.001732980              -0.001156311               0.002494324               0.001338013               0.000000000               0.000000000               0.000000000               0.000000000              -0.001067278               0.006643360              -0.001401570              -0.001230647               0.002624647               0.001394000               0.000000000               0.000000000               0.000000000               0.000000000              -0.000969381               0.006656955              -0.001127747              -0.001195635               0.002617508               0.001421873               0.000000000               0.000000000               0.000000000               0.000000000              -0.000820775               0.006542837              -0.000913853              -0.001125643               0.002556138               0.001430495               0.000000000               0.000000000               0.000000000               0.000000000              -0.000669046               0.006376140              -0.000742370              -0.001047907               0.002474661               0.001426754               0.000000000               0.000000000               0.000000000               0.000000000              -0.000530027               0.006204790              -0.000598941              -0.000974356               0.002393028               0.001418672               0.000000000               0.000000000               0.000000000               0.000000000              -0.000413467               0.006031322              -0.000480544              -0.000908963               0.002313408               0.001404445               0.000000000               0.000000000               0.000000000               0.000000000              -0.000314716               0.005847927              -0.000384447              -0.000849007               0.002232292               0.001383284               0.000000000               0.000000000               0.000000000               0.000000000              -0.000230620               0.005660851              -0.000303850              -0.000794087               0.002151627               0.001357540               0.000000000               0.000000000               0.000000000               0.000000000              -0.000166617               0.005479555              -0.000235498              -0.000747424               0.002075641               0.001328218               0.000000000               0.000000000               0.000000000               0.000000000              -0.000118338               0.005317035              -0.000173647              -0.000709004               0.002008662               0.001299658               0.000000000               0.000000000               0.000000000               0.000000000              -0.000085146               0.005180088              -0.000115029              -0.000679439               0.001953158               0.001273719               0.000000000               0.000000000               0.000000000               0.000000000              -0.000072825               0.005062812              -0.000061861              -0.000660159               0.001907640               0.001247481               0.000000000               0.000000000               0.000000000               0.000000000              -0.000082782               0.004966076              -0.000021237              -0.000651801               0.001872609               0.001220808               0.000000000               0.000000000               0.000000000               0.000000000              -0.000095026               0.004920994              -0.000004329              -0.000650757               0.001857234               0.001206477               0.000000000               0.000000000               0.000000000               0.000000000              -0.000049000               0.002765240              -0.001514866              -0.000364030               0.001043080               0.000679050               0.000000000               0.000000000               0.000000000               0.000000000              -0.000460880               0.003991426              -0.001835376              -0.000671758               0.001554380               0.000882623               0.000000000               0.000000000               0.000000000               0.000000000              -0.001008617               0.005355493              -0.001958548              -0.001047667               0.002134368               0.001086702               0.000000000               0.000000000               0.000000000               0.000000000              -0.001060642               0.005904106              -0.001730235              -0.001135752               0.002346599               0.001210847               0.000000000               0.000000000               0.000000000               0.000000000              -0.000958708               0.006106343              -0.001467970              -0.001122806               0.002409696               0.001286890               0.000000000               0.000000000               0.000000000               0.000000000              -0.000813467               0.006135323              -0.001234952              -0.001071963               0.002402408               0.001330445               0.000000000               0.000000000               0.000000000               0.000000000              -0.000665100               0.006081259              -0.001035552              -0.001009568               0.002363589               0.001354021               0.000000000               0.000000000               0.000000000               0.000000000              -0.000523296               0.005994310              -0.000864802              -0.000945523               0.002313257               0.001367735               0.000000000               0.000000000               0.000000000               0.000000000              -0.000400069               0.005884138              -0.000720402              -0.000885541               0.002256540               0.001370999               0.000000000               0.000000000               0.000000000               0.000000000              -0.000304311               0.005751373              -0.000598057              -0.000833036               0.002194784               0.001361748               0.000000000               0.000000000               0.000000000               0.000000000              -0.000224887               0.005605126              -0.000490375              -0.000784971               0.002130014               0.001345042               0.000000000               0.000000000               0.000000000               0.000000000              -0.000160859               0.005448631              -0.000393849              -0.000741399               0.002063325               0.001321926               0.000000000               0.000000000               0.000000000               0.000000000              -0.000115750               0.005299605              -0.000303827              -0.000705855               0.002001802               0.001295947               0.000000000               0.000000000               0.000000000               0.000000000              -0.000087001               0.005171063              -0.000215457              -0.000679006               0.001950006               0.001271000               0.000000000               0.000000000               0.000000000               0.000000000              -0.000078444               0.005058347              -0.000129844              -0.000661708               0.001906668               0.001244960               0.000000000               0.000000000               0.000000000               0.000000000              -0.000093526               0.004966346              -0.000055247              -0.000655864               0.001874054               0.001218190               0.000000000               0.000000000               0.000000000               0.000000000              -0.000115821               0.004920838              -0.000019272              -0.000658536               0.001859775               0.001201239               0.000000000               0.000000000               0.000000000               0.000000000              -0.000985536               0.001648763              -0.000946694              -0.000575671               0.000741472               0.000165801               0.000000000               0.000000000               0.000000000               0.000000000              -0.000840610               0.002909516              -0.001587182              -0.000678918               0.001196134               0.000517216               0.000000000               0.000000000               0.000000000               0.000000000              -0.001004848               0.004274630              -0.002029470              -0.000911146               0.001728577               0.000817431               0.000000000               0.000000000               0.000000000               0.000000000              -0.000962534               0.004990171              -0.001935647              -0.000984720               0.001991613               0.001006893               0.000000000               0.000000000               0.000000000               0.000000000              -0.000852750               0.005367918              -0.001719975              -0.000990769               0.002119544               0.001128775               0.000000000               0.000000000               0.000000000               0.000000000              -0.000721364               0.005551096              -0.001494491              -0.000964397               0.002171812               0.001207415               0.000000000               0.000000000               0.000000000               0.000000000              -0.000583698               0.005627040              -0.001287164              -0.000922265               0.002183083               0.001260818               0.000000000               0.000000000               0.000000000               0.000000000              -0.000451419               0.005643401              -0.001103795              -0.000874705               0.002172683               0.001297978               0.000000000               0.000000000               0.000000000               0.000000000              -0.000332272               0.005615540              -0.000944159              -0.000826543               0.002147342               0.001320799               0.000000000               0.000000000               0.000000000               0.000000000              -0.000233490               0.005551748              -0.000806290              -0.000781525               0.002111072               0.001329547               0.000000000               0.000000000               0.000000000               0.000000000              -0.000154811               0.005459022              -0.000684788              -0.000740430               0.002066466               0.001326036               0.000000000               0.000000000               0.000000000               0.000000000              -0.000090228               0.005347283              -0.000569661              -0.000702244               0.002016491               0.001314247               0.000000000               0.000000000               0.000000000               0.000000000              -0.000042980               0.005235481              -0.000454711              -0.000670551               0.001968660               0.001298109               0.000000000               0.000000000               0.000000000               0.000000000              -0.000015740               0.005132640              -0.000340238              -0.000647481               0.001926690               0.001279209               0.000000000               0.000000000               0.000000000               0.000000000              -0.000010754               0.005039244              -0.000225283              -0.000633937               0.001891043               0.001257107               0.000000000               0.000000000               0.000000000               0.000000000              -0.000032684               0.004961813              -0.000109817              -0.000632482               0.001864748               0.001232267               0.000000000               0.000000000               0.000000000               0.000000000              -0.000065850               0.004919572              -0.000047878              -0.000639639               0.001853054               0.001213415               0.000000000               0.000000000               0.000000000               0.000000000              -0.002011749               0.000793612              -0.000455129              -0.000853606               0.000549069              -0.000304537               0.000000000               0.000000000               0.000000000               0.000000000              -0.001277640               0.001939204              -0.001273221              -0.000721515               0.000886899               0.000165384               0.000000000               0.000000000               0.000000000               0.000000000              -0.000982029               0.003167548              -0.001920908              -0.000764204               0.001310572               0.000546369               0.000000000               0.000000000               0.000000000               0.000000000              -0.000794581               0.003969204              -0.001954821              -0.000794118               0.001587760               0.000793642               0.000000000               0.000000000               0.000000000               0.000000000              -0.000655561               0.004486339              -0.001807217              -0.000806627               0.001764306               0.000957679               0.000000000               0.000000000               0.000000000               0.000000000              -0.000532592               0.004815538              -0.001617951              -0.000801663               0.001872384               0.001070721               0.000000000               0.000000000               0.000000000               0.000000000              -0.000412538               0.005020935              -0.001428007              -0.000782317               0.001934400               0.001152083               0.000000000               0.000000000               0.000000000               0.000000000              -0.000297522               0.005147921              -0.001250083              -0.000755060               0.001967643               0.001212583               0.000000000               0.000000000               0.000000000               0.000000000              -0.000189315               0.005215555              -0.001092657              -0.000722936               0.001979479               0.001256543               0.000000000               0.000000000               0.000000000               0.000000000              -0.000089912               0.005230739              -0.000955949              -0.000687558               0.001972748               0.001285190               0.000000000               0.000000000               0.000000000               0.000000000              -0.000006804               0.005206703              -0.000832972              -0.000653388               0.001953346               0.001299958               0.000000000               0.000000000               0.000000000               0.000000000               0.000061152               0.005161388              -0.000712868              -0.000622240               0.001927859               0.001305619               0.000000000               0.000000000               0.000000000               0.000000000               0.000117002               0.005103524              -0.000588884              -0.000594063               0.001899179               0.001305115               0.000000000               0.000000000               0.000000000               0.000000000               0.000159143               0.005046979              -0.000459480              -0.000571192               0.001872707               0.001301514               0.000000000               0.000000000               0.000000000               0.000000000               0.000178089               0.004994612              -0.000321503              -0.000557542               0.001850701               0.001293159               0.000000000               0.000000000               0.000000000               0.000000000               0.000163307               0.004944607              -0.000168468              -0.000556834               0.001833797               0.001276963               0.000000000               0.000000000               0.000000000               0.000000000               0.000131210               0.004912175              -0.000082600              -0.000564817               0.001825648               0.001260831               0.000000000               0.000000000               0.000000000               0.000000000              -0.003010867               0.000204136              -0.000105549              -0.001154591               0.000452906              -0.000701685               0.000000000               0.000000000               0.000000000               0.000000000              -0.001724724               0.001139230              -0.000928263              -0.000789174               0.000642796              -0.000146378               0.000000000               0.000000000               0.000000000               0.000000000              -0.000954861               0.002141145              -0.001627194              -0.000625715               0.000922279               0.000296563               0.000000000               0.000000000               0.000000000               0.000000000              -0.000591673               0.002952159              -0.001746606              -0.000590897               0.001181008               0.000590111               0.000000000               0.000000000               0.000000000               0.000000000              -0.000394943               0.003560493              -0.001670169              -0.000593165               0.001384540               0.000791375               0.000000000               0.000000000               0.000000000               0.000000000              -0.000267033               0.004005946              -0.001533592              -0.000600880               0.001535595               0.000934715               0.000000000               0.000000000               0.000000000               0.000000000              -0.000165748               0.004325793              -0.001380773              -0.000602879               0.001642876               0.001039997               0.000000000               0.000000000               0.000000000               0.000000000              -0.000069498               0.004556588              -0.001231807              -0.000595634               0.001717392               0.001121758               0.000000000               0.000000000               0.000000000               0.000000000               0.000021979               0.004719382              -0.001098156              -0.000581680               0.001767005               0.001185325               0.000000000               0.000000000               0.000000000               0.000000000               0.000110280               0.004824616              -0.000978844              -0.000561721               0.001795430               0.001233708               0.000000000               0.000000000               0.000000000               0.000000000               0.000191732               0.004883556              -0.000868019              -0.000538544               0.001807350               0.001268806               0.000000000               0.000000000               0.000000000               0.000000000               0.000266680               0.004913381              -0.000760039              -0.000514166               0.001809166               0.001294999               0.000000000               0.000000000               0.000000000               0.000000000               0.000340211               0.004924939              -0.000649053              -0.000488037               0.001804309               0.001316272               0.000000000               0.000000000               0.000000000               0.000000000               0.000413114               0.004928055              -0.000527643              -0.000461088               0.001796365               0.001335277               0.000000000               0.000000000               0.000000000               0.000000000               0.000474615               0.004923356              -0.000385107              -0.000437438               0.001786915               0.001349477               0.000000000               0.000000000               0.000000000               0.000000000               0.000509253               0.004911284              -0.000210100              -0.000422940               0.001778058               0.001355119               0.000000000               0.000000000               0.000000000               0.000000000               0.000512799               0.004899581              -0.000110998              -0.000420147               0.001773226               0.001353079               0.000000000               0.000000000               0.000000000               0.000000000              -0.003851083              -0.000150937               0.000069903              -0.001425288               0.000424781              -0.001000507               0.000000000               0.000000000               0.000000000               0.000000000              -0.002122715               0.000554178              -0.000589269              -0.000865289               0.000473152              -0.000392137               0.000000000               0.000000000               0.000000000               0.000000000              -0.000938368               0.001312628              -0.001174080              -0.000515966               0.000609526               0.000093560               0.000000000               0.000000000               0.000000000               0.000000000              -0.000400896               0.002081134              -0.001313888              -0.000410478               0.000830529               0.000420052               0.000000000               0.000000000               0.000000000               0.000000000              -0.000133511               0.002729836              -0.001288951              -0.000391296               0.001040368               0.000649072               0.000000000               0.000000000               0.000000000               0.000000000               0.000008940               0.003251134              -0.001204411              -0.000403039               0.001218046               0.000815007               0.000000000               0.000000000               0.000000000               0.000000000               0.000101360               0.003662256              -0.001102210              -0.000419772               0.001360664               0.000940892               0.000000000               0.000000000               0.000000000               0.000000000               0.000179339               0.003983521              -0.000997743              -0.000430688               0.001471389               0.001040702               0.000000000               0.000000000               0.000000000               0.000000000               0.000250785               0.004229969              -0.000901443              -0.000434701               0.001554876               0.001120174               0.000000000               0.000000000               0.000000000               0.000000000               0.000319909               0.004416587              -0.000815215              -0.000432107               0.001616216               0.001184110               0.000000000               0.000000000               0.000000000               0.000000000               0.000395184               0.004556064              -0.000733747              -0.000421313               0.001659111               0.001237797               0.000000000               0.000000000               0.000000000               0.000000000               0.000479469               0.004661650              -0.000655401              -0.000402905               0.001688169               0.001285265               0.000000000               0.000000000               0.000000000               0.000000000               0.000577894               0.004745644              -0.000576053              -0.000376495               0.001707364               0.001330869               0.000000000               0.000000000               0.000000000               0.000000000               0.000689846               0.004810066              -0.000484563              -0.000342565               0.001717528               0.001374963               0.000000000               0.000000000               0.000000000               0.000000000               0.000814146               0.004853609              -0.000366754              -0.000301396               0.001718319               0.001416923               0.000000000               0.000000000               0.000000000               0.000000000               0.000947170               0.004879868              -0.000206306              -0.000254794               0.001711538               0.001456744               0.000000000               0.000000000               0.000000000               0.000000000               0.001039257               0.004896627              -0.000115090              -0.000222357               0.001706311               0.001483955               0.000000000               0.000000000               0.000000000               0.000000000              -0.004411917              -0.000322053               0.000084929              -0.001614211               0.000430716              -0.001183495               0.000000000               0.000000000               0.000000000               0.000000000              -0.002406104               0.000207364              -0.000280163              -0.000928209               0.000378522              -0.000549687               0.000000000               0.000000000               0.000000000               0.000000000              -0.000939021               0.000776836              -0.000611906              -0.000449237               0.000408688              -0.000040549               0.000000000               0.000000000               0.000000000               0.000000000              -0.000266036               0.001492501              -0.000703550              -0.000286326               0.000592937               0.000306611               0.000000000               0.000000000               0.000000000               0.000000000               0.000059564               0.002150049              -0.000701545              -0.000246419               0.000798816               0.000552396               0.000000000               0.000000000               0.000000000               0.000000000               0.000222687               0.002711799              -0.000663188              -0.000255467               0.000989079               0.000733612               0.000000000               0.000000000               0.000000000               0.000000000               0.000311800               0.003180745              -0.000612728              -0.000280668               0.001153793               0.000873126               0.000000000               0.000000000               0.000000000               0.000000000               0.000370608               0.003562713              -0.000558490              -0.000306361               0.001289679               0.000983319               0.000000000               0.000000000               0.000000000               0.000000000               0.000424378               0.003869438              -0.000507573              -0.000324538               0.001397979               0.001073441               0.000000000               0.000000000               0.000000000               0.000000000               0.000481500               0.004115066              -0.000463061              -0.000333820               0.001482948               0.001149128               0.000000000               0.000000000               0.000000000               0.000000000               0.000551641               0.004312706              -0.000421371              -0.000332222               0.001548295               0.001216073               0.000000000               0.000000000               0.000000000               0.000000000               0.000642790               0.004475972              -0.000381905              -0.000318450               0.001598126               0.001279676               0.000000000               0.000000000               0.000000000               0.000000000               0.000759519               0.004612045              -0.000342043              -0.000291685               0.001634561               0.001342876               0.000000000               0.000000000               0.000000000               0.000000000               0.000906129               0.004722041              -0.000293671              -0.000250456               0.001657483               0.001407027               0.000000000               0.000000000               0.000000000               0.000000000               0.001092455               0.004805352              -0.000228187              -0.000190998               0.001665434               0.001474436               0.000000000               0.000000000               0.000000000               0.000000000               0.001331589               0.004859480              -0.000132117              -0.000108089               0.001655840               0.001547751               0.000000000               0.000000000               0.000000000               0.000000000               0.001528776               0.004900465              -0.000077888              -0.000039267               0.001646561               0.001607294               0.000000000               0.000000000               0.000000000               0.000000000              -0.004609646              -0.000368739              -0.000000000              -0.001682524               0.000437925              -0.001244599               0.000000000               0.000000000               0.000000000               0.000000000              -0.002511178               0.000093717              -0.000000000              -0.000953405               0.000349038              -0.000604367               0.000000000               0.000000000               0.000000000               0.000000000              -0.000943355               0.000590065               0.000000000              -0.000427516               0.000339191              -0.000088325               0.000000000               0.000000000               0.000000000               0.000000000              -0.000216680               0.001284582               0.000000000              -0.000241827               0.000508799               0.000266971               0.000000000               0.000000000               0.000000000               0.000000000               0.000132912               0.001944138              -0.000000000              -0.000193175               0.000712431               0.000519256               0.000000000               0.000000000               0.000000000               0.000000000               0.000305615               0.002515690              -0.000000000              -0.000199855               0.000905173               0.000705318               0.000000000               0.000000000               0.000000000               0.000000000               0.000391431               0.003001596              -0.000000000              -0.000228412               0.001076659               0.000848247               0.000000000               0.000000000               0.000000000               0.000000000               0.000443236               0.003408790               0.000000000              -0.000259885               0.001222880               0.000962995               0.000000000               0.000000000               0.000000000               0.000000000               0.000488997               0.003738422              -0.000000000              -0.000283928               0.001340771               0.001056843               0.000000000               0.000000000               0.000000000               0.000000000               0.000542122               0.004003235              -0.000000000              -0.000297108               0.001433434               0.001136326               0.000000000               0.000000000               0.000000000               0.000000000               0.000609700               0.004221235              -0.000000000              -0.000299016               0.001506736               0.001207720               0.000000000               0.000000000               0.000000000               0.000000000               0.000703912               0.004408450              -0.000000000              -0.000287089               0.001565165               0.001278076               0.000000000               0.000000000               0.000000000               0.000000000               0.000826984               0.004565722              -0.000000000              -0.000260596               0.001608757               0.001348161               0.000000000               0.000000000               0.000000000               0.000000000               0.000988449               0.004691936              -0.000000000              -0.000215823               0.001635904               0.001420081               0.000000000               0.000000000               0.000000000               0.000000000               0.001201695               0.004790135              -0.000000000              -0.000148131               0.001646073               0.001497942               0.000000000               0.000000000               0.000000000               0.000000000               0.001486819               0.004853335              -0.000000000              -0.000049110               0.001634132               0.001585022               0.000000000               0.000000000               0.000000000               0.000000000               0.001729911               0.004902006               0.000000000               0.000035965               0.001621997               0.001657963               0.000000000               0.000000000               0.000000000               0.000000000               0.000000000               0.000000000               0.000000000               0.000000000               0.000000000               0.000000000               0.000000000               0.000000000               0.000000000               0.000000000               0.000000000               0.000000000               0.000000000               0.000000000               0.000000000               0.000000000               0.000000000               0.000000000               0.000000000               0.000000000               0.000000000               0.000000000               0.000000000               0.000000000               0.000000000               0.000000000               0.000000000               0.000000000               0.000000000               0.000000000               0.000000000               0.000000000               0.000000000               0.000000000               0.000000000               0.000000000               0.000000000               0.000000000               0.000000000               0.000000000               0.000000000               0.000000000               0.000000000               0.000000000               0.000000000               0.000000000               0.000000000               0.000000000               0.000000000               0.000000000               0.000000000               0.000000000               0.000000000               0.000000000               0.000000000               0.000000000               0.000000000               0.000000000               0.000000000               0.000000000               0.000000000               0.000000000               0.000000000               0.000000000               0.000000000               0.000000000               0.000000000               0.000000000               0.000000000               0.000000000               0.000000000               0.000000000               0.000000000               0.000000000               0.000000000               0.000000000               0.000000000               0.000000000               0.000000000               0.000000000               0.000000000               0.000000000               0.000000000               0.000000000               0.000000000               0.000000000               0.000000000               0.000000000               0.000000000               0.000000000               0.000000000               0.000000000               0.000000000               0.000000000               0.000000000               0.000000000               0.000000000               0.000000000               0.000000000               0.000000000               0.000000000               0.000000000               0.000000000               0.000000000               0.000000000               0.000000000               0.000000000               0.000000000               0.000000000               0.000000000               0.000000000               0.000000000               0.000000000               0.000000000               0.000000000               0.000000000               0.000000000               0.000000000               0.000000000               0.000000000               0.000000000               0.000000000               0.000000000               0.000000000               0.000000000               0.000000000               0.000000000               0.000000000               0.000000000               0.000000000               0.000000000               0.000000000               0.000000000               0.000000000               0.000000000               0.000000000               0.000000000               0.000000000               0.000000000               0.000000000               0.000000000               0.000000000               0.000000000               0.000000000               0.000000000               0.000000000               0.000000000               0.000000000               0.000000000               0.000000000               0.000000000               0.000000000               0.000000000               0.000000000               0.000000000               0.000000000               0.000000000               0.000000000               0.000000000               0.000000000               0.000000000               0.000000000               0.000000000               0.000000000               0.000000000               0.000000000               0.000000000               0.000000000               0.000000000               0.000000000               0.001590772               0.016738107               0.001212599              -0.001495720               0.006077886               0.004582166               0.000000000               0.000000000               0.000000000               0.000000000               0.001573034               0.013447497               0.000679283              -0.001091047               0.004846136               0.003755090               0.000000000               0.000000000               0.000000000               0.000000000               0.002050166               0.010814289               0.000141186              -0.000582973               0.003799051               0.003216078               0.000000000               0.000000000               0.000000000               0.000000000               0.002008460               0.009343035              -0.000094142              -0.000414706               0.003252549               0.002837843               0.000000000               0.000000000               0.000000000               0.000000000               0.001791902               0.008443012              -0.000199957              -0.000383412               0.002942113               0.002558701               0.000000000               0.000000000               0.000000000               0.000000000               0.001523850               0.007857947              -0.000248474              -0.000410799               0.002756222               0.002345424               0.000000000               0.000000000               0.000000000               0.000000000               0.001258658               0.007454049              -0.000263861              -0.000459758               0.002637911               0.002178153               0.000000000               0.000000000               0.000000000               0.000000000               0.001020341               0.007152496              -0.000260496              -0.000511433               0.002554619               0.002043186               0.000000000               0.000000000               0.000000000               0.000000000               0.000815088               0.006909409              -0.000250864              -0.000558017               0.002489119               0.001931102               0.000000000               0.000000000               0.000000000               0.000000000               0.000638549               0.006700098              -0.000236799              -0.000598055               0.002432695               0.001834640               0.000000000               0.000000000               0.000000000               0.000000000               0.000485202               0.006509764              -0.000219900              -0.000631768               0.002380489               0.001748721               0.000000000               0.000000000               0.000000000               0.000000000               0.000349629               0.006328927              -0.000204982              -0.000660003               0.002329622               0.001669619               0.000000000               0.000000000               0.000000000               0.000000000               0.000234097               0.006150017              -0.000189513              -0.000680964               0.002276973               0.001596009               0.000000000               0.000000000               0.000000000               0.000000000               0.000145389               0.005966221              -0.000165433              -0.000691255               0.002219139               0.001527884               0.000000000               0.000000000               0.000000000               0.000000000               0.000077320               0.005767255              -0.000129775              -0.000691910               0.002153036               0.001461126               0.000000000               0.000000000               0.000000000               0.000000000               0.000029724               0.005545235              -0.000076368              -0.000682006               0.002075729               0.001393722               0.000000000               0.000000000               0.000000000               0.000000000              -0.000004884               0.005378244              -0.000046951              -0.000674110               0.002017433               0.001343323               0.000000000               0.000000000               0.000000000               0.000000000               0.001776092               0.015800119               0.002278391              -0.001308978               0.005702980               0.004394001               0.000000000               0.000000000               0.000000000               0.000000000               0.001544852               0.012824181               0.001280696              -0.001023701               0.004615918               0.003592217               0.000000000               0.000000000               0.000000000               0.000000000               0.001789394               0.010518311               0.000282391              -0.000643765               0.003720657               0.003076892               0.000000000               0.000000000               0.000000000               0.000000000               0.001655008               0.009217228              -0.000143159              -0.000531524               0.003249553               0.002718029               0.000000000               0.000000000               0.000000000               0.000000000               0.001420101               0.008410565              -0.000330953              -0.000518782               0.002976421               0.002457639               0.000000000               0.000000000               0.000000000               0.000000000               0.001169504               0.007869441              -0.000413011              -0.000545115               0.002804826               0.002259711               0.000000000               0.000000000               0.000000000               0.000000000               0.000935790               0.007479360              -0.000437242              -0.000583997               0.002687761               0.002103763               0.000000000               0.000000000               0.000000000               0.000000000               0.000734644               0.007178355              -0.000429955              -0.000621801               0.002600028               0.001978227               0.000000000               0.000000000               0.000000000               0.000000000               0.000564235               0.006929196              -0.000410901              -0.000654560               0.002527895               0.001873336               0.000000000               0.000000000               0.000000000               0.000000000               0.000422318               0.006716326              -0.000387356              -0.000681170               0.002465810               0.001784640               0.000000000               0.000000000               0.000000000               0.000000000               0.000304224               0.006531212              -0.000361033              -0.000702316               0.002411154               0.001708838               0.000000000               0.000000000               0.000000000               0.000000000               0.000200654               0.006359236              -0.000331832              -0.000719657               0.002359610               0.001639953               0.000000000               0.000000000               0.000000000               0.000000000               0.000116834               0.006186959              -0.000296732              -0.000729556               0.002305484               0.001575929               0.000000000               0.000000000               0.000000000               0.000000000               0.000059908               0.006014810              -0.000250801              -0.000729384               0.002248045               0.001518661               0.000000000               0.000000000               0.000000000               0.000000000               0.000024671               0.005843753              -0.000190787              -0.000721216               0.002188303               0.001467088               0.000000000               0.000000000               0.000000000               0.000000000               0.000007260               0.005675113              -0.000108772              -0.000706665               0.002127240               0.001420575               0.000000000               0.000000000               0.000000000               0.000000000              -0.000008633               0.005562009              -0.000065164              -0.000698487               0.002086814               0.001388327               0.000000000               0.000000000               0.000000000               0.000000000               0.002009085               0.014377633               0.003075276              -0.001043797               0.005140428               0.004096632               0.000000000               0.000000000               0.000000000               0.000000000               0.001471796               0.011887730               0.001742898              -0.000934041               0.004273884               0.003339843               0.000000000               0.000000000               0.000000000               0.000000000               0.001388419               0.010075937               0.000424037              -0.000738833               0.003604890               0.002866057               0.000000000               0.000000000               0.000000000               0.000000000               0.001146382               0.009021164              -0.000117847              -0.000697750               0.003239608               0.002541858               0.000000000               0.000000000               0.000000000               0.000000000               0.000899197               0.008337728              -0.000349333              -0.000705015               0.003014220               0.002309205               0.000000000               0.000000000               0.000000000               0.000000000               0.000681315               0.007854295              -0.000447799              -0.000726292               0.002860169               0.002133877               0.000000000               0.000000000               0.000000000               0.000000000               0.000501349               0.007485636              -0.000478233              -0.000747697               0.002744419               0.001996723               0.000000000               0.000000000               0.000000000               0.000000000               0.000356521               0.007186723              -0.000469665              -0.000764643               0.002650431               0.001885788               0.000000000               0.000000000               0.000000000               0.000000000               0.000239677               0.006935793              -0.000447400              -0.000777093               0.002570939               0.001793846               0.000000000               0.000000000               0.000000000               0.000000000               0.000146021               0.006723800              -0.000421642              -0.000785715               0.002503149               0.001717434               0.000000000               0.000000000               0.000000000               0.000000000               0.000072336               0.006537253              -0.000391797              -0.000790029               0.002442405               0.001652377               0.000000000               0.000000000               0.000000000               0.000000000               0.000014032               0.006362108              -0.000354290              -0.000790000               0.002384015               0.001594015               0.000000000               0.000000000               0.000000000               0.000000000              -0.000026282               0.006194961              -0.000309226              -0.000784224               0.002326374               0.001542150               0.000000000               0.000000000               0.000000000               0.000000000              -0.000045295               0.006040238              -0.000256046              -0.000772014               0.002270730               0.001498717               0.000000000               0.000000000               0.000000000               0.000000000              -0.000046225               0.005901928              -0.000190181              -0.000755073               0.002218981               0.001463907               0.000000000               0.000000000               0.000000000               0.000000000              -0.000028783               0.005784733              -0.000105754              -0.000733884               0.002172853               0.001438969               0.000000000               0.000000000               0.000000000               0.000000000              -0.000022814               0.005716158              -0.000061928              -0.000723073               0.002146391               0.001423318               0.000000000               0.000000000               0.000000000               0.000000000               0.002188590               0.012637696               0.003540237              -0.000758992               0.004465520               0.003706528               0.000000000               0.000000000               0.000000000               0.000000000               0.001325722               0.010759472               0.002040342              -0.000847787               0.003869050               0.003021263               0.000000000               0.000000000               0.000000000               0.000000000               0.000895093               0.009545107               0.000571427              -0.000857476               0.003467496               0.002610019               0.000000000               0.000000000               0.000000000               0.000000000               0.000566431               0.008764543              -0.000006017              -0.000883154               0.003215870               0.002332716               0.000000000               0.000000000               0.000000000               0.000000000               0.000334723               0.008209990              -0.000247097              -0.000900726               0.003036878               0.002136152               0.000000000               0.000000000               0.000000000               0.000000000               0.000175372               0.007786372              -0.000350677              -0.000907530               0.002897941               0.001990412               0.000000000               0.000000000               0.000000000               0.000000000               0.000063190               0.007436125              -0.000385486              -0.000905817               0.002780622               0.001874805               0.000000000               0.000000000               0.000000000               0.000000000              -0.000014375               0.007140961              -0.000382358              -0.000898009               0.002679633               0.001781624               0.000000000               0.000000000               0.000000000               0.000000000              -0.000069693               0.006891682              -0.000368194              -0.000887593               0.002593069               0.001705476               0.000000000               0.000000000               0.000000000               0.000000000              -0.000106661               0.006677211              -0.000351013              -0.000874647               0.002517264               0.001642616               0.000000000               0.000000000               0.000000000               0.000000000              -0.000125592               0.006483969              -0.000327021              -0.000857591               0.002447165               0.001589574               0.000000000               0.000000000               0.000000000               0.000000000              -0.000132447               0.006304637              -0.000295001              -0.000837745               0.002380773               0.001543028               0.000000000               0.000000000               0.000000000               0.000000000              -0.000127442               0.006144466              -0.000256299              -0.000815847               0.002320084               0.001504237               0.000000000               0.000000000               0.000000000               0.000000000              -0.000109233               0.006007647              -0.000211264              -0.000791916               0.002266501               0.001474585               0.000000000               0.000000000               0.000000000               0.000000000              -0.000079918               0.005897794              -0.000154682              -0.000767192               0.002221642               0.001454451               0.000000000               0.000000000               0.000000000               0.000000000              -0.000043202               0.005816802              -0.000083217              -0.000743299               0.002186681               0.001443382               0.000000000               0.000000000               0.000000000               0.000000000              -0.000026700               0.005778762              -0.000046040              -0.000732356               0.002170354               0.001437997               0.000000000               0.000000000               0.000000000               0.000000000               0.002221431               0.010748512               0.003673650              -0.000510530               0.003752977               0.003242447               0.000000000               0.000000000               0.000000000               0.000000000               0.001088107               0.009559449               0.002185943              -0.000786891               0.003448747               0.002661857               0.000000000               0.000000000               0.000000000               0.000000000               0.000362857               0.008974066               0.000739010              -0.000985685               0.003319887               0.002334202               0.000000000               0.000000000               0.000000000               0.000000000               0.000004116               0.008451916               0.000188687              -0.001054944               0.003168925               0.002113982               0.000000000               0.000000000               0.000000000               0.000000000              -0.000174889               0.008014469              -0.000042536              -0.001067389               0.003027260               0.001959870               0.000000000               0.000000000               0.000000000               0.000000000              -0.000258917               0.007639519              -0.000146935              -0.001052031               0.002897158               0.001845127               0.000000000               0.000000000               0.000000000               0.000000000              -0.000295650               0.007309443              -0.000191784              -0.001024547               0.002777972               0.001753425               0.000000000               0.000000000               0.000000000               0.000000000              -0.000301845               0.007022639              -0.000207361              -0.000991019               0.002671196               0.001680177               0.000000000               0.000000000               0.000000000               0.000000000              -0.000292465               0.006773593              -0.000213108              -0.000956371               0.002576632               0.001620261               0.000000000               0.000000000               0.000000000               0.000000000              -0.000274081               0.006551562              -0.000213961              -0.000921723               0.002491073               0.001569350               0.000000000               0.000000000               0.000000000               0.000000000              -0.000241192               0.006351421              -0.000204208              -0.000884372               0.002411910               0.001527538               0.000000000               0.000000000               0.000000000               0.000000000              -0.000201347               0.006171565              -0.000186201              -0.000846949               0.002339484               0.001492535               0.000000000               0.000000000               0.000000000               0.000000000              -0.000158657               0.006015489              -0.000161915              -0.000811430               0.002275620               0.001464189               0.000000000               0.000000000               0.000000000               0.000000000              -0.000114088               0.005885272              -0.000130635              -0.000778440               0.002221218               0.001442778               0.000000000               0.000000000               0.000000000               0.000000000              -0.000072152               0.005779534              -0.000088490              -0.000749497               0.002176325               0.001426827               0.000000000               0.000000000               0.000000000               0.000000000              -0.000033873               0.005703604              -0.000041340              -0.000725651               0.002143066               0.001417415               0.000000000               0.000000000               0.000000000               0.000000000              -0.000018524               0.005668953              -0.000020956              -0.000715564               0.002128154               0.001412590               0.000000000               0.000000000               0.000000000               0.000000000               0.002061621               0.008857342               0.003520917              -0.000334063               0.003063771               0.002729708               0.000000000               0.000000000               0.000000000               0.000000000               0.000775281               0.008380055               0.002216042              -0.000756776               0.003045582               0.002288805               0.000000000               0.000000000               0.000000000               0.000000000              -0.000145537               0.008384267               0.000938294              -0.001102607               0.003162263               0.002059656               0.000000000               0.000000000               0.000000000               0.000000000              -0.000469578               0.008081248               0.000449563              -0.001186245               0.003089137               0.001902893               0.000000000               0.000000000               0.000000000               0.000000000              -0.000565126               0.007739993               0.000229207              -0.001179418               0.002973111               0.001793693               0.000000000               0.000000000               0.000000000               0.000000000              -0.000564770               0.007411901               0.000111782              -0.001138274               0.002850033               0.001711760               0.000000000               0.000000000               0.000000000               0.000000000              -0.000525967               0.007108578               0.000041877              -0.001085807               0.002731438               0.001645631               0.000000000               0.000000000               0.000000000               0.000000000              -0.000475906               0.006829848              -0.000002683              -0.001032193               0.002620658               0.001588465               0.000000000               0.000000000               0.000000000               0.000000000              -0.000415718               0.006583129              -0.000034946              -0.000978783               0.002520615               0.001541832               0.000000000               0.000000000               0.000000000               0.000000000              -0.000351283               0.006361617              -0.000057391              -0.000926931               0.002429495               0.001502564               0.000000000               0.000000000               0.000000000               0.000000000              -0.000279488               0.006160255              -0.000066171              -0.000874838               0.002345010               0.001470173               0.000000000               0.000000000               0.000000000               0.000000000              -0.000208192               0.005978636              -0.000064993              -0.000825400               0.002267992               0.001442593               0.000000000               0.000000000               0.000000000               0.000000000              -0.000149001               0.005816542              -0.000057606              -0.000782941               0.002199808               0.001416867               0.000000000               0.000000000               0.000000000               0.000000000              -0.000099181               0.005677050              -0.000043449              -0.000746822               0.002141272               0.001394450               0.000000000               0.000000000               0.000000000               0.000000000              -0.000054801               0.005561890              -0.000023590              -0.000715785               0.002092540               0.001376755               0.000000000               0.000000000               0.000000000               0.000000000              -0.000021107               0.005473017              -0.000007056              -0.000692040               0.002055001               0.001362961               0.000000000               0.000000000               0.000000000               0.000000000              -0.000015347               0.005422590              -0.000005543              -0.000683577               0.002035371               0.001351794               0.000000000               0.000000000               0.000000000               0.000000000               0.001723366               0.007077755               0.003148486              -0.000238460               0.002438714               0.002200253               0.000000000               0.000000000               0.000000000               0.000000000               0.000417467               0.007278954               0.002169655              -0.000753319               0.002677400               0.001924080               0.000000000               0.000000000               0.000000000               0.000000000              -0.000567292               0.007775587               0.001170238              -0.001184680               0.002986730               0.001802049               0.000000000               0.000000000               0.000000000               0.000000000              -0.000804199               0.007652273               0.000744127              -0.001258106               0.002970101               0.001711995               0.000000000               0.000000000               0.000000000               0.000000000              -0.000803487               0.007400293               0.000514197              -0.001226341               0.002875520               0.001649179               0.000000000               0.000000000               0.000000000               0.000000000              -0.000724858               0.007121824               0.000366721              -0.001162047               0.002761266               0.001599220               0.000000000               0.000000000               0.000000000               0.000000000              -0.000629002               0.006843322               0.000264656              -0.001091288               0.002644847               0.001553559               0.000000000               0.000000000               0.000000000               0.000000000              -0.000537107               0.006579119               0.000188636              -0.001023802               0.002534285               0.001510483               0.000000000               0.000000000               0.000000000               0.000000000              -0.000443548               0.006343320               0.000127059              -0.000959243               0.002434167               0.001474923               0.000000000               0.000000000               0.000000000               0.000000000              -0.000350203               0.006126697               0.000081729              -0.000897161               0.002341266               0.001444105               0.000000000               0.000000000               0.000000000               0.000000000              -0.000264156               0.005922189               0.000053663              -0.000839330               0.002253820               0.001414490               0.000000000               0.000000000               0.000000000               0.000000000              -0.000189658               0.005734543               0.000037105              -0.000787938               0.002174141               0.001386204               0.000000000               0.000000000               0.000000000               0.000000000              -0.000128036               0.005567666               0.000024951              -0.000743970               0.002103860               0.001359890               0.000000000               0.000000000               0.000000000               0.000000000              -0.000077477               0.005424313               0.000016072              -0.000707091               0.002043783               0.001336692               0.000000000               0.000000000               0.000000000               0.000000000              -0.000038475               0.005306834               0.000011668              -0.000677781               0.001994854               0.001317073               0.000000000               0.000000000               0.000000000               0.000000000              -0.000014260               0.005212106               0.000006529              -0.000656859               0.001956304               0.001299445               0.000000000               0.000000000               0.000000000               0.000000000              -0.000014437               0.005155644              -0.000002059              -0.000649868               0.001935153               0.001285286               0.000000000               0.000000000               0.000000000               0.000000000               0.001282074               0.005543391               0.002644774              -0.000212149               0.001918494               0.001706345               0.000000000               0.000000000               0.000000000               0.000000000               0.000085410               0.006283920               0.002091540              -0.000753461               0.002345772               0.001592311               0.000000000               0.000000000               0.000000000               0.000000000              -0.000859247               0.007182915               0.001440279              -0.001220080               0.002800974               0.001580895               0.000000000               0.000000000               0.000000000               0.000000000              -0.000996479               0.007248960               0.001055443              -0.001279797               0.002842895               0.001563098               0.000000000               0.000000000               0.000000000               0.000000000              -0.000922129               0.007098509               0.000800640              -0.001233109               0.002777182               0.001544073               0.000000000               0.000000000               0.000000000               0.000000000              -0.000787399               0.006874434               0.000619069              -0.001154576               0.002676314               0.001521738               0.000000000               0.000000000               0.000000000               0.000000000              -0.000649150               0.006626092               0.000483165              -0.001071690               0.002565905               0.001494215               0.000000000               0.000000000               0.000000000               0.000000000              -0.000524645               0.006388725               0.000375169              -0.000995330               0.002461330               0.001466000               0.000000000               0.000000000               0.000000000               0.000000000              -0.000412728               0.006169508               0.000285472              -0.000925959               0.002365135               0.001439176               0.000000000               0.000000000               0.000000000               0.000000000              -0.000309886               0.005953445               0.000216642              -0.000860386               0.002271257               0.001410871               0.000000000               0.000000000               0.000000000               0.000000000              -0.000223483               0.005742628               0.000166430              -0.000801632               0.002181401               0.001379768               0.000000000               0.000000000               0.000000000               0.000000000              -0.000154573               0.005549868               0.000126867              -0.000751696               0.002100503               0.001348807               0.000000000               0.000000000               0.000000000               0.000000000              -0.000099554               0.005382571               0.000091664              -0.000710152               0.002030890               0.001320738               0.000000000               0.000000000               0.000000000               0.000000000              -0.000058891               0.005241723               0.000059165              -0.000677298               0.001972990               0.001295692               0.000000000               0.000000000               0.000000000               0.000000000              -0.000038221               0.005124635               0.000033081              -0.000654911               0.001926498               0.001271588               0.000000000               0.000000000               0.000000000               0.000000000              -0.000038656               0.005029580               0.000014365              -0.000643192               0.001890907               0.001247715               0.000000000               0.000000000               0.000000000               0.000000000              -0.000045693               0.004980214               0.000004031              -0.000639660               0.001873275               0.001233615               0.000000000               0.000000000               0.000000000               0.000000000               0.000722372               0.004092478               0.002092041              -0.000240672               0.001444369               0.001203697               0.000000000               0.000000000               0.000000000               0.000000000              -0.000167762               0.005135349               0.001994641              -0.000704829               0.001946708               0.001241879               0.000000000               0.000000000               0.000000000               0.000000000              -0.000974594               0.006326725               0.001732980              -0.001156311               0.002494324               0.001338013               0.000000000               0.000000000               0.000000000               0.000000000              -0.001067278               0.006643360               0.001401570              -0.001230647               0.002624647               0.001394000               0.000000000               0.000000000               0.000000000               0.000000000              -0.000969381               0.006656955               0.001127747              -0.001195635               0.002617508               0.001421873               0.000000000               0.000000000               0.000000000               0.000000000              -0.000820775               0.006542837               0.000913853              -0.001125643               0.002556138               0.001430495               0.000000000               0.000000000               0.000000000               0.000000000              -0.000669046               0.006376140               0.000742370              -0.001047907               0.002474661               0.001426754               0.000000000               0.000000000               0.000000000               0.000000000              -0.000530027               0.006204790               0.000598941              -0.000974356               0.002393028               0.001418672               0.000000000               0.000000000               0.000000000               0.000000000              -0.000413467               0.006031322               0.000480544              -0.000908963               0.002313408               0.001404445               0.000000000               0.000000000               0.000000000               0.000000000              -0.000314716               0.005847927               0.000384447              -0.000849007               0.002232292               0.001383284               0.000000000               0.000000000               0.000000000               0.000000000              -0.000230620               0.005660851               0.000303850              -0.000794087               0.002151627               0.001357540               0.000000000               0.000000000               0.000000000               0.000000000              -0.000166617               0.005479555               0.000235498              -0.000747424               0.002075641               0.001328218               0.000000000               0.000000000               0.000000000               0.000000000              -0.000118338               0.005317035               0.000173647              -0.000709004               0.002008662               0.001299658               0.000000000               0.000000000               0.000000000               0.000000000              -0.000085146               0.005180088               0.000115029              -0.000679439               0.001953158               0.001273719               0.000000000               0.000000000               0.000000000               0.000000000              -0.000072825               0.005062812               0.000061861              -0.000660159               0.001907640               0.001247481               0.000000000               0.000000000               0.000000000               0.000000000              -0.000082782               0.004966076               0.000021237              -0.000651801               0.001872609               0.001220808               0.000000000               0.000000000               0.000000000               0.000000000              -0.000095026               0.004920994               0.000004329              -0.000650757               0.001857234               0.001206477               0.000000000               0.000000000               0.000000000               0.000000000              -0.000049000               0.002765240               0.001514866              -0.000364030               0.001043080               0.000679050               0.000000000               0.000000000               0.000000000               0.000000000              -0.000460880               0.003991426               0.001835376              -0.000671758               0.001554380               0.000882623               0.000000000               0.000000000               0.000000000               0.000000000              -0.001008617               0.005355493               0.001958548              -0.001047667               0.002134368               0.001086702               0.000000000               0.000000000               0.000000000               0.000000000              -0.001060642               0.005904106               0.001730235              -0.001135752               0.002346599               0.001210847               0.000000000               0.000000000               0.000000000               0.000000000              -0.000958708               0.006106343               0.001467970              -0.001122806               0.002409696               0.001286890               0.000000000               0.000000000               0.000000000               0.000000000              -0.000813467               0.006135323               0.001234952              -0.001071963               0.002402408               0.001330445               0.000000000               0.000000000               0.000000000               0.000000000              -0.000665100               0.006081259               0.001035552              -0.001009568               0.002363589               0.001354021               0.000000000               0.000000000               0.000000000               0.000000000              -0.000523296               0.005994310               0.000864802              -0.000945523               0.002313257               0.001367735               0.000000000               0.000000000               0.000000000               0.000000000              -0.000400069               0.005884138               0.000720402              -0.000885541               0.002256540               0.001370999               0.000000000               0.000000000               0.000000000               0.000000000              -0.000304311               0.005751373               0.000598057              -0.000833036               0.002194784               0.001361748               0.000000000               0.000000000               0.000000000               0.000000000              -0.000224887               0.005605126               0.000490375              -0.000784971               0.002130014               0.001345042               0.000000000               0.000000000               0.000000000               0.000000000              -0.000160859               0.005448631               0.000393849              -0.000741399               0.002063325               0.001321926               0.000000000               0.000000000               0.000000000               0.000000000              -0.000115750               0.005299605               0.000303827              -0.000705855               0.002001802               0.001295947               0.000000000               0.000000000               0.000000000               0.000000000              -0.000087001               0.005171063               0.000215457              -0.000679006               0.001950006               0.001271000               0.000000000               0.000000000               0.000000000               0.000000000              -0.000078444               0.005058347               0.000129844              -0.000661708               0.001906668               0.001244960               0.000000000               0.000000000               0.000000000               0.000000000              -0.000093526               0.004966346               0.000055247              -0.000655864               0.001874054               0.001218190               0.000000000               0.000000000               0.000000000               0.000000000              -0.000115821               0.004920838               0.000019272              -0.000658536               0.001859775               0.001201239               0.000000000               0.000000000               0.000000000               0.000000000              -0.000985536               0.001648763               0.000946694              -0.000575671               0.000741472               0.000165801               0.000000000               0.000000000               0.000000000               0.000000000              -0.000840610               0.002909516               0.001587182              -0.000678918               0.001196134               0.000517216               0.000000000               0.000000000               0.000000000               0.000000000              -0.001004848               0.004274630               0.002029470              -0.000911146               0.001728577               0.000817431               0.000000000               0.000000000               0.000000000               0.000000000              -0.000962534               0.004990171               0.001935647              -0.000984720               0.001991613               0.001006893               0.000000000               0.000000000               0.000000000               0.000000000              -0.000852750               0.005367918               0.001719975              -0.000990769               0.002119544               0.001128775               0.000000000               0.000000000               0.000000000               0.000000000              -0.000721364               0.005551096               0.001494491              -0.000964397               0.002171812               0.001207415               0.000000000               0.000000000               0.000000000               0.000000000              -0.000583698               0.005627040               0.001287164              -0.000922265               0.002183083               0.001260818               0.000000000               0.000000000               0.000000000               0.000000000              -0.000451419               0.005643401               0.001103795              -0.000874705               0.002172683               0.001297978               0.000000000               0.000000000               0.000000000               0.000000000              -0.000332272               0.005615540               0.000944159              -0.000826543               0.002147342               0.001320799               0.000000000               0.000000000               0.000000000               0.000000000              -0.000233490               0.005551748               0.000806290              -0.000781525               0.002111072               0.001329547               0.000000000               0.000000000               0.000000000               0.000000000              -0.000154811               0.005459022               0.000684788              -0.000740430               0.002066466               0.001326036               0.000000000               0.000000000               0.000000000               0.000000000              -0.000090228               0.005347283               0.000569661              -0.000702244               0.002016491               0.001314247               0.000000000               0.000000000               0.000000000               0.000000000              -0.000042980               0.005235481               0.000454711              -0.000670551               0.001968660               0.001298109               0.000000000               0.000000000               0.000000000               0.000000000              -0.000015740               0.005132640               0.000340238              -0.000647481               0.001926690               0.001279209               0.000000000               0.000000000               0.000000000               0.000000000              -0.000010754               0.005039244               0.000225283              -0.000633937               0.001891043               0.001257107               0.000000000               0.000000000               0.000000000               0.000000000              -0.000032684               0.004961813               0.000109817              -0.000632482               0.001864748               0.001232267               0.000000000               0.000000000               0.000000000               0.000000000              -0.000065850               0.004919572               0.000047878              -0.000639639               0.001853054               0.001213415               0.000000000               0.000000000               0.000000000               0.000000000              -0.002011749               0.000793612               0.000455129              -0.000853606               0.000549069              -0.000304537               0.000000000               0.000000000               0.000000000               0.000000000              -0.001277640               0.001939204               0.001273221              -0.000721515               0.000886899               0.000165384               0.000000000               0.000000000               0.000000000               0.000000000              -0.000982029               0.003167548               0.001920908              -0.000764204               0.001310572               0.000546369               0.000000000               0.000000000               0.000000000               0.000000000              -0.000794581               0.003969204               0.001954821              -0.000794118               0.001587760               0.000793642               0.000000000               0.000000000               0.000000000               0.000000000              -0.000655561               0.004486339               0.001807217              -0.000806627               0.001764306               0.000957679               0.000000000               0.000000000               0.000000000               0.000000000              -0.000532592               0.004815538               0.001617951              -0.000801663               0.001872384               0.001070721               0.000000000               0.000000000               0.000000000               0.000000000              -0.000412538               0.005020935               0.001428007              -0.000782317               0.001934400               0.001152083               0.000000000               0.000000000               0.000000000               0.000000000              -0.000297522               0.005147921               0.001250083              -0.000755060               0.001967643               0.001212583               0.000000000               0.000000000               0.000000000               0.000000000              -0.000189315               0.005215555               0.001092657              -0.000722936               0.001979479               0.001256543               0.000000000               0.000000000               0.000000000               0.000000000              -0.000089912               0.005230739               0.000955949              -0.000687558               0.001972748               0.001285190               0.000000000               0.000000000               0.000000000               0.000000000              -0.000006804               0.005206703               0.000832972              -0.000653388               0.001953346               0.001299958               0.000000000               0.000000000               0.000000000               0.000000000               0.000061152               0.005161388               0.000712868              -0.000622240               0.001927859               0.001305619               0.000000000               0.000000000               0.000000000               0.000000000               0.000117002               0.005103524               0.000588884              -0.000594063               0.001899179               0.001305115               0.000000000               0.000000000               0.000000000               0.000000000               0.000159143               0.005046979               0.000459480              -0.000571192               0.001872707               0.001301514               0.000000000               0.000000000               0.000000000               0.000000000               0.000178089               0.004994612               0.000321503              -0.000557542               0.001850701               0.001293159               0.000000000               0.000000000               0.000000000               0.000000000               0.000163307               0.004944607               0.000168468              -0.000556834               0.001833797               0.001276963               0.000000000               0.000000000               0.000000000               0.000000000               0.000131210               0.004912175               0.000082600              -0.000564817               0.001825648               0.001260831               0.000000000               0.000000000               0.000000000               0.000000000              -0.003010867               0.000204136               0.000105549              -0.001154591               0.000452906              -0.000701685               0.000000000               0.000000000               0.000000000               0.000000000              -0.001724724               0.001139230               0.000928263              -0.000789174               0.000642796              -0.000146378               0.000000000               0.000000000               0.000000000               0.000000000              -0.000954861               0.002141145               0.001627194              -0.000625715               0.000922279               0.000296563               0.000000000               0.000000000               0.000000000               0.000000000              -0.000591673               0.002952159               0.001746606              -0.000590897               0.001181008               0.000590111               0.000000000               0.000000000               0.000000000               0.000000000              -0.000394943               0.003560493               0.001670169              -0.000593165               0.001384540               0.000791375               0.000000000               0.000000000               0.000000000               0.000000000              -0.000267033               0.004005946               0.001533592              -0.000600880               0.001535595               0.000934715               0.000000000               0.000000000               0.000000000               0.000000000              -0.000165748               0.004325793               0.001380773              -0.000602879               0.001642876               0.001039997               0.000000000               0.000000000               0.000000000               0.000000000              -0.000069498               0.004556588               0.001231807              -0.000595634               0.001717392               0.001121758               0.000000000               0.000000000               0.000000000               0.000000000               0.000021979               0.004719382               0.001098156              -0.000581680               0.001767005               0.001185325               0.000000000               0.000000000               0.000000000               0.000000000               0.000110280               0.004824616               0.000978844              -0.000561721               0.001795430               0.001233708               0.000000000               0.000000000               0.000000000               0.000000000               0.000191732               0.004883556               0.000868019              -0.000538544               0.001807350               0.001268806               0.000000000               0.000000000               0.000000000               0.000000000               0.000266680               0.004913381               0.000760039              -0.000514166               0.001809166               0.001294999               0.000000000               0.000000000               0.000000000               0.000000000               0.000340211               0.004924939               0.000649053              -0.000488037               0.001804309               0.001316272               0.000000000               0.000000000               0.000000000               0.000000000               0.000413114               0.004928055               0.000527643              -0.000461088               0.001796365               0.001335277               0.000000000               0.000000000               0.000000000               0.000000000               0.000474615               0.004923356               0.000385107              -0.000437438               0.001786915               0.001349477               0.000000000               0.000000000               0.000000000               0.000000000               0.000509253               0.004911284               0.000210100              -0.000422940               0.001778058               0.001355119               0.000000000               0.000000000               0.000000000               0.000000000               0.000512799               0.004899581               0.000110998              -0.000420147               0.001773226               0.001353079               0.000000000               0.000000000               0.000000000               0.000000000              -0.003851083              -0.000150937              -0.000069903              -0.001425288               0.000424781              -0.001000507               0.000000000               0.000000000               0.000000000               0.000000000              -0.002122715               0.000554178               0.000589269              -0.000865289               0.000473152              -0.000392137               0.000000000               0.000000000               0.000000000               0.000000000              -0.000938368               0.001312628               0.001174080              -0.000515966               0.000609526               0.000093560               0.000000000               0.000000000               0.000000000               0.000000000              -0.000400896               0.002081134               0.001313888              -0.000410478               0.000830529               0.000420052               0.000000000               0.000000000               0.000000000               0.000000000              -0.000133511               0.002729836               0.001288951              -0.000391296               0.001040368               0.000649072               0.000000000               0.000000000               0.000000000               0.000000000               0.000008940               0.003251134               0.001204411              -0.000403039               0.001218046               0.000815007               0.000000000               0.000000000               0.000000000               0.000000000               0.000101360               0.003662256               0.001102210              -0.000419772               0.001360664               0.000940892               0.000000000               0.000000000               0.000000000               0.000000000               0.000179339               0.003983521               0.000997743              -0.000430688               0.001471389               0.001040702               0.000000000               0.000000000               0.000000000               0.000000000               0.000250785               0.004229969               0.000901443              -0.000434701               0.001554876               0.001120174               0.000000000               0.000000000               0.000000000               0.000000000               0.000319909               0.004416587               0.000815215              -0.000432107               0.001616216               0.001184110               0.000000000               0.000000000               0.000000000               0.000000000               0.000395184               0.004556064               0.000733747              -0.000421313               0.001659111               0.001237797               0.000000000               0.000000000               0.000000000               0.000000000               0.000479469               0.004661650               0.000655401              -0.000402905               0.001688169               0.001285265               0.000000000               0.000000000               0.000000000               0.000000000               0.000577894               0.004745644               0.000576053              -0.000376495               0.001707364               0.001330869               0.000000000               0.000000000               0.000000000               0.000000000               0.000689846               0.004810066               0.000484563              -0.000342565               0.001717528               0.001374963               0.000000000               0.000000000               0.000000000               0.000000000               0.000814146               0.004853609               0.000366754              -0.000301396               0.001718319               0.001416923               0.000000000               0.000000000               0.000000000               0.000000000               0.000947170               0.004879868               0.000206306              -0.000254794               0.001711538               0.001456744               0.000000000               0.000000000               0.000000000               0.000000000               0.001039257               0.004896627               0.000115090              -0.000222357               0.001706311               0.001483955               0.000000000               0.000000000               0.000000000               0.000000000              -0.004411917              -0.000322053              -0.000084929              -0.001614211               0.000430716              -0.001183495               0.000000000               0.000000000               0.000000000               0.000000000              -0.002406104               0.000207364               0.000280163              -0.000928209               0.000378522              -0.000549687               0.000000000               0.000000000               0.000000000               0.000000000              -0.000939021               0.000776836               0.000611906              -0.000449237               0.000408688              -0.000040549               0.000000000               0.000000000               0.000000000               0.000000000              -0.000266036               0.001492501               0.000703550              -0.000286326               0.000592937               0.000306611               0.000000000               0.000000000               0.000000000               0.000000000               0.000059564               0.002150049               0.000701545              -0.000246419               0.000798816               0.000552396               0.000000000               0.000000000               0.000000000               0.000000000               0.000222687               0.002711799               0.000663188              -0.000255467               0.000989079               0.000733612               0.000000000               0.000000000               0.000000000               0.000000000               0.000311800               0.003180745               0.000612728              -0.000280668               0.001153793               0.000873126               0.000000000               0.000000000               0.000000000               0.000000000               0.000370608               0.003562713               0.000558490              -0.000306361               0.001289679               0.000983319               0.000000000               0.000000000               0.000000000               0.000000000               0.000424378               0.003869438               0.000507573              -0.000324538               0.001397979               0.001073441               0.000000000               0.000000000               0.000000000               0.000000000               0.000481500               0.004115066               0.000463061              -0.000333820               0.001482948               0.001149128               0.000000000               0.000000000               0.000000000               0.000000000               0.000551641               0.004312706               0.000421371              -0.000332222               0.001548295               0.001216073               0.000000000               0.000000000               0.000000000               0.000000000               0.000642790               0.004475972               0.000381905              -0.000318450               0.001598126               0.001279676               0.000000000               0.000000000               0.000000000               0.000000000               0.000759519               0.004612045               0.000342043              -0.000291685               0.001634561               0.001342876               0.000000000               0.000000000               0.000000000               0.000000000               0.000906129               0.004722041               0.000293671              -0.000250456               0.001657483               0.001407027               0.000000000               0.000000000               0.000000000               0.000000000               0.001092455               0.004805352               0.000228187              -0.000190998               0.001665434               0.001474436               0.000000000               0.000000000               0.000000000               0.000000000               0.001331589               0.004859480               0.000132117              -0.000108089               0.001655840               0.001547751               0.000000000               0.000000000               0.000000000               0.000000000               0.001528776               0.004900465               0.000077888              -0.000039267               0.001646561               0.001607294               0.000000000               0.000000000               0.000000000               0.000000000              -0.004609646              -0.000368739               0.000000000              -0.001682524               0.000437925              -0.001244599               0.000000000               0.000000000               0.000000000               0.000000000              -0.002511178               0.000093717              -0.000000000              -0.000953405               0.000349038              -0.000604367               0.000000000               0.000000000               0.000000000               0.000000000              -0.000943355               0.000590065              -0.000000000              -0.000427516               0.000339191              -0.000088325               0.000000000               0.000000000               0.000000000               0.000000000              -0.000216680               0.001284582              -0.000000000              -0.000241827               0.000508799               0.000266971               0.000000000               0.000000000               0.000000000               0.000000000               0.000132912               0.001944138               0.000000000              -0.000193175               0.000712431               0.000519256               0.000000000               0.000000000               0.000000000               0.000000000               0.000305615               0.002515690               0.000000000              -0.000199855               0.000905173               0.000705318               0.000000000               0.000000000               0.000000000               0.000000000               0.000391431               0.003001596              -0.000000000              -0.000228412               0.001076659               0.000848247               0.000000000               0.000000000               0.000000000               0.000000000               0.000443236               0.003408790              -0.000000000              -0.000259885               0.001222880               0.000962995               0.000000000               0.000000000               0.000000000               0.000000000               0.000488997               0.003738422               0.000000000              -0.000283928               0.001340771               0.001056843               0.000000000               0.000000000               0.000000000               0.000000000               0.000542122               0.004003235              -0.000000000              -0.000297108               0.001433434               0.001136326               0.000000000               0.000000000               0.000000000               0.000000000               0.000609700               0.004221235               0.000000000              -0.000299016               0.001506736               0.001207720               0.000000000               0.000000000               0.000000000               0.000000000               0.000703912               0.004408450               0.000000000              -0.000287089               0.001565165               0.001278076               0.000000000               0.000000000               0.000000000               0.000000000               0.000826984               0.004565722              -0.000000000              -0.000260596               0.001608757               0.001348161               0.000000000               0.000000000               0.000000000               0.000000000               0.000988449               0.004691936              -0.000000000              -0.000215823               0.001635904               0.001420081               0.000000000               0.000000000               0.000000000               0.000000000               0.001201695               0.004790135              -0.000000000              -0.000148131               0.001646073               0.001497942               0.000000000               0.000000000               0.000000000               0.000000000               0.001486819               0.004853335               0.000000000              -0.000049110               0.001634132               0.001585022               0.000000000               0.000000000               0.000000000               0.000000000               0.001729911               0.004902006              -0.000000000               0.000035965               0.001621997               0.001657963               0.000000000               0.000000000               0.000000000               0.000000000               0.001522488               0.017066671              -0.000000000              -0.001562397               0.006209632               0.004647235               0.000000000               0.000000000               0.000000000               0.000000000               0.001581458               0.013666892              -0.000000000              -0.001115312               0.004927356               0.003812044               0.000000000               0.000000000               0.000000000               0.000000000               0.002141310               0.010917882              -0.000000000              -0.000561743               0.003826505               0.003264762               0.000000000               0.000000000               0.000000000               0.000000000               0.002134878               0.009385022               0.000000000              -0.000372547               0.003252492               0.002879945               0.000000000               0.000000000               0.000000000               0.000000000               0.001927760               0.008450523               0.000000000              -0.000333405               0.002927948               0.002594543               0.000000000               0.000000000               0.000000000               0.000000000               0.001652735               0.007848636               0.000000000              -0.000361303               0.002736620               0.002375317               0.000000000               0.000000000               0.000000000               0.000000000               0.001375649               0.007440898               0.000000000              -0.000414243               0.002618355               0.002204113               0.000000000               0.000000000               0.000000000               0.000000000               0.001125669               0.007140044              -0.000000000              -0.000470379               0.002536784               0.002066405               0.000000000               0.000000000               0.000000000               0.000000000               0.000909078               0.006899923              -0.000000000              -0.000521585               0.002473813               0.001952228               0.000000000               0.000000000               0.000000000               0.000000000               0.000722852               0.006694932               0.000000000              -0.000565796               0.002420220               0.001854425               0.000000000               0.000000000               0.000000000               0.000000000               0.000560238               0.006502497               0.000000000              -0.000602721               0.002368384               0.001765663               0.000000000               0.000000000               0.000000000               0.000000000               0.000412341               0.006313289               0.000000000              -0.000634532               0.002315919               0.001681387               0.000000000               0.000000000               0.000000000               0.000000000               0.000279583               0.006127826              -0.000000000              -0.000661133               0.002262966               0.001601833               0.000000000               0.000000000               0.000000000               0.000000000               0.000172528               0.005938711               0.000000000              -0.000677639               0.002205430               0.001527791               0.000000000               0.000000000               0.000000000               0.000000000               0.000092735               0.005728070               0.000000000              -0.000681231               0.002136415               0.001455183               0.000000000               0.000000000               0.000000000               0.000000000               0.000039482               0.005480305              -0.000000000              -0.000670231               0.002050161               0.001379930               0.000000000               0.000000000               0.000000000               0.000000000              -0.000001308               0.005284161               0.000000000              -0.000661009               0.001981706               0.001320697               0.000000000               0.000000000               0.000000000               0.000000000               0.001590772               0.016738107              -0.001212599              -0.001495720               0.006077886               0.004582166               0.000000000               0.000000000               0.000000000               0.000000000               0.001573034               0.013447497              -0.000679283              -0.001091047               0.004846136               0.003755090               0.000000000               0.000000000               0.000000000               0.000000000               0.002050166               0.010814289              -0.000141186              -0.000582973               0.003799051               0.003216078               0.000000000               0.000000000               0.000000000               0.000000000               0.002008460               0.009343035               0.000094142              -0.000414706               0.003252549               0.002837843               0.000000000               0.000000000               0.000000000               0.000000000               0.001791902               0.008443012               0.000199957              -0.000383412               0.002942113               0.002558701               0.000000000               0.000000000               0.000000000               0.000000000               0.001523850               0.007857947               0.000248474              -0.000410799               0.002756222               0.002345424               0.000000000               0.000000000               0.000000000               0.000000000               0.001258658               0.007454049               0.000263861              -0.000459758               0.002637911               0.002178153               0.000000000               0.000000000               0.000000000               0.000000000               0.001020341               0.007152496               0.000260496              -0.000511433               0.002554619               0.002043186               0.000000000               0.000000000               0.000000000               0.000000000               0.000815088               0.006909409               0.000250864              -0.000558017               0.002489119               0.001931102               0.000000000               0.000000000               0.000000000               0.000000000               0.000638549               0.006700098               0.000236799              -0.000598055               0.002432695               0.001834640               0.000000000               0.000000000               0.000000000               0.000000000               0.000485202               0.006509764               0.000219900              -0.000631768               0.002380489               0.001748721               0.000000000               0.000000000               0.000000000               0.000000000               0.000349629               0.006328927               0.000204982              -0.000660003               0.002329622               0.001669619               0.000000000               0.000000000               0.000000000               0.000000000               0.000234097               0.006150017               0.000189513              -0.000680964               0.002276973               0.001596009               0.000000000               0.000000000               0.000000000               0.000000000               0.000145389               0.005966221               0.000165433              -0.000691255               0.002219139               0.001527884               0.000000000               0.000000000               0.000000000               0.000000000               0.000077320               0.005767255               0.000129775              -0.000691910               0.002153036               0.001461126               0.000000000               0.000000000               0.000000000               0.000000000               0.000029724               0.005545235               0.000076368              -0.000682006               0.002075729               0.001393722               0.000000000               0.000000000               0.000000000               0.000000000              -0.000004884               0.005378244               0.000046951              -0.000674110               0.002017433               0.001343323               0.000000000               0.000000000               0.000000000               0.000000000               0.001776092               0.015800119              -0.002278391              -0.001308978               0.005702980               0.004394001               0.000000000               0.000000000               0.000000000               0.000000000               0.001544852               0.012824181              -0.001280696              -0.001023701               0.004615918               0.003592217               0.000000000               0.000000000               0.000000000               0.000000000               0.001789394               0.010518311              -0.000282391              -0.000643765               0.003720657               0.003076892               0.000000000               0.000000000               0.000000000               0.000000000               0.001655008               0.009217228               0.000143159              -0.000531524               0.003249553               0.002718029               0.000000000               0.000000000               0.000000000               0.000000000               0.001420101               0.008410565               0.000330953              -0.000518782               0.002976421               0.002457639               0.000000000               0.000000000               0.000000000               0.000000000               0.001169504               0.007869441               0.000413011              -0.000545115               0.002804826               0.002259711               0.000000000               0.000000000               0.000000000               0.000000000               0.000935790               0.007479360               0.000437242              -0.000583997               0.002687761               0.002103763               0.000000000               0.000000000               0.000000000               0.000000000               0.000734644               0.007178355               0.000429955              -0.000621801               0.002600028               0.001978227               0.000000000               0.000000000               0.000000000               0.000000000               0.000564235               0.006929196               0.000410901              -0.000654560               0.002527895               0.001873336               0.000000000               0.000000000               0.000000000               0.000000000               0.000422318               0.006716326               0.000387356              -0.000681170               0.002465810               0.001784640               0.000000000               0.000000000               0.000000000               0.000000000               0.000304224               0.006531212               0.000361033              -0.000702316               0.002411154               0.001708838               0.000000000               0.000000000               0.000000000               0.000000000               0.000200654               0.006359236               0.000331832              -0.000719657               0.002359610               0.001639953               0.000000000               0.000000000               0.000000000               0.000000000               0.000116834               0.006186959               0.000296732              -0.000729556               0.002305484               0.001575929               0.000000000               0.000000000               0.000000000               0.000000000               0.000059908               0.006014810               0.000250801              -0.000729384               0.002248045               0.001518661               0.000000000               0.000000000               0.000000000               0.000000000               0.000024671               0.005843753               0.000190787              -0.000721216               0.002188303               0.001467088               0.000000000               0.000000000               0.000000000               0.000000000               0.000007260               0.005675113               0.000108772              -0.000706665               0.002127240               0.001420575               0.000000000               0.000000000               0.000000000               0.000000000              -0.000008633               0.005562009               0.000065164              -0.000698487               0.002086814               0.001388327               0.000000000               0.000000000               0.000000000               0.000000000               0.002009085               0.014377633              -0.003075276              -0.001043797               0.005140428               0.004096632               0.000000000               0.000000000               0.000000000               0.000000000               0.001471796               0.011887730              -0.001742898              -0.000934041               0.004273884               0.003339843               0.000000000               0.000000000               0.000000000               0.000000000               0.001388419               0.010075937              -0.000424037              -0.000738833               0.003604890               0.002866057               0.000000000               0.000000000               0.000000000               0.000000000               0.001146382               0.009021164               0.000117847              -0.000697750               0.003239608               0.002541858               0.000000000               0.000000000               0.000000000               0.000000000               0.000899197               0.008337728               0.000349333              -0.000705015               0.003014220               0.002309205               0.000000000               0.000000000               0.000000000               0.000000000               0.000681315               0.007854295               0.000447799              -0.000726292               0.002860169               0.002133877               0.000000000               0.000000000               0.000000000               0.000000000               0.000501349               0.007485636               0.000478233              -0.000747697               0.002744419               0.001996723               0.000000000               0.000000000               0.000000000               0.000000000               0.000356521               0.007186723               0.000469665              -0.000764643               0.002650431               0.001885788               0.000000000               0.000000000               0.000000000               0.000000000               0.000239677               0.006935793               0.000447400              -0.000777093               0.002570939               0.001793846               0.000000000               0.000000000               0.000000000               0.000000000               0.000146021               0.006723800               0.000421642              -0.000785715               0.002503149               0.001717434               0.000000000               0.000000000               0.000000000               0.000000000               0.000072336               0.006537253               0.000391797              -0.000790029               0.002442405               0.001652377               0.000000000               0.000000000               0.000000000               0.000000000               0.000014032               0.006362108               0.000354290              -0.000790000               0.002384015               0.001594015               0.000000000               0.000000000               0.000000000               0.000000000              -0.000026282               0.006194961               0.000309226              -0.000784224               0.002326374               0.001542150               0.000000000               0.000000000               0.000000000               0.000000000              -0.000045295               0.006040238               0.000256046              -0.000772014               0.002270730               0.001498717               0.000000000               0.000000000               0.000000000               0.000000000              -0.000046225               0.005901928               0.000190181              -0.000755073               0.002218981               0.001463907               0.000000000               0.000000000               0.000000000               0.000000000              -0.000028783               0.005784733               0.000105754              -0.000733884               0.002172853               0.001438969               0.000000000               0.000000000               0.000000000               0.000000000              -0.000022814               0.005716158               0.000061928              -0.000723073               0.002146391               0.001423318               0.000000000               0.000000000               0.000000000               0.000000000               0.002188590               0.012637696              -0.003540237              -0.000758992               0.004465520               0.003706528               0.000000000               0.000000000               0.000000000               0.000000000               0.001325722               0.010759472              -0.002040342              -0.000847787               0.003869050               0.003021263               0.000000000               0.000000000               0.000000000               0.000000000               0.000895093               0.009545107              -0.000571427              -0.000857476               0.003467496               0.002610019               0.000000000               0.000000000               0.000000000               0.000000000               0.000566431               0.008764543               0.000006017              -0.000883154               0.003215870               0.002332716               0.000000000               0.000000000               0.000000000               0.000000000               0.000334723               0.008209990               0.000247097              -0.000900726               0.003036878               0.002136152               0.000000000               0.000000000               0.000000000               0.000000000               0.000175372               0.007786372               0.000350677              -0.000907530               0.002897941               0.001990412               0.000000000               0.000000000               0.000000000               0.000000000               0.000063190               0.007436125               0.000385486              -0.000905817               0.002780622               0.001874805               0.000000000               0.000000000               0.000000000               0.000000000              -0.000014375               0.007140961               0.000382358              -0.000898009               0.002679633               0.001781624               0.000000000               0.000000000               0.000000000               0.000000000              -0.000069693               0.006891682               0.000368194              -0.000887593               0.002593069               0.001705476               0.000000000               0.000000000               0.000000000               0.000000000              -0.000106661               0.006677211               0.000351013              -0.000874647               0.002517264               0.001642616               0.000000000               0.000000000               0.000000000               0.000000000              -0.000125592               0.006483969               0.000327021              -0.000857591               0.002447165               0.001589574               0.000000000               0.000000000               0.000000000               0.000000000              -0.000132447               0.006304637               0.000295001              -0.000837745               0.002380773               0.001543028               0.000000000               0.000000000               0.000000000               0.000000000              -0.000127442               0.006144466               0.000256299              -0.000815847               0.002320084               0.001504237               0.000000000               0.000000000               0.000000000               0.000000000              -0.000109233               0.006007647               0.000211264              -0.000791916               0.002266501               0.001474585               0.000000000               0.000000000               0.000000000               0.000000000              -0.000079918               0.005897794               0.000154682              -0.000767192               0.002221642               0.001454451               0.000000000               0.000000000               0.000000000               0.000000000              -0.000043202               0.005816802               0.000083217              -0.000743299               0.002186681               0.001443382               0.000000000               0.000000000               0.000000000               0.000000000              -0.000026700               0.005778762               0.000046040              -0.000732356               0.002170354               0.001437997               0.000000000               0.000000000               0.000000000               0.000000000               0.002221431               0.010748512              -0.003673650              -0.000510530               0.003752977               0.003242447               0.000000000               0.000000000               0.000000000               0.000000000               0.001088107               0.009559449              -0.002185943              -0.000786891               0.003448747               0.002661857               0.000000000               0.000000000               0.000000000               0.000000000               0.000362857               0.008974066              -0.000739010              -0.000985685               0.003319887               0.002334202               0.000000000               0.000000000               0.000000000               0.000000000               0.000004116               0.008451916              -0.000188687              -0.001054944               0.003168925               0.002113982               0.000000000               0.000000000               0.000000000               0.000000000              -0.000174889               0.008014469               0.000042536              -0.001067389               0.003027260               0.001959870               0.000000000               0.000000000               0.000000000               0.000000000              -0.000258917               0.007639519               0.000146935              -0.001052031               0.002897158               0.001845127               0.000000000               0.000000000               0.000000000               0.000000000              -0.000295650               0.007309443               0.000191784              -0.001024547               0.002777972               0.001753425               0.000000000               0.000000000               0.000000000               0.000000000              -0.000301845               0.007022639               0.000207361              -0.000991019               0.002671196               0.001680177               0.000000000               0.000000000               0.000000000               0.000000000              -0.000292465               0.006773593               0.000213108              -0.000956371               0.002576632               0.001620261               0.000000000               0.000000000               0.000000000               0.000000000              -0.000274081               0.006551562               0.000213961              -0.000921723               0.002491073               0.001569350               0.000000000               0.000000000               0.000000000               0.000000000              -0.000241192               0.006351421               0.000204208              -0.000884372               0.002411910               0.001527538               0.000000000               0.000000000               0.000000000               0.000000000              -0.000201347               0.006171565               0.000186201              -0.000846949               0.002339484               0.001492535               0.000000000               0.000000000               0.000000000               0.000000000              -0.000158657               0.006015489               0.000161915              -0.000811430               0.002275620               0.001464189               0.000000000               0.000000000               0.000000000               0.000000000              -0.000114088               0.005885272               0.000130635              -0.000778440               0.002221218               0.001442778               0.000000000               0.000000000               0.000000000               0.000000000              -0.000072152               0.005779534               0.000088490              -0.000749497               0.002176325               0.001426827               0.000000000               0.000000000               0.000000000               0.000000000              -0.000033873               0.005703604               0.000041340              -0.000725651               0.002143066               0.001417415               0.000000000               0.000000000               0.000000000               0.000000000              -0.000018524               0.005668953               0.000020956              -0.000715564               0.002128154               0.001412590               0.000000000               0.000000000               0.000000000               0.000000000               0.002061621               0.008857342              -0.003520917              -0.000334063               0.003063771               0.002729708               0.000000000               0.000000000               0.000000000               0.000000000               0.000775281               0.008380055              -0.002216042              -0.000756776               0.003045582               0.002288805               0.000000000               0.000000000               0.000000000               0.000000000              -0.000145537               0.008384267              -0.000938294              -0.001102607               0.003162263               0.002059656               0.000000000               0.000000000               0.000000000               0.000000000              -0.000469578               0.008081248              -0.000449563              -0.001186245               0.003089137               0.001902893               0.000000000               0.000000000               0.000000000               0.000000000              -0.000565126               0.007739993              -0.000229207              -0.001179418               0.002973111               0.001793693               0.000000000               0.000000000               0.000000000               0.000000000              -0.000564770               0.007411901              -0.000111782              -0.001138274               0.002850033               0.001711760               0.000000000               0.000000000               0.000000000               0.000000000              -0.000525967               0.007108578              -0.000041877              -0.001085807               0.002731438               0.001645631               0.000000000               0.000000000               0.000000000               0.000000000              -0.000475906               0.006829848               0.000002683              -0.001032193               0.002620658               0.001588465               0.000000000               0.000000000               0.000000000               0.000000000              -0.000415718               0.006583129               0.000034946              -0.000978783               0.002520615               0.001541832               0.000000000               0.000000000               0.000000000               0.000000000              -0.000351283               0.006361617               0.000057391              -0.000926931               0.002429495               0.001502564               0.000000000               0.000000000               0.000000000               0.000000000              -0.000279488               0.006160255               0.000066171              -0.000874838               0.002345010               0.001470173               0.000000000               0.000000000               0.000000000               0.000000000              -0.000208192               0.005978636               0.000064993              -0.000825400               0.002267992               0.001442593               0.000000000               0.000000000               0.000000000               0.000000000              -0.000149001               0.005816542               0.000057606              -0.000782941               0.002199808               0.001416867               0.000000000               0.000000000               0.000000000               0.000000000              -0.000099181               0.005677050               0.000043449              -0.000746822               0.002141272               0.001394450               0.000000000               0.000000000               0.000000000               0.000000000              -0.000054801               0.005561890               0.000023590              -0.000715785               0.002092540               0.001376755               0.000000000               0.000000000               0.000000000               0.000000000              -0.000021107               0.005473017               0.000007056              -0.000692040               0.002055001               0.001362961               0.000000000               0.000000000               0.000000000               0.000000000              -0.000015347               0.005422590               0.000005543              -0.000683577               0.002035371               0.001351794               0.000000000               0.000000000               0.000000000               0.000000000               0.001723366               0.007077755              -0.003148486              -0.000238460               0.002438714               0.002200253               0.000000000               0.000000000               0.000000000               0.000000000               0.000417467               0.007278954              -0.002169655              -0.000753319               0.002677400               0.001924080               0.000000000               0.000000000               0.000000000               0.000000000              -0.000567292               0.007775587              -0.001170238              -0.001184680               0.002986730               0.001802049               0.000000000               0.000000000               0.000000000               0.000000000              -0.000804199               0.007652273              -0.000744127              -0.001258106               0.002970101               0.001711995               0.000000000               0.000000000               0.000000000               0.000000000              -0.000803487               0.007400293              -0.000514197              -0.001226341               0.002875520               0.001649179               0.000000000               0.000000000               0.000000000               0.000000000              -0.000724858               0.007121824              -0.000366721              -0.001162047               0.002761266               0.001599220               0.000000000               0.000000000               0.000000000               0.000000000              -0.000629002               0.006843322              -0.000264656              -0.001091288               0.002644847               0.001553559               0.000000000               0.000000000               0.000000000               0.000000000              -0.000537107               0.006579119              -0.000188636              -0.001023802               0.002534285               0.001510483               0.000000000               0.000000000               0.000000000               0.000000000              -0.000443548               0.006343320              -0.000127059              -0.000959243               0.002434167               0.001474923               0.000000000               0.000000000               0.000000000               0.000000000              -0.000350203               0.006126697              -0.000081729              -0.000897161               0.002341266               0.001444105               0.000000000               0.000000000               0.000000000               0.000000000              -0.000264156               0.005922189              -0.000053663              -0.000839330               0.002253820               0.001414490               0.000000000               0.000000000               0.000000000               0.000000000              -0.000189658               0.005734543              -0.000037105              -0.000787938               0.002174141               0.001386204               0.000000000               0.000000000               0.000000000               0.000000000              -0.000128036               0.005567666              -0.000024951              -0.000743970               0.002103860               0.001359890               0.000000000               0.000000000               0.000000000               0.000000000              -0.000077477               0.005424313              -0.000016072              -0.000707091               0.002043783               0.001336692               0.000000000               0.000000000               0.000000000               0.000000000              -0.000038475               0.005306834              -0.000011668              -0.000677781               0.001994854               0.001317073               0.000000000               0.000000000               0.000000000               0.000000000              -0.000014260               0.005212106              -0.000006529              -0.000656859               0.001956304               0.001299445               0.000000000               0.000000000               0.000000000               0.000000000              -0.000014437               0.005155644               0.000002059              -0.000649868               0.001935153               0.001285286               0.000000000               0.000000000               0.000000000               0.000000000               0.001282074               0.005543391              -0.002644774              -0.000212149               0.001918494               0.001706345               0.000000000               0.000000000               0.000000000               0.000000000               0.000085410               0.006283920              -0.002091540              -0.000753461               0.002345772               0.001592311               0.000000000               0.000000000               0.000000000               0.000000000              -0.000859247               0.007182915              -0.001440279              -0.001220080               0.002800974               0.001580895               0.000000000               0.000000000               0.000000000               0.000000000              -0.000996479               0.007248960              -0.001055443              -0.001279797               0.002842895               0.001563098               0.000000000               0.000000000               0.000000000               0.000000000              -0.000922129               0.007098509              -0.000800640              -0.001233109               0.002777182               0.001544073               0.000000000               0.000000000               0.000000000               0.000000000              -0.000787399               0.006874434              -0.000619069              -0.001154576               0.002676314               0.001521738               0.000000000               0.000000000               0.000000000               0.000000000              -0.000649150               0.006626092              -0.000483165              -0.001071690               0.002565905               0.001494215               0.000000000               0.000000000               0.000000000               0.000000000              -0.000524645               0.006388725              -0.000375169              -0.000995330               0.002461330               0.001466000               0.000000000               0.000000000               0.000000000               0.000000000              -0.000412728               0.006169508              -0.000285472              -0.000925959               0.002365135               0.001439176               0.000000000               0.000000000               0.000000000               0.000000000              -0.000309886               0.005953445              -0.000216642              -0.000860386               0.002271257               0.001410871               0.000000000               0.000000000               0.000000000               0.000000000              -0.000223483               0.005742628              -0.000166430              -0.000801632               0.002181401               0.001379768               0.000000000               0.000000000               0.000000000               0.000000000              -0.000154573               0.005549868              -0.000126867              -0.000751696               0.002100503               0.001348807               0.000000000               0.000000000               0.000000000               0.000000000              -0.000099554               0.005382571              -0.000091664              -0.000710152               0.002030890               0.001320738               0.000000000               0.000000000               0.000000000               0.000000000              -0.000058891               0.005241723              -0.000059165              -0.000677298               0.001972990               0.001295692               0.000000000               0.000000000               0.000000000               0.000000000              -0.000038221               0.005124635              -0.000033081              -0.000654911               0.001926498               0.001271588               0.000000000               0.000000000               0.000000000               0.000000000              -0.000038656               0.005029580              -0.000014365              -0.000643192               0.001890907               0.001247715               0.000000000               0.000000000               0.000000000               0.000000000              -0.000045693               0.004980214              -0.000004031              -0.000639660               0.001873275               0.001233615               0.000000000               0.000000000               0.000000000               0.000000000               0.000722372               0.004092478              -0.002092041              -0.000240672               0.001444369               0.001203697               0.000000000               0.000000000               0.000000000               0.000000000              -0.000167762               0.005135349              -0.001994641              -0.000704829               0.001946708               0.001241879               0.000000000               0.000000000               0.000000000               0.000000000              -0.000974594               0.006326725              -0.001732980              -0.001156311               0.002494324               0.001338013               0.000000000               0.000000000               0.000000000               0.000000000              -0.001067278               0.006643360              -0.001401570              -0.001230647               0.002624647               0.001394000               0.000000000               0.000000000               0.000000000               0.000000000              -0.000969381               0.006656955              -0.001127747              -0.001195635               0.002617508               0.001421873               0.000000000               0.000000000               0.000000000               0.000000000              -0.000820775               0.006542837              -0.000913853              -0.001125643               0.002556138               0.001430495               0.000000000               0.000000000               0.000000000               0.000000000              -0.000669046               0.006376140              -0.000742370              -0.001047907               0.002474661               0.001426754               0.000000000               0.000000000               0.000000000               0.000000000              -0.000530027               0.006204790              -0.000598941              -0.000974356               0.002393028               0.001418672               0.000000000               0.000000000               0.000000000               0.000000000              -0.000413467               0.006031322              -0.000480544              -0.000908963               0.002313408               0.001404445               0.000000000               0.000000000               0.000000000               0.000000000              -0.000314716               0.005847927              -0.000384447              -0.000849007               0.002232292               0.001383284               0.000000000               0.000000000               0.000000000               0.000000000              -0.000230620               0.005660851              -0.000303850              -0.000794087               0.002151627               0.001357540               0.000000000               0.000000000               0.000000000               0.000000000              -0.000166617               0.005479555              -0.000235498              -0.000747424               0.002075641               0.001328218               0.000000000               0.000000000               0.000000000               0.000000000              -0.000118338               0.005317035              -0.000173647              -0.000709004               0.002008662               0.001299658               0.000000000               0.000000000               0.000000000               0.000000000              -0.000085146               0.005180088              -0.000115029              -0.000679439               0.001953158               0.001273719               0.000000000               0.000000000               0.000000000               0.000000000              -0.000072825               0.005062812              -0.000061861              -0.000660159               0.001907640               0.001247481               0.000000000               0.000000000               0.000000000               0.000000000              -0.000082782               0.004966076              -0.000021237              -0.000651801               0.001872609               0.001220808               0.000000000               0.000000000               0.000000000               0.000000000              -0.000095026               0.004920994              -0.000004329              -0.000650757               0.001857234               0.001206477               0.000000000               0.000000000               0.000000000               0.000000000              -0.000049000               0.002765240              -0.001514866              -0.000364030               0.001043080               0.000679050               0.000000000               0.000000000               0.000000000               0.000000000              -0.000460880               0.003991426              -0.001835376              -0.000671758               0.001554380               0.000882623               0.000000000               0.000000000               0.000000000               0.000000000              -0.001008617               0.005355493              -0.001958548              -0.001047667               0.002134368               0.001086702               0.000000000               0.000000000               0.000000000               0.000000000              -0.001060642               0.005904106              -0.001730235              -0.001135752               0.002346599               0.001210847               0.000000000               0.000000000               0.000000000               0.000000000              -0.000958708               0.006106343              -0.001467970              -0.001122806               0.002409696               0.001286890               0.000000000               0.000000000               0.000000000               0.000000000              -0.000813467               0.006135323              -0.001234952              -0.001071963               0.002402408               0.001330445               0.000000000               0.000000000               0.000000000               0.000000000              -0.000665100               0.006081259              -0.001035552              -0.001009568               0.002363589               0.001354021               0.000000000               0.000000000               0.000000000               0.000000000              -0.000523296               0.005994310              -0.000864802              -0.000945523               0.002313257               0.001367735               0.000000000               0.000000000               0.000000000               0.000000000              -0.000400069               0.005884138              -0.000720402              -0.000885541               0.002256540               0.001370999               0.000000000               0.000000000               0.000000000               0.000000000              -0.000304311               0.005751373              -0.000598057              -0.000833036               0.002194784               0.001361748               0.000000000               0.000000000               0.000000000               0.000000000              -0.000224887               0.005605126              -0.000490375              -0.000784971               0.002130014               0.001345042               0.000000000               0.000000000               0.000000000               0.000000000              -0.000160859               0.005448631              -0.000393849              -0.000741399               0.002063325               0.001321926               0.000000000               0.000000000               0.000000000               0.000000000              -0.000115750               0.005299605              -0.000303827              -0.000705855               0.002001802               0.001295947               0.000000000               0.000000000               0.000000000               0.000000000              -0.000087001               0.005171063              -0.000215457              -0.000679006               0.001950006               0.001271000               0.000000000               0.000000000               0.000000000               0.000000000              -0.000078444               0.005058347              -0.000129844              -0.000661708               0.001906668               0.001244960               0.000000000               0.000000000               0.000000000               0.000000000              -0.000093526               0.004966346              -0.000055247              -0.000655864               0.001874054               0.001218190               0.000000000               0.000000000               0.000000000               0.000000000              -0.000115821               0.004920838              -0.000019272              -0.000658536               0.001859775               0.001201239               0.000000000               0.000000000               0.000000000               0.000000000              -0.000985536               0.001648763              -0.000946694              -0.000575671               0.000741472               0.000165801               0.000000000               0.000000000               0.000000000               0.000000000              -0.000840610               0.002909516              -0.001587182              -0.000678918               0.001196134               0.000517216               0.000000000               0.000000000               0.000000000               0.000000000              -0.001004848               0.004274630              -0.002029470              -0.000911146               0.001728577               0.000817431               0.000000000               0.000000000               0.000000000               0.000000000              -0.000962534               0.004990171              -0.001935647              -0.000984720               0.001991613               0.001006893               0.000000000               0.000000000               0.000000000               0.000000000              -0.000852750               0.005367918              -0.001719975              -0.000990769               0.002119544               0.001128775               0.000000000               0.000000000               0.000000000               0.000000000              -0.000721364               0.005551096              -0.001494491              -0.000964397               0.002171812               0.001207415               0.000000000               0.000000000               0.000000000               0.000000000              -0.000583698               0.005627040              -0.001287164              -0.000922265               0.002183083               0.001260818               0.000000000               0.000000000               0.000000000               0.000000000              -0.000451419               0.005643401              -0.001103795              -0.000874705               0.002172683               0.001297978               0.000000000               0.000000000               0.000000000               0.000000000              -0.000332272               0.005615540              -0.000944159              -0.000826543               0.002147342               0.001320799               0.000000000               0.000000000               0.000000000               0.000000000              -0.000233490               0.005551748              -0.000806290              -0.000781525               0.002111072               0.001329547               0.000000000               0.000000000               0.000000000               0.000000000              -0.000154811               0.005459022              -0.000684788              -0.000740430               0.002066466               0.001326036               0.000000000               0.000000000               0.000000000               0.000000000              -0.000090228               0.005347283              -0.000569661              -0.000702244               0.002016491               0.001314247               0.000000000               0.000000000               0.000000000               0.000000000              -0.000042980               0.005235481              -0.000454711              -0.000670551               0.001968660               0.001298109               0.000000000               0.000000000               0.000000000               0.000000000              -0.000015740               0.005132640              -0.000340238              -0.000647481               0.001926690               0.001279209               0.000000000               0.000000000               0.000000000               0.000000000              -0.000010754               0.005039244              -0.000225283              -0.000633937               0.001891043               0.001257107               0.000000000               0.000000000               0.000000000               0.000000000              -0.000032684               0.004961813              -0.000109817              -0.000632482               0.001864748               0.001232267               0.000000000               0.000000000               0.000000000               0.000000000              -0.000065850               0.004919572              -0.000047878              -0.000639639               0.001853054               0.001213415               0.000000000               0.000000000               0.000000000               0.000000000              -0.002011749               0.000793612              -0.000455129              -0.000853606               0.000549069              -0.000304537               0.000000000               0.000000000               0.000000000               0.000000000              -0.001277640               0.001939204              -0.001273221              -0.000721515               0.000886899               0.000165384               0.000000000               0.000000000               0.000000000               0.000000000              -0.000982029               0.003167548              -0.001920908              -0.000764204               0.001310572               0.000546369               0.000000000               0.000000000               0.000000000               0.000000000              -0.000794581               0.003969204              -0.001954821              -0.000794118               0.001587760               0.000793642               0.000000000               0.000000000               0.000000000               0.000000000              -0.000655561               0.004486339              -0.001807217              -0.000806627               0.001764306               0.000957679               0.000000000               0.000000000               0.000000000               0.000000000              -0.000532592               0.004815538              -0.001617951              -0.000801663               0.001872384               0.001070721               0.000000000               0.000000000               0.000000000               0.000000000              -0.000412538               0.005020935              -0.001428007              -0.000782317               0.001934400               0.001152083               0.000000000               0.000000000               0.000000000               0.000000000              -0.000297522               0.005147921              -0.001250083              -0.000755060               0.001967643               0.001212583               0.000000000               0.000000000               0.000000000               0.000000000              -0.000189315               0.005215555              -0.001092657              -0.000722936               0.001979479               0.001256543               0.000000000               0.000000000               0.000000000               0.000000000              -0.000089912               0.005230739              -0.000955949              -0.000687558               0.001972748               0.001285190               0.000000000               0.000000000               0.000000000               0.000000000              -0.000006804               0.005206703              -0.000832972              -0.000653388               0.001953346               0.001299958               0.000000000               0.000000000               0.000000000               0.000000000               0.000061152               0.005161388              -0.000712868              -0.000622240               0.001927859               0.001305619               0.000000000               0.000000000               0.000000000               0.000000000               0.000117002               0.005103524              -0.000588884              -0.000594063               0.001899179               0.001305115               0.000000000               0.000000000               0.000000000               0.000000000               0.000159143               0.005046979              -0.000459480              -0.000571192               0.001872707               0.001301514               0.000000000               0.000000000               0.000000000               0.000000000               0.000178089               0.004994612              -0.000321503              -0.000557542               0.001850701               0.001293159               0.000000000               0.000000000               0.000000000               0.000000000               0.000163307               0.004944607              -0.000168468              -0.000556834               0.001833797               0.001276963               0.000000000               0.000000000               0.000000000               0.000000000               0.000131210               0.004912175              -0.000082600              -0.000564817               0.001825648               0.001260831               0.000000000               0.000000000               0.000000000               0.000000000              -0.003010867               0.000204136              -0.000105549              -0.001154591               0.000452906              -0.000701685               0.000000000               0.000000000               0.000000000               0.000000000              -0.001724724               0.001139230              -0.000928263              -0.000789174               0.000642796              -0.000146378               0.000000000               0.000000000               0.000000000               0.000000000              -0.000954861               0.002141145              -0.001627194              -0.000625715               0.000922279               0.000296563               0.000000000               0.000000000               0.000000000               0.000000000              -0.000591673               0.002952159              -0.001746606              -0.000590897               0.001181008               0.000590111               0.000000000               0.000000000               0.000000000               0.000000000              -0.000394943               0.003560493              -0.001670169              -0.000593165               0.001384540               0.000791375               0.000000000               0.000000000               0.000000000               0.000000000              -0.000267033               0.004005946              -0.001533592              -0.000600880               0.001535595               0.000934715               0.000000000               0.000000000               0.000000000               0.000000000              -0.000165748               0.004325793              -0.001380773              -0.000602879               0.001642876               0.001039997               0.000000000               0.000000000               0.000000000               0.000000000              -0.000069498               0.004556588              -0.001231807              -0.000595634               0.001717392               0.001121758               0.000000000               0.000000000               0.000000000               0.000000000               0.000021979               0.004719382              -0.001098156              -0.000581680               0.001767005               0.001185325               0.000000000               0.000000000               0.000000000               0.000000000               0.000110280               0.004824616              -0.000978844              -0.000561721               0.001795430               0.001233708               0.000000000               0.000000000               0.000000000               0.000000000               0.000191732               0.004883556              -0.000868019              -0.000538544               0.001807350               0.001268806               0.000000000               0.000000000               0.000000000               0.000000000               0.000266680               0.004913381              -0.000760039              -0.000514166               0.001809166               0.001294999               0.000000000               0.000000000               0.000000000               0.000000000               0.000340211               0.004924939              -0.000649053              -0.000488037               0.001804309               0.001316272               0.000000000               0.000000000               0.000000000               0.000000000               0.000413114               0.004928055              -0.000527643              -0.000461088               0.001796365               0.001335277               0.000000000               0.000000000               0.000000000               0.000000000               0.000474615               0.004923356              -0.000385107              -0.000437438               0.001786915               0.001349477               0.000000000               0.000000000               0.000000000               0.000000000               0.000509253               0.004911284              -0.000210100              -0.000422940               0.001778058               0.001355119               0.000000000               0.000000000               0.000000000               0.000000000               0.000512799               0.004899581              -0.000110998              -0.000420147               0.001773226               0.001353079               0.000000000               0.000000000               0.000000000               0.000000000              -0.003851083              -0.000150937               0.000069903              -0.001425288               0.000424781              -0.001000507               0.000000000               0.000000000               0.000000000               0.000000000              -0.002122715               0.000554178              -0.000589269              -0.000865289               0.000473152              -0.000392137               0.000000000               0.000000000               0.000000000               0.000000000              -0.000938368               0.001312628              -0.001174080              -0.000515966               0.000609526               0.000093560               0.000000000               0.000000000               0.000000000               0.000000000              -0.000400896               0.002081134              -0.001313888              -0.000410478               0.000830529               0.000420052               0.000000000               0.000000000               0.000000000               0.000000000              -0.000133511               0.002729836              -0.001288951              -0.000391296               0.001040368               0.000649072               0.000000000               0.000000000               0.000000000               0.000000000               0.000008940               0.003251134              -0.001204411              -0.000403039               0.001218046               0.000815007               0.000000000               0.000000000               0.000000000               0.000000000               0.000101360               0.003662256              -0.001102210              -0.000419772               0.001360664               0.000940892               0.000000000               0.000000000               0.000000000               0.000000000               0.000179339               0.003983521              -0.000997743              -0.000430688               0.001471389               0.001040702               0.000000000               0.000000000               0.000000000               0.000000000               0.000250785               0.004229969              -0.000901443              -0.000434701               0.001554876               0.001120174               0.000000000               0.000000000               0.000000000               0.000000000               0.000319909               0.004416587              -0.000815215              -0.000432107               0.001616216               0.001184110               0.000000000               0.000000000               0.000000000               0.000000000               0.000395184               0.004556064              -0.000733747              -0.000421313               0.001659111               0.001237797               0.000000000               0.000000000               0.000000000               0.000000000               0.000479469               0.004661650              -0.000655401              -0.000402905               0.001688169               0.001285265               0.000000000               0.000000000               0.000000000               0.000000000               0.000577894               0.004745644              -0.000576053              -0.000376495               0.001707364               0.001330869               0.000000000               0.000000000               0.000000000               0.000000000               0.000689846               0.004810066              -0.000484563              -0.000342565               0.001717528               0.001374963               0.000000000               0.000000000               0.000000000               0.000000000               0.000814146               0.004853609              -0.000366754              -0.000301396               0.001718319               0.001416923               0.000000000               0.000000000               0.000000000               0.000000000               0.000947170               0.004879868              -0.000206306              -0.000254794               0.001711538               0.001456744               0.000000000               0.000000000               0.000000000               0.000000000               0.001039257               0.004896627              -0.000115090              -0.000222357               0.001706311               0.001483955               0.000000000               0.000000000               0.000000000               0.000000000              -0.004411917              -0.000322053               0.000084929              -0.001614211               0.000430716              -0.001183495               0.000000000               0.000000000               0.000000000               0.000000000              -0.002406104               0.000207364              -0.000280163              -0.000928209               0.000378522              -0.000549687               0.000000000               0.000000000               0.000000000               0.000000000              -0.000939021               0.000776836              -0.000611906              -0.000449237               0.000408688              -0.000040549               0.000000000               0.000000000               0.000000000               0.000000000              -0.000266036               0.001492501              -0.000703550              -0.000286326               0.000592937               0.000306611               0.000000000               0.000000000               0.000000000               0.000000000               0.000059564               0.002150049              -0.000701545              -0.000246419               0.000798816               0.000552396               0.000000000               0.000000000               0.000000000               0.000000000               0.000222687               0.002711799              -0.000663188              -0.000255467               0.000989079               0.000733612               0.000000000               0.000000000               0.000000000               0.000000000               0.000311800               0.003180745              -0.000612728              -0.000280668               0.001153793               0.000873126               0.000000000               0.000000000               0.000000000               0.000000000               0.000370608               0.003562713              -0.000558490              -0.000306361               0.001289679               0.000983319               0.000000000               0.000000000               0.000000000               0.000000000               0.000424378               0.003869438              -0.000507573              -0.000324538               0.001397979               0.001073441               0.000000000               0.000000000               0.000000000               0.000000000               0.000481500               0.004115066              -0.000463061              -0.000333820               0.001482948               0.001149128               0.000000000               0.000000000               0.000000000               0.000000000               0.000551641               0.004312706              -0.000421371              -0.000332222               0.001548295               0.001216073               0.000000000               0.000000000               0.000000000               0.000000000               0.000642790               0.004475972              -0.000381905              -0.000318450               0.001598126               0.001279676               0.000000000               0.000000000               0.000000000               0.000000000               0.000759519               0.004612045              -0.000342043              -0.000291685               0.001634561               0.001342876               0.000000000               0.000000000               0.000000000               0.000000000               0.000906129               0.004722041              -0.000293671              -0.000250456               0.001657483               0.001407027               0.000000000               0.000000000               0.000000000               0.000000000               0.001092455               0.004805352              -0.000228187              -0.000190998               0.001665434               0.001474436               0.000000000               0.000000000               0.000000000               0.000000000               0.001331589               0.004859480              -0.000132117              -0.000108089               0.001655840               0.001547751               0.000000000               0.000000000               0.000000000               0.000000000               0.001528776               0.004900465              -0.000077888              -0.000039267               0.001646561               0.001607294               0.000000000               0.000000000               0.000000000               0.000000000               0.000000000               0.000000000               0.000000000               0.000000000               0.000000000               0.000000000               0.000000000               0.000000000               0.000000000               0.000000000               0.000000000               0.000000000               0.000000000               0.000000000               0.000000000               0.000000000               0.000000000               0.000000000               0.000000000               0.000000000               0.000000000               0.000000000               0.000000000               0.000000000               0.000000000               0.000000000               0.000000000               0.000000000               0.000000000               0.000000000               0.000000000               0.000000000               0.000000000               0.000000000               0.000000000               0.000000000               0.000000000               0.000000000               0.000000000               0.000000000               0.000000000               0.000000000               0.000000000               0.000000000               0.000000000               0.000000000               0.000000000               0.000000000               0.000000000               0.000000000               0.000000000               0.000000000               0.000000000               0.000000000               0.000000000               0.000000000               0.000000000               0.000000000               0.000000000               0.000000000               0.000000000               0.000000000               0.000000000               0.000000000               0.000000000               0.000000000               0.000000000               0.000000000               0.000000000               0.000000000               0.000000000               0.000000000               0.000000000               0.000000000               0.000000000               0.000000000               0.000000000               0.000000000               0.000000000               0.000000000               0.000000000               0.000000000               0.000000000               0.000000000               0.000000000               0.000000000               0.000000000               0.000000000               0.000000000               0.000000000               0.000000000               0.000000000               0.000000000               0.000000000               0.000000000               0.000000000               0.000000000               0.000000000               0.000000000               0.000000000               0.000000000               0.000000000               0.000000000               0.000000000               0.000000000               0.000000000               0.000000000               0.000000000               0.000000000               0.000000000               0.000000000               0.000000000               0.000000000               0.000000000               0.000000000               0.000000000               0.000000000               0.000000000               0.000000000               0.000000000               0.000000000               0.000000000               0.000000000               0.000000000               0.000000000               0.000000000               0.000000000               0.000000000               0.000000000               0.000000000               0.000000000               0.000000000               0.000000000               0.000000000               0.000000000               0.000000000               0.000000000               0.000000000               0.000000000               0.000000000               0.000000000               0.000000000               0.000000000               0.000000000               0.000000000               0.000000000               0.000000000               0.000000000               0.000000000               0.000000000               0.000000000               0.000000000               0.000000000               0.000000000               0.000000000               0.000000000               0.000000000               0.000000000               0.000000000               0.000000000               0.000000000               0.000000000               0.000000000               0.000000000               0.000000000               0.000000000               0.000000000               0.000000000               0.000000000               0.000000000               0.000000000               0.000000000               0.000000000               0.000000000               0.000000000               0.000000000               0.000000000               0.000000000               0.000000000               0.000000000               0.000000000               0.000000000               0.000000000               0.000000000               0.000000000               0.000000000               0.000000000               0.000000000               0.000000000               0.000000000               0.000000000               0.000000000               0.000000000               0.000000000               0.000000000               0.000000000               0.000000000               0.000000000               0.000000000               0.000000000               0.000000000               0.000000000               0.000000000               0.000000000               0.000000000               0.000000000               0.000000000               0.000000000               0.000000000               0.000000000               0.000000000               0.000000000               0.000000000               0.000000000               0.000000000               0.000000000               0.000000000               0.000000000               0.000000000               0.000000000               0.000000000               0.000000000               0.000000000               0.000000000               0.000000000               0.000000000               0.000000000               0.000000000               0.000000000               0.000000000               0.000000000               0.000000000               0.000000000               0.000000000               0.000000000               0.000000000               0.000000000               0.000000000               0.000000000               0.000000000               0.000000000               0.000000000               0.000000000               0.000000000               0.000000000               0.000000000               0.000000000               0.000000000               0.000000000               0.000000000               0.000000000               0.000000000               0.000000000               0.000000000               0.000000000               0.000000000               0.000000000               0.000000000               0.000000000               0.000000000               0.000000000               0.000000000               0.000000000               0.000000000               0.000000000               0.000000000               0.000000000               0.000000000               0.000000000               0.000000000               0.000000000               0.000000000               0.000000000               0.000000000               0.000000000               0.000000000               0.000000000               0.000000000               0.000000000               0.000000000               0.000000000               0.000000000               0.000000000               0.000000000               0.000000000               0.000000000               0.000000000               0.000000000               0.000000000               0.000000000               0.000000000               0.000000000               0.000000000               0.000000000               0.000000000               0.000000000               0.000000000               0.000000000               0.000000000               0.000000000               0.000000000               0.000000000               0.000000000               0.000000000               0.000000000               0.000000000               0.000000000               0.000000000               0.000000000               0.000000000               0.000000000               0.000000000               0.000000000               0.000000000               0.000000000               0.000000000               0.000000000               0.000000000               0.000000000               0.000000000               0.000000000               0.000000000               0.000000000               0.000000000               0.000000000               0.000000000               0.000000000               0.000000000               0.000000000               0.000000000               0.000000000               0.000000000               0.000000000               0.000000000               0.000000000               0.000000000               0.000000000               0.000000000               0.000000000               0.000000000               0.001590772               0.016738107               0.001212599              -0.001495720               0.006077886               0.004582166               0.000000000               0.000000000               0.000000000               0.000000000               0.001573034               0.013447497               0.000679283              -0.001091047               0.004846136               0.003755090               0.000000000               0.000000000               0.000000000               0.000000000               0.002050166               0.010814289               0.000141186              -0.000582973               0.003799051               0.003216078               0.000000000               0.000000000               0.000000000               0.000000000               0.002008460               0.009343035              -0.000094142              -0.000414706               0.003252549               0.002837843               0.000000000               0.000000000               0.000000000               0.000000000               0.001791902               0.008443012              -0.000199957              -0.000383412               0.002942113               0.002558701               0.000000000               0.000000000               0.000000000               0.000000000               0.001523850               0.007857947              -0.000248474              -0.000410799               0.002756222               0.002345424               0.000000000               0.000000000               0.000000000               0.000000000               0.001258658               0.007454049              -0.000263861              -0.000459758               0.002637911               0.002178153               0.000000000               0.000000000               0.000000000               0.000000000               0.001020341               0.007152496              -0.000260496              -0.000511433               0.002554619               0.002043186               0.000000000               0.000000000               0.000000000               0.000000000               0.000815088               0.006909409              -0.000250864              -0.000558017               0.002489119               0.001931102               0.000000000               0.000000000               0.000000000               0.000000000               0.000638549               0.006700098              -0.000236799              -0.000598055               0.002432695               0.001834640               0.000000000               0.000000000               0.000000000               0.000000000               0.000485202               0.006509764              -0.000219900              -0.000631768               0.002380489               0.001748721               0.000000000               0.000000000               0.000000000               0.000000000               0.000349629               0.006328927              -0.000204982              -0.000660003               0.002329622               0.001669619               0.000000000               0.000000000               0.000000000               0.000000000               0.000234097               0.006150017              -0.000189513              -0.000680964               0.002276973               0.001596009               0.000000000               0.000000000               0.000000000               0.000000000               0.000145389               0.005966221              -0.000165433              -0.000691255               0.002219139               0.001527884               0.000000000               0.000000000               0.000000000               0.000000000               0.000077320               0.005767255              -0.000129775              -0.000691910               0.002153036               0.001461126               0.000000000               0.000000000               0.000000000               0.000000000               0.000029724               0.005545235              -0.000076368              -0.000682006               0.002075729               0.001393722               0.000000000               0.000000000               0.000000000               0.000000000              -0.000004884               0.005378244              -0.000046951              -0.000674110               0.002017433               0.001343323               0.000000000               0.000000000               0.000000000               0.000000000               0.001776092               0.015800119               0.002278391              -0.001308978               0.005702980               0.004394001               0.000000000               0.000000000               0.000000000               0.000000000               0.001544852               0.012824181               0.001280696              -0.001023701               0.004615918               0.003592217               0.000000000               0.000000000               0.000000000               0.000000000               0.001789394               0.010518311               0.000282391              -0.000643765               0.003720657               0.003076892               0.000000000               0.000000000               0.000000000               0.000000000               0.001655008               0.009217228              -0.000143159              -0.000531524               0.003249553               0.002718029               0.000000000               0.000000000               0.000000000               0.000000000               0.001420101               0.008410565              -0.000330953              -0.000518782               0.002976421               0.002457639               0.000000000               0.000000000               0.000000000               0.000000000               0.001169504               0.007869441              -0.000413011              -0.000545115               0.002804826               0.002259711               0.000000000               0.000000000               0.000000000               0.000000000               0.000935790               0.007479360              -0.000437242              -0.000583997               0.002687761               0.002103763               0.000000000               0.000000000               0.000000000               0.000000000               0.000734644               0.007178355              -0.000429955              -0.000621801               0.002600028               0.001978227               0.000000000               0.000000000               0.000000000               0.000000000               0.000564235               0.006929196              -0.000410901              -0.000654560               0.002527895               0.001873336               0.000000000               0.000000000               0.000000000               0.000000000               0.000422318               0.006716326              -0.000387356              -0.000681170               0.002465810               0.001784640               0.000000000               0.000000000               0.000000000               0.000000000               0.000304224               0.006531212              -0.000361033              -0.000702316               0.002411154               0.001708838               0.000000000               0.000000000               0.000000000               0.000000000               0.000200654               0.006359236              -0.000331832              -0.000719657               0.002359610               0.001639953               0.000000000               0.000000000               0.000000000               0.000000000               0.000116834               0.006186959              -0.000296732              -0.000729556               0.002305484               0.001575929               0.000000000               0.000000000               0.000000000               0.000000000               0.000059908               0.006014810              -0.000250801              -0.000729384               0.002248045               0.001518661               0.000000000               0.000000000               0.000000000               0.000000000               0.000024671               0.005843753              -0.000190787              -0.000721216               0.002188303               0.001467088               0.000000000               0.000000000               0.000000000               0.000000000               0.000007260               0.005675113              -0.000108772              -0.000706665               0.002127240               0.001420575               0.000000000               0.000000000               0.000000000               0.000000000              -0.000008633               0.005562009              -0.000065164              -0.000698487               0.002086814               0.001388327               0.000000000               0.000000000               0.000000000               0.000000000               0.002009085               0.014377633               0.003075276              -0.001043797               0.005140428               0.004096632               0.000000000               0.000000000               0.000000000               0.000000000               0.001471796               0.011887730               0.001742898              -0.000934041               0.004273884               0.003339843               0.000000000               0.000000000               0.000000000               0.000000000               0.001388419               0.010075937               0.000424037              -0.000738833               0.003604890               0.002866057               0.000000000               0.000000000               0.000000000               0.000000000               0.001146382               0.009021164              -0.000117847              -0.000697750               0.003239608               0.002541858               0.000000000               0.000000000               0.000000000               0.000000000               0.000899197               0.008337728              -0.000349333              -0.000705015               0.003014220               0.002309205               0.000000000               0.000000000               0.000000000               0.000000000               0.000681315               0.007854295              -0.000447799              -0.000726292               0.002860169               0.002133877               0.000000000               0.000000000               0.000000000               0.000000000               0.000501349               0.007485636              -0.000478233              -0.000747697               0.002744419               0.001996723               0.000000000               0.000000000               0.000000000               0.000000000               0.000356521               0.007186723              -0.000469665              -0.000764643               0.002650431               0.001885788               0.000000000               0.000000000               0.000000000               0.000000000               0.000239677               0.006935793              -0.000447400              -0.000777093               0.002570939               0.001793846               0.000000000               0.000000000               0.000000000               0.000000000               0.000146021               0.006723800              -0.000421642              -0.000785715               0.002503149               0.001717434               0.000000000               0.000000000               0.000000000               0.000000000               0.000072336               0.006537253              -0.000391797              -0.000790029               0.002442405               0.001652377               0.000000000               0.000000000               0.000000000               0.000000000               0.000014032               0.006362108              -0.000354290              -0.000790000               0.002384015               0.001594015               0.000000000               0.000000000               0.000000000               0.000000000              -0.000026282               0.006194961              -0.000309226              -0.000784224               0.002326374               0.001542150               0.000000000               0.000000000               0.000000000               0.000000000              -0.000045295               0.006040238              -0.000256046              -0.000772014               0.002270730               0.001498717               0.000000000               0.000000000               0.000000000               0.000000000              -0.000046225               0.005901928              -0.000190181              -0.000755073               0.002218981               0.001463907               0.000000000               0.000000000               0.000000000               0.000000000              -0.000028783               0.005784733              -0.000105754              -0.000733884               0.002172853               0.001438969               0.000000000               0.000000000               0.000000000               0.000000000              -0.000022814               0.005716158              -0.000061928              -0.000723073               0.002146391               0.001423318               0.000000000               0.000000000               0.000000000               0.000000000               0.002188590               0.012637696               0.003540237              -0.000758992               0.004465520               0.003706528               0.000000000               0.000000000               0.000000000               0.000000000               0.001325722               0.010759472               0.002040342              -0.000847787               0.003869050               0.003021263               0.000000000               0.000000000               0.000000000               0.000000000               0.000895093               0.009545107               0.000571427              -0.000857476               0.003467496               0.002610019               0.000000000               0.000000000               0.000000000               0.000000000               0.000566431               0.008764543              -0.000006017              -0.000883154               0.003215870               0.002332716               0.000000000               0.000000000               0.000000000               0.000000000               0.000334723               0.008209990              -0.000247097              -0.000900726               0.003036878               0.002136152               0.000000000               0.000000000               0.000000000               0.000000000               0.000175372               0.007786372              -0.000350677              -0.000907530               0.002897941               0.001990412               0.000000000               0.000000000               0.000000000               0.000000000               0.000063190               0.007436125              -0.000385486              -0.000905817               0.002780622               0.001874805               0.000000000               0.000000000               0.000000000               0.000000000              -0.000014375               0.007140961              -0.000382358              -0.000898009               0.002679633               0.001781624               0.000000000               0.000000000               0.000000000               0.000000000              -0.000069693               0.006891682              -0.000368194              -0.000887593               0.002593069               0.001705476               0.000000000               0.000000000               0.000000000               0.000000000              -0.000106661               0.006677211              -0.000351013              -0.000874647               0.002517264               0.001642616               0.000000000               0.000000000               0.000000000               0.000000000              -0.000125592               0.006483969              -0.000327021              -0.000857591               0.002447165               0.001589574               0.000000000               0.000000000               0.000000000               0.000000000              -0.000132447               0.006304637              -0.000295001              -0.000837745               0.002380773               0.001543028               0.000000000               0.000000000               0.000000000               0.000000000              -0.000127442               0.006144466              -0.000256299              -0.000815847               0.002320084               0.001504237               0.000000000               0.000000000               0.000000000               0.000000000              -0.000109233               0.006007647              -0.000211264              -0.000791916               0.002266501               0.001474585               0.000000000               0.000000000               0.000000000               0.000000000              -0.000079918               0.005897794              -0.000154682              -0.000767192               0.002221642               0.001454451               0.000000000               0.000000000               0.000000000               0.000000000              -0.000043202               0.005816802              -0.000083217              -0.000743299               0.002186681               0.001443382               0.000000000               0.000000000               0.000000000               0.000000000              -0.000026700               0.005778762              -0.000046040              -0.000732356               0.002170354               0.001437997               0.000000000               0.000000000               0.000000000               0.000000000               0.002221431               0.010748512               0.003673650              -0.000510530               0.003752977               0.003242447               0.000000000               0.000000000               0.000000000               0.000000000               0.001088107               0.009559449               0.002185943              -0.000786891               0.003448747               0.002661857               0.000000000               0.000000000               0.000000000               0.000000000               0.000362857               0.008974066               0.000739010              -0.000985685               0.003319887               0.002334202               0.000000000               0.000000000               0.000000000               0.000000000               0.000004116               0.008451916               0.000188687              -0.001054944               0.003168925               0.002113982               0.000000000               0.000000000               0.000000000               0.000000000              -0.000174889               0.008014469              -0.000042536              -0.001067389               0.003027260               0.001959870               0.000000000               0.000000000               0.000000000               0.000000000              -0.000258917               0.007639519              -0.000146935              -0.001052031               0.002897158               0.001845127               0.000000000               0.000000000               0.000000000               0.000000000              -0.000295650               0.007309443              -0.000191784              -0.001024547               0.002777972               0.001753425               0.000000000               0.000000000               0.000000000               0.000000000              -0.000301845               0.007022639              -0.000207361              -0.000991019               0.002671196               0.001680177               0.000000000               0.000000000               0.000000000               0.000000000              -0.000292465               0.006773593              -0.000213108              -0.000956371               0.002576632               0.001620261               0.000000000               0.000000000               0.000000000               0.000000000              -0.000274081               0.006551562              -0.000213961              -0.000921723               0.002491073               0.001569350               0.000000000               0.000000000               0.000000000               0.000000000              -0.000241192               0.006351421              -0.000204208              -0.000884372               0.002411910               0.001527538               0.000000000               0.000000000               0.000000000               0.000000000              -0.000201347               0.006171565              -0.000186201              -0.000846949               0.002339484               0.001492535               0.000000000               0.000000000               0.000000000               0.000000000              -0.000158657               0.006015489              -0.000161915              -0.000811430               0.002275620               0.001464189               0.000000000               0.000000000               0.000000000               0.000000000              -0.000114088               0.005885272              -0.000130635              -0.000778440               0.002221218               0.001442778               0.000000000               0.000000000               0.000000000               0.000000000              -0.000072152               0.005779534              -0.000088490              -0.000749497               0.002176325               0.001426827               0.000000000               0.000000000               0.000000000               0.000000000              -0.000033873               0.005703604              -0.000041340              -0.000725651               0.002143066               0.001417415               0.000000000               0.000000000               0.000000000               0.000000000              -0.000018524               0.005668953              -0.000020956              -0.000715564               0.002128154               0.001412590               0.000000000               0.000000000               0.000000000               0.000000000               0.002061621               0.008857342               0.003520917              -0.000334063               0.003063771               0.002729708               0.000000000               0.000000000               0.000000000               0.000000000               0.000775281               0.008380055               0.002216042              -0.000756776               0.003045582               0.002288805               0.000000000               0.000000000               0.000000000               0.000000000              -0.000145537               0.008384267               0.000938294              -0.001102607               0.003162263               0.002059656               0.000000000               0.000000000               0.000000000               0.000000000              -0.000469578               0.008081248               0.000449563              -0.001186245               0.003089137               0.001902893               0.000000000               0.000000000               0.000000000               0.000000000              -0.000565126               0.007739993               0.000229207              -0.001179418               0.002973111               0.001793693               0.000000000               0.000000000               0.000000000               0.000000000              -0.000564770               0.007411901               0.000111782              -0.001138274               0.002850033               0.001711760               0.000000000               0.000000000               0.000000000               0.000000000              -0.000525967               0.007108578               0.000041877              -0.001085807               0.002731438               0.001645631               0.000000000               0.000000000               0.000000000               0.000000000              -0.000475906               0.006829848              -0.000002683              -0.001032193               0.002620658               0.001588465               0.000000000               0.000000000               0.000000000               0.000000000              -0.000415718               0.006583129              -0.000034946              -0.000978783               0.002520615               0.001541832               0.000000000               0.000000000               0.000000000               0.000000000              -0.000351283               0.006361617              -0.000057391              -0.000926931               0.002429495               0.001502564               0.000000000               0.000000000               0.000000000               0.000000000              -0.000279488               0.006160255              -0.000066171              -0.000874838               0.002345010               0.001470173               0.000000000               0.000000000               0.000000000               0.000000000              -0.000208192               0.005978636              -0.000064993              -0.000825400               0.002267992               0.001442593               0.000000000               0.000000000               0.000000000               0.000000000              -0.000149001               0.005816542              -0.000057606              -0.000782941               0.002199808               0.001416867               0.000000000               0.000000000               0.000000000               0.000000000              -0.000099181               0.005677050              -0.000043449              -0.000746822               0.002141272               0.001394450               0.000000000               0.000000000               0.000000000               0.000000000              -0.000054801               0.005561890              -0.000023590              -0.000715785               0.002092540               0.001376755               0.000000000               0.000000000               0.000000000               0.000000000              -0.000021107               0.005473017              -0.000007056              -0.000692040               0.002055001               0.001362961               0.000000000               0.000000000               0.000000000               0.000000000              -0.000015347               0.005422590              -0.000005543              -0.000683577               0.002035371               0.001351794               0.000000000               0.000000000               0.000000000               0.000000000               0.001723366               0.007077755               0.003148486              -0.000238460               0.002438714               0.002200253               0.000000000               0.000000000               0.000000000               0.000000000               0.000417467               0.007278954               0.002169655              -0.000753319               0.002677400               0.001924080               0.000000000               0.000000000               0.000000000               0.000000000              -0.000567292               0.007775587               0.001170238              -0.001184680               0.002986730               0.001802049               0.000000000               0.000000000               0.000000000               0.000000000              -0.000804199               0.007652273               0.000744127              -0.001258106               0.002970101               0.001711995               0.000000000               0.000000000               0.000000000               0.000000000              -0.000803487               0.007400293               0.000514197              -0.001226341               0.002875520               0.001649179               0.000000000               0.000000000               0.000000000               0.000000000              -0.000724858               0.007121824               0.000366721              -0.001162047               0.002761266               0.001599220               0.000000000               0.000000000               0.000000000               0.000000000              -0.000629002               0.006843322               0.000264656              -0.001091288               0.002644847               0.001553559               0.000000000               0.000000000               0.000000000               0.000000000              -0.000537107               0.006579119               0.000188636              -0.001023802               0.002534285               0.001510483               0.000000000               0.000000000               0.000000000               0.000000000              -0.000443548               0.006343320               0.000127059              -0.000959243               0.002434167               0.001474923               0.000000000               0.000000000               0.000000000               0.000000000              -0.000350203               0.006126697               0.000081729              -0.000897161               0.002341266               0.001444105               0.000000000               0.000000000               0.000000000               0.000000000              -0.000264156               0.005922189               0.000053663              -0.000839330               0.002253820               0.001414490               0.000000000               0.000000000               0.000000000               0.000000000              -0.000189658               0.005734543               0.000037105              -0.000787938               0.002174141               0.001386204               0.000000000               0.000000000               0.000000000               0.000000000              -0.000128036               0.005567666               0.000024951              -0.000743970               0.002103860               0.001359890               0.000000000               0.000000000               0.000000000               0.000000000              -0.000077477               0.005424313               0.000016072              -0.000707091               0.002043783               0.001336692               0.000000000               0.000000000               0.000000000               0.000000000              -0.000038475               0.005306834               0.000011668              -0.000677781               0.001994854               0.001317073               0.000000000               0.000000000               0.000000000               0.000000000              -0.000014260               0.005212106               0.000006529              -0.000656859               0.001956304               0.001299445               0.000000000               0.000000000               0.000000000               0.000000000              -0.000014437               0.005155644              -0.000002059              -0.000649868               0.001935153               0.001285286               0.000000000               0.000000000               0.000000000               0.000000000               0.001282074               0.005543391               0.002644774              -0.000212149               0.001918494               0.001706345               0.000000000               0.000000000               0.000000000               0.000000000               0.000085410               0.006283920               0.002091540              -0.000753461               0.002345772               0.001592311               0.000000000               0.000000000               0.000000000               0.000000000              -0.000859247               0.007182915               0.001440279              -0.001220080               0.002800974               0.001580895               0.000000000               0.000000000               0.000000000               0.000000000              -0.000996479               0.007248960               0.001055443              -0.001279797               0.002842895               0.001563098               0.000000000               0.000000000               0.000000000               0.000000000              -0.000922129               0.007098509               0.000800640              -0.001233109               0.002777182               0.001544073               0.000000000               0.000000000               0.000000000               0.000000000              -0.000787399               0.006874434               0.000619069              -0.001154576               0.002676314               0.001521738               0.000000000               0.000000000               0.000000000               0.000000000              -0.000649150               0.006626092               0.000483165              -0.001071690               0.002565905               0.001494215               0.000000000               0.000000000               0.000000000               0.000000000              -0.000524645               0.006388725               0.000375169              -0.000995330               0.002461330               0.001466000               0.000000000               0.000000000               0.000000000               0.000000000              -0.000412728               0.006169508               0.000285472              -0.000925959               0.002365135               0.001439176               0.000000000               0.000000000               0.000000000               0.000000000              -0.000309886               0.005953445               0.000216642              -0.000860386               0.002271257               0.001410871               0.000000000               0.000000000               0.000000000               0.000000000              -0.000223483               0.005742628               0.000166430              -0.000801632               0.002181401               0.001379768               0.000000000               0.000000000               0.000000000               0.000000000              -0.000154573               0.005549868               0.000126867              -0.000751696               0.002100503               0.001348807               0.000000000               0.000000000               0.000000000               0.000000000              -0.000099554               0.005382571               0.000091664              -0.000710152               0.002030890               0.001320738               0.000000000               0.000000000               0.000000000               0.000000000              -0.000058891               0.005241723               0.000059165              -0.000677298               0.001972990               0.001295692               0.000000000               0.000000000               0.000000000               0.000000000              -0.000038221               0.005124635               0.000033081              -0.000654911               0.001926498               0.001271588               0.000000000               0.000000000               0.000000000               0.000000000              -0.000038656               0.005029580               0.000014365              -0.000643192               0.001890907               0.001247715               0.000000000               0.000000000               0.000000000               0.000000000              -0.000045693               0.004980214               0.000004031              -0.000639660               0.001873275               0.001233615               0.000000000               0.000000000               0.000000000               0.000000000               0.000722372               0.004092478               0.002092041              -0.000240672               0.001444369               0.001203697               0.000000000               0.000000000               0.000000000               0.000000000              -0.000167762               0.005135349               0.001994641              -0.000704829               0.001946708               0.001241879               0.000000000               0.000000000               0.000000000               0.000000000              -0.000974594               0.006326725               0.001732980              -0.001156311               0.002494324               0.001338013               0.000000000               0.000000000               0.000000000               0.000000000              -0.001067278               0.006643360               0.001401570              -0.001230647               0.002624647               0.001394000               0.000000000               0.000000000               0.000000000               0.000000000              -0.000969381               0.006656955               0.001127747              -0.001195635               0.002617508               0.001421873               0.000000000               0.000000000               0.000000000               0.000000000              -0.000820775               0.006542837               0.000913853              -0.001125643               0.002556138               0.001430495               0.000000000               0.000000000               0.000000000               0.000000000              -0.000669046               0.006376140               0.000742370              -0.001047907               0.002474661               0.001426754               0.000000000               0.000000000               0.000000000               0.000000000              -0.000530027               0.006204790               0.000598941              -0.000974356               0.002393028               0.001418672               0.000000000               0.000000000               0.000000000               0.000000000              -0.000413467               0.006031322               0.000480544              -0.000908963               0.002313408               0.001404445               0.000000000               0.000000000               0.000000000               0.000000000              -0.000314716               0.005847927               0.000384447              -0.000849007               0.002232292               0.001383284               0.000000000               0.000000000               0.000000000               0.000000000              -0.000230620               0.005660851               0.000303850              -0.000794087               0.002151627               0.001357540               0.000000000               0.000000000               0.000000000               0.000000000              -0.000166617               0.005479555               0.000235498              -0.000747424               0.002075641               0.001328218               0.000000000               0.000000000               0.000000000               0.000000000              -0.000118338               0.005317035               0.000173647              -0.000709004               0.002008662               0.001299658               0.000000000               0.000000000               0.000000000               0.000000000              -0.000085146               0.005180088               0.000115029              -0.000679439               0.001953158               0.001273719               0.000000000               0.000000000               0.000000000               0.000000000              -0.000072825               0.005062812               0.000061861              -0.000660159               0.001907640               0.001247481               0.000000000               0.000000000               0.000000000               0.000000000              -0.000082782               0.004966076               0.000021237              -0.000651801               0.001872609               0.001220808               0.000000000               0.000000000               0.000000000               0.000000000              -0.000095026               0.004920994               0.000004329              -0.000650757               0.001857234               0.001206477               0.000000000               0.000000000               0.000000000               0.000000000              -0.000049000               0.002765240               0.001514866              -0.000364030               0.001043080               0.000679050               0.000000000               0.000000000               0.000000000               0.000000000              -0.000460880               0.003991426               0.001835376              -0.000671758               0.001554380               0.000882623               0.000000000               0.000000000               0.000000000               0.000000000              -0.001008617               0.005355493               0.001958548              -0.001047667               0.002134368               0.001086702               0.000000000               0.000000000               0.000000000               0.000000000              -0.001060642               0.005904106               0.001730235              -0.001135752               0.002346599               0.001210847               0.000000000               0.000000000               0.000000000               0.000000000              -0.000958708               0.006106343               0.001467970              -0.001122806               0.002409696               0.001286890               0.000000000               0.000000000               0.000000000               0.000000000              -0.000813467               0.006135323               0.001234952              -0.001071963               0.002402408               0.001330445               0.000000000               0.000000000               0.000000000               0.000000000              -0.000665100               0.006081259               0.001035552              -0.001009568               0.002363589               0.001354021               0.000000000               0.000000000               0.000000000               0.000000000              -0.000523296               0.005994310               0.000864802              -0.000945523               0.002313257               0.001367735               0.000000000               0.000000000               0.000000000               0.000000000              -0.000400069               0.005884138               0.000720402              -0.000885541               0.002256540               0.001370999               0.000000000               0.000000000               0.000000000               0.000000000              -0.000304311               0.005751373               0.000598057              -0.000833036               0.002194784               0.001361748               0.000000000               0.000000000               0.000000000               0.000000000              -0.000224887               0.005605126               0.000490375              -0.000784971               0.002130014               0.001345042               0.000000000               0.000000000               0.000000000               0.000000000              -0.000160859               0.005448631               0.000393849              -0.000741399               0.002063325               0.001321926               0.000000000               0.000000000               0.000000000               0.000000000              -0.000115750               0.005299605               0.000303827              -0.000705855               0.002001802               0.001295947               0.000000000               0.000000000               0.000000000               0.000000000              -0.000087001               0.005171063               0.000215457              -0.000679006               0.001950006               0.001271000               0.000000000               0.000000000               0.000000000               0.000000000              -0.000078444               0.005058347               0.000129844              -0.000661708               0.001906668               0.001244960               0.000000000               0.000000000               0.000000000               0.000000000              -0.000093526               0.004966346               0.000055247              -0.000655864               0.001874054               0.001218190               0.000000000               0.000000000               0.000000000               0.000000000              -0.000115821               0.004920838               0.000019272              -0.000658536               0.001859775               0.001201239               0.000000000               0.000000000               0.000000000               0.000000000              -0.000985536               0.001648763               0.000946694              -0.000575671               0.000741472               0.000165801               0.000000000               0.000000000               0.000000000               0.000000000              -0.000840610               0.002909516               0.001587182              -0.000678918               0.001196134               0.000517216               0.000000000               0.000000000               0.000000000               0.000000000              -0.001004848               0.004274630               0.002029470              -0.000911146               0.001728577               0.000817431               0.000000000               0.000000000               0.000000000               0.000000000              -0.000962534               0.004990171               0.001935647              -0.000984720               0.001991613               0.001006893               0.000000000               0.000000000               0.000000000               0.000000000              -0.000852750               0.005367918               0.001719975              -0.000990769               0.002119544               0.001128775               0.000000000               0.000000000               0.000000000               0.000000000              -0.000721364               0.005551096               0.001494491              -0.000964397               0.002171812               0.001207415               0.000000000               0.000000000               0.000000000               0.000000000              -0.000583698               0.005627040               0.001287164              -0.000922265               0.002183083               0.001260818               0.000000000               0.000000000               0.000000000               0.000000000              -0.000451419               0.005643401               0.001103795              -0.000874705               0.002172683               0.001297978               0.000000000               0.000000000               0.000000000               0.000000000              -0.000332272               0.005615540               0.000944159              -0.000826543               0.002147342               0.001320799               0.000000000               0.000000000               0.000000000               0.000000000              -0.000233490               0.005551748               0.000806290              -0.000781525               0.002111072               0.001329547               0.000000000               0.000000000               0.000000000               0.000000000              -0.000154811               0.005459022               0.000684788              -0.000740430               0.002066466               0.001326036               0.000000000               0.000000000               0.000000000               0.000000000              -0.000090228               0.005347283               0.000569661              -0.000702244               0.002016491               0.001314247               0.000000000               0.000000000               0.000000000               0.000000000              -0.000042980               0.005235481               0.000454711              -0.000670551               0.001968660               0.001298109               0.000000000               0.000000000               0.000000000               0.000000000              -0.000015740               0.005132640               0.000340238              -0.000647481               0.001926690               0.001279209               0.000000000               0.000000000               0.000000000               0.000000000              -0.000010754               0.005039244               0.000225283              -0.000633937               0.001891043               0.001257107               0.000000000               0.000000000               0.000000000               0.000000000              -0.000032684               0.004961813               0.000109817              -0.000632482               0.001864748               0.001232267               0.000000000               0.000000000               0.000000000               0.000000000              -0.000065850               0.004919572               0.000047878              -0.000639639               0.001853054               0.001213415               0.000000000               0.000000000               0.000000000               0.000000000              -0.002011749               0.000793612               0.000455129              -0.000853606               0.000549069              -0.000304537               0.000000000               0.000000000               0.000000000               0.000000000              -0.001277640               0.001939204               0.001273221              -0.000721515               0.000886899               0.000165384               0.000000000               0.000000000               0.000000000               0.000000000              -0.000982029               0.003167548               0.001920908              -0.000764204               0.001310572               0.000546369               0.000000000               0.000000000               0.000000000               0.000000000              -0.000794581               0.003969204               0.001954821              -0.000794118               0.001587760               0.000793642               0.000000000               0.000000000               0.000000000               0.000000000              -0.000655561               0.004486339               0.001807217              -0.000806627               0.001764306               0.000957679               0.000000000               0.000000000               0.000000000               0.000000000              -0.000532592               0.004815538               0.001617951              -0.000801663               0.001872384               0.001070721               0.000000000               0.000000000               0.000000000               0.000000000              -0.000412538               0.005020935               0.001428007              -0.000782317               0.001934400               0.001152083               0.000000000               0.000000000               0.000000000               0.000000000              -0.000297522               0.005147921               0.001250083              -0.000755060               0.001967643               0.001212583               0.000000000               0.000000000               0.000000000               0.000000000              -0.000189315               0.005215555               0.001092657              -0.000722936               0.001979479               0.001256543               0.000000000               0.000000000               0.000000000               0.000000000              -0.000089912               0.005230739               0.000955949              -0.000687558               0.001972748               0.001285190               0.000000000               0.000000000               0.000000000               0.000000000              -0.000006804               0.005206703               0.000832972              -0.000653388               0.001953346               0.001299958               0.000000000               0.000000000               0.000000000               0.000000000               0.000061152               0.005161388               0.000712868              -0.000622240               0.001927859               0.001305619               0.000000000               0.000000000               0.000000000               0.000000000               0.000117002               0.005103524               0.000588884              -0.000594063               0.001899179               0.001305115               0.000000000               0.000000000               0.000000000               0.000000000               0.000159143               0.005046979               0.000459480              -0.000571192               0.001872707               0.001301514               0.000000000               0.000000000               0.000000000               0.000000000               0.000178089               0.004994612               0.000321503              -0.000557542               0.001850701               0.001293159               0.000000000               0.000000000               0.000000000               0.000000000               0.000163307               0.004944607               0.000168468              -0.000556834               0.001833797               0.001276963               0.000000000               0.000000000               0.000000000               0.000000000               0.000131210               0.004912175               0.000082600              -0.000564817               0.001825648               0.001260831               0.000000000               0.000000000               0.000000000               0.000000000              -0.003010867               0.000204136               0.000105549              -0.001154591               0.000452906              -0.000701685               0.000000000               0.000000000               0.000000000               0.000000000              -0.001724724               0.001139230               0.000928263              -0.000789174               0.000642796              -0.000146378               0.000000000               0.000000000               0.000000000               0.000000000              -0.000954861               0.002141145               0.001627194              -0.000625715               0.000922279               0.000296563               0.000000000               0.000000000               0.000000000               0.000000000              -0.000591673               0.002952159               0.001746606              -0.000590897               0.001181008               0.000590111               0.000000000               0.000000000               0.000000000               0.000000000              -0.000394943               0.003560493               0.001670169              -0.000593165               0.001384540               0.000791375               0.000000000               0.000000000               0.000000000               0.000000000              -0.000267033               0.004005946               0.001533592              -0.000600880               0.001535595               0.000934715               0.000000000               0.000000000               0.000000000               0.000000000              -0.000165748               0.004325793               0.001380773              -0.000602879               0.001642876               0.001039997               0.000000000               0.000000000               0.000000000               0.000000000              -0.000069498               0.004556588               0.001231807              -0.000595634               0.001717392               0.001121758               0.000000000               0.000000000               0.000000000               0.000000000               0.000021979               0.004719382               0.001098156              -0.000581680               0.001767005               0.001185325               0.000000000               0.000000000               0.000000000               0.000000000               0.000110280               0.004824616               0.000978844              -0.000561721               0.001795430               0.001233708               0.000000000               0.000000000               0.000000000               0.000000000               0.000191732               0.004883556               0.000868019              -0.000538544               0.001807350               0.001268806               0.000000000               0.000000000               0.000000000               0.000000000               0.000266680               0.004913381               0.000760039              -0.000514166               0.001809166               0.001294999               0.000000000               0.000000000               0.000000000               0.000000000               0.000340211               0.004924939               0.000649053              -0.000488037               0.001804309               0.001316272               0.000000000               0.000000000               0.000000000               0.000000000               0.000413114               0.004928055               0.000527643              -0.000461088               0.001796365               0.001335277               0.000000000               0.000000000               0.000000000               0.000000000               0.000474615               0.004923356               0.000385107              -0.000437438               0.001786915               0.001349477               0.000000000               0.000000000               0.000000000               0.000000000               0.000509253               0.004911284               0.000210100              -0.000422940               0.001778058               0.001355119               0.000000000               0.000000000               0.000000000               0.000000000               0.000512799               0.004899581               0.000110998              -0.000420147               0.001773226               0.001353079               0.000000000               0.000000000               0.000000000               0.000000000              -0.003851083              -0.000150937              -0.000069903              -0.001425288               0.000424781              -0.001000507               0.000000000               0.000000000               0.000000000               0.000000000              -0.002122715               0.000554178               0.000589269              -0.000865289               0.000473152              -0.000392137               0.000000000               0.000000000               0.000000000               0.000000000              -0.000938368               0.001312628               0.001174080              -0.000515966               0.000609526               0.000093560               0.000000000               0.000000000               0.000000000               0.000000000              -0.000400896               0.002081134               0.001313888              -0.000410478               0.000830529               0.000420052               0.000000000               0.000000000               0.000000000               0.000000000              -0.000133511               0.002729836               0.001288951              -0.000391296               0.001040368               0.000649072               0.000000000               0.000000000               0.000000000               0.000000000               0.000008940               0.003251134               0.001204411              -0.000403039               0.001218046               0.000815007               0.000000000               0.000000000               0.000000000               0.000000000               0.000101360               0.003662256               0.001102210              -0.000419772               0.001360664               0.000940892               0.000000000               0.000000000               0.000000000               0.000000000               0.000179339               0.003983521               0.000997743              -0.000430688               0.001471389               0.001040702               0.000000000               0.000000000               0.000000000               0.000000000               0.000250785               0.004229969               0.000901443              -0.000434701               0.001554876               0.001120174               0.000000000               0.000000000               0.000000000               0.000000000               0.000319909               0.004416587               0.000815215              -0.000432107               0.001616216               0.001184110               0.000000000               0.000000000               0.000000000               0.000000000               0.000395184               0.004556064               0.000733747              -0.000421313               0.001659111               0.001237797               0.000000000               0.000000000               0.000000000               0.000000000               0.000479469               0.004661650               0.000655401              -0.000402905               0.001688169               0.001285265               0.000000000               0.000000000               0.000000000               0.000000000               0.000577894               0.004745644               0.000576053              -0.000376495               0.001707364               0.001330869               0.000000000               0.000000000               0.000000000               0.000000000               0.000689846               0.004810066               0.000484563              -0.000342565               0.001717528               0.001374963               0.000000000               0.000000000               0.000000000               0.000000000               0.000814146               0.004853609               0.000366754              -0.000301396               0.001718319               0.001416923               0.000000000               0.000000000               0.000000000               0.000000000               0.000947170               0.004879868               0.000206306              -0.000254794               0.001711538               0.001456744               0.000000000               0.000000000               0.000000000               0.000000000               0.001039257               0.004896627               0.000115090              -0.000222357               0.001706311               0.001483955               0.000000000               0.000000000               0.000000000               0.000000000              -0.004411917              -0.000322053              -0.000084929              -0.001614211               0.000430716              -0.001183495               0.000000000               0.000000000               0.000000000               0.000000000              -0.002406104               0.000207364               0.000280163              -0.000928209               0.000378522              -0.000549687               0.000000000               0.000000000               0.000000000               0.000000000              -0.000939021               0.000776836               0.000611906              -0.000449237               0.000408688              -0.000040549               0.000000000               0.000000000               0.000000000               0.000000000              -0.000266036               0.001492501               0.000703550              -0.000286326               0.000592937               0.000306611               0.000000000               0.000000000               0.000000000               0.000000000               0.000059564               0.002150049               0.000701545              -0.000246419               0.000798816               0.000552396               0.000000000               0.000000000               0.000000000               0.000000000               0.000222687               0.002711799               0.000663188              -0.000255467               0.000989079               0.000733612               0.000000000               0.000000000               0.000000000               0.000000000               0.000311800               0.003180745               0.000612728              -0.000280668               0.001153793               0.000873126               0.000000000               0.000000000               0.000000000               0.000000000               0.000370608               0.003562713               0.000558490              -0.000306361               0.001289679               0.000983319               0.000000000               0.000000000               0.000000000               0.000000000               0.000424378               0.003869438               0.000507573              -0.000324538               0.001397979               0.001073441               0.000000000               0.000000000               0.000000000               0.000000000               0.000481500               0.004115066               0.000463061              -0.000333820               0.001482948               0.001149128               0.000000000               0.000000000               0.000000000               0.000000000               0.000551641               0.004312706               0.000421371              -0.000332222               0.001548295               0.001216073               0.000000000               0.000000000               0.000000000               0.000000000               0.000642790               0.004475972               0.000381905              -0.000318450               0.001598126               0.001279676               0.000000000               0.000000000               0.000000000               0.000000000               0.000759519               0.004612045               0.000342043              -0.000291685               0.001634561               0.001342876               0.000000000               0.000000000               0.000000000               0.000000000               0.000906129               0.004722041               0.000293671              -0.000250456               0.001657483               0.001407027               0.000000000               0.000000000               0.000000000               0.000000000               0.001092455               0.004805352               0.000228187              -0.000190998               0.001665434               0.001474436               0.000000000               0.000000000               0.000000000               0.000000000               0.001331589               0.004859480               0.000132117              -0.000108089               0.001655840               0.001547751               0.000000000               0.000000000               0.000000000               0.000000000               0.001528776               0.004900465               0.000077888              -0.000039267               0.001646561               0.001607294               0.000000000               0.000000000               0.000000000               0.000000000               0.000000000               0.000000000               0.000000000               0.000000000               0.000000000               0.000000000               0.000000000               0.000000000               0.000000000               0.000000000               0.000000000               0.000000000               0.000000000               0.000000000               0.000000000               0.000000000               0.000000000               0.000000000               0.000000000               0.000000000               0.000000000               0.000000000               0.000000000               0.000000000               0.000000000               0.000000000               0.000000000               0.000000000               0.000000000               0.000000000               0.000000000               0.000000000               0.000000000               0.000000000               0.000000000               0.000000000               0.000000000               0.000000000               0.000000000               0.000000000               0.000000000               0.000000000               0.000000000               0.000000000               0.000000000               0.000000000               0.000000000               0.000000000               0.000000000               0.000000000               0.000000000               0.000000000               0.000000000               0.000000000               0.000000000               0.000000000               0.000000000               0.000000000               0.000000000               0.000000000               0.000000000               0.000000000               0.000000000               0.000000000               0.000000000               0.000000000               0.000000000               0.000000000               0.000000000               0.000000000               0.000000000               0.000000000               0.000000000               0.000000000               0.000000000               0.000000000               0.000000000               0.000000000               0.000000000               0.000000000               0.000000000               0.000000000               0.000000000               0.000000000               0.000000000               0.000000000               0.000000000               0.000000000               0.000000000               0.000000000               0.000000000               0.000000000               0.000000000               0.000000000               0.000000000               0.000000000               0.000000000               0.000000000               0.000000000               0.000000000               0.000000000               0.000000000               0.000000000               0.000000000               0.000000000               0.000000000               0.000000000               0.000000000               0.000000000               0.000000000               0.000000000               0.000000000               0.000000000               0.000000000               0.000000000               0.000000000               0.000000000               0.000000000               0.000000000               0.000000000               0.000000000               0.000000000               0.000000000               0.000000000               0.000000000               0.000000000               0.000000000               0.000000000               0.000000000               0.000000000               0.000000000               0.000000000               0.000000000               0.000000000               0.000000000               0.000000000               0.000000000               0.000000000               0.000000000               0.000000000               0.000000000               0.000000000               0.000000000               0.000000000               0.000000000               0.000000000               0.000000000               0.000000000               0.000000000               0.000000000               0.000000000               0.000000000               0.000000000               0.000000000               0.000000000               0.000000000               0.000000000               0.000000000               0.000000000               0.000000000               0.000000000               0.000000000               0.000000000               0.000000000               0.000000000               0.000000000               0.000000000               0.000000000               0.000000000               0.000000000 </DataArray>
</PointData>
</Piece>
</UnstructuredGrid> </VTKFile>
